********************************************************************************
Field Output Report, written Tue Feb 19 12:35:13 2019

Source 1
---------

   ODB: C:/Scratch/A320-19.odb
   Step: Jam2
   Frame: Increment      1: Step Time =    1.000

Loc 1 : Element nodal  values at shell < ALUMINIUM > < 5 section points > from source 1 : SNEG, (fraction = -1.0) ( Average criteria = 75%, Not averaged across region boundaries )
Loc 2 : Element nodal  values at shell < ALUMINIUM > < 5 section points > from source 1 : SPOS, (fraction = 1.0) ( Average criteria = 75%, Not averaged across region boundaries )

Output sorted by column "Node Label".

Field Output reported at element nodes for region: A320-1.Region_1
   Computation algorithm: EXTRAPOLATE_COMPUTE_AVERAGE
   Averaged at nodes
   Averaging regions: ODB_REGIONS

   Element Label      Node Label         S.Mises         S.Mises
                                          @Loc 1          @Loc 2
-----------------------------------------------------------------
            2271               3     2.25742E-03     3.87235E-03
             874               3     2.25742E-03     3.87235E-03
            2325               4     84.3043E-06     183.631E-06
            3976               6     177.092E-03     183.054E-03
            1756               6     177.092E-03     183.054E-03
            4066               8     186.401E-03     199.688E-03
            3410               8     186.401E-03     199.688E-03
            5864              10     150.712E-03     151.451E-03
            3500              10     150.712E-03     151.451E-03
            5084              15     4.08202E-03     5.98801E-03
            6566              15     4.08202E-03     5.98801E-03
            2288              16     5.63374E-03     5.86146E-03
             857              16     5.63374E-03     5.86146E-03
            2342              19     251.216E-06     296.436E-06
            1739              20     37.4873E-03     38.0929E-03
            3959              20     37.4873E-03     38.0929E-03
            4049              23     45.3633E-03     73.3460E-03
            3393              23     45.3633E-03     73.3460E-03
            5847              24     27.2394E-03     28.5671E-03
            3483              24     27.2394E-03     28.5671E-03
            5067              26     3.37091E-03     4.72519E-03
            6549              26     3.37091E-03     4.72519E-03
            5174              27     112.100E-06     214.044E-06
            5157              28     268.471E-06     327.164E-06
            2289              38     319.364E-06     353.735E-06
            2271              38     319.364E-06     353.735E-06
            2289              39     151.911E-06     156.375E-06
            2307              39     151.911E-06     156.375E-06
            2307              40     59.9919E-06     139.587E-06
            2325              40     59.9919E-06     139.587E-06
            1738             102     184.024E-03     184.770E-03
            1756             102     184.024E-03     184.770E-03
            1738             103     179.857E-03     179.514E-03
            1720             103     179.857E-03     179.514E-03
            1720             104     174.012E-03     177.021E-03
            1702             104     174.012E-03     177.021E-03
            1702             105     169.914E-03     170.681E-03
            1684             105     169.914E-03     170.681E-03
            1684             106     164.179E-03     166.353E-03
            1666             106     164.179E-03     166.353E-03
            1666             107     159.409E-03     160.136E-03
            1648             107     159.409E-03     160.136E-03
            1648             108     152.920E-03     154.842E-03
            1630             108     152.920E-03     154.842E-03
            1630             109     146.023E-03     146.008E-03
            1612             109     146.023E-03     146.008E-03
            1612             110     137.746E-03     135.863E-03
            1594             110     137.746E-03     135.863E-03
            1576             111     138.485E-03     142.671E-03
            1594             111     138.485E-03     142.671E-03
            1558             112     145.027E-03     145.835E-03
            1576             112     145.027E-03     145.835E-03
            1558             113     140.705E-03     140.472E-03
            1540             113     140.705E-03     140.472E-03
            1540             114     135.163E-03     137.463E-03
            1522             114     135.163E-03     137.463E-03
            1504             115     130.973E-03     131.726E-03
            1522             115     130.973E-03     131.726E-03
            1504             116     126.009E-03     127.439E-03
            1486             116     126.009E-03     127.439E-03
            1486             117     121.398E-03     122.354E-03
            1468             117     121.398E-03     122.354E-03
            1468             118     116.171E-03     116.992E-03
            1450             118     116.171E-03     116.992E-03
            1450             119     110.580E-03     111.584E-03
            1432             119     110.580E-03     111.584E-03
            1414             120     103.951E-03     104.072E-03
            1432             120     103.951E-03     104.072E-03
            1396             121     96.6019E-03     94.8403E-03
            1414             121     96.6019E-03     94.8403E-03
            1396             122     97.9602E-03     100.908E-03
            1378             122     97.9602E-03     100.908E-03
            1378             123     103.470E-03     104.374E-03
            1360             123     103.470E-03     104.374E-03
            1360             124     98.9348E-03     98.7174E-03
            1342             124     98.9348E-03     98.7174E-03
            1324             125     93.5057E-03     95.2085E-03
            1342             125     93.5057E-03     95.2085E-03
            1324             126     89.3180E-03     89.7977E-03
            1306             126     89.3180E-03     89.7977E-03
            1306             127     84.5546E-03     85.5636E-03
            1288             127     84.5546E-03     85.5636E-03
            1270             128     80.1629E-03     80.7215E-03
            1288             128     80.1629E-03     80.7215E-03
            1252             129     75.2198E-03     75.7660E-03
            1270             129     75.2198E-03     75.7660E-03
            1252             130     70.0873E-03     70.5603E-03
            1234             130     70.0873E-03     70.5603E-03
            1216             131     63.9203E-03     64.0407E-03
            1234             131     63.9203E-03     64.0407E-03
            1198             132     57.3206E-03     55.7971E-03
            1216             132     57.3206E-03     55.7971E-03
            1180             133     59.2716E-03     61.0450E-03
            1198             133     59.2716E-03     61.0450E-03
            1180             134     63.8330E-03     64.8268E-03
            1162             134     63.8330E-03     64.8268E-03
            1144             135     59.1174E-03     58.9141E-03
            1162             135     59.1174E-03     58.9141E-03
            1126             136     53.8186E-03     54.9474E-03
            1144             136     53.8186E-03     54.9474E-03
            1108             137     49.6549E-03     49.8709E-03
            1126             137     49.6549E-03     49.8709E-03
            1090             138     45.1057E-03     45.7081E-03
            1108             138     45.1057E-03     45.7081E-03
            1090             139     40.9452E-03     41.1206E-03
            1072             139     40.9452E-03     41.1206E-03
            1054             140     36.3002E-03     36.5754E-03
            1072             140     36.3002E-03     36.5754E-03
            1036             141     31.6288E-03     31.5864E-03
            1054             141     31.6288E-03     31.5864E-03
            1018             142     25.9368E-03     26.0415E-03
            1036             142     25.9368E-03     26.0415E-03
            1000             143     20.0377E-03     18.7874E-03
            1018             143     20.0377E-03     18.7874E-03
            1000             144     22.0426E-03     22.6149E-03
             982             144     22.0426E-03     22.6149E-03
             982             145     24.9442E-03     25.9775E-03
             964             145     24.9442E-03     25.9775E-03
             964             146     19.7305E-03     19.4752E-03
             946             146     19.7305E-03     19.4752E-03
             928             147     14.1014E-03     14.6756E-03
             946             147     14.1014E-03     14.6756E-03
             910             148     9.45822E-03     9.15912E-03
             928             148     9.45822E-03     9.15912E-03
             892             149     3.82164E-03     4.49915E-03
             910             149     3.82164E-03     4.49915E-03
             892             150     2.41560E-03     4.82209E-03
             874             150     2.41560E-03     4.82209E-03
            4048             162     189.660E-03     192.371E-03
            4066             162     189.660E-03     192.371E-03
            4030             163     185.808E-03     186.733E-03
            4048             163     185.808E-03     186.733E-03
            4030             164     179.192E-03     180.844E-03
            4012             164     179.192E-03     180.844E-03
            3994             165     172.934E-03     169.404E-03
            4012             165     172.934E-03     169.404E-03
            3994             166     169.210E-03     170.492E-03
            3976             166     169.210E-03     170.492E-03
            3500             178     157.921E-03     156.300E-03
            3482             178     157.921E-03     156.300E-03
            3464             179     167.284E-03     167.208E-03
            3482             179     167.284E-03     167.208E-03
            3464             180     173.804E-03     178.399E-03
            3446             180     173.804E-03     178.399E-03
            3446             181     181.625E-03     181.393E-03
            3428             181     181.625E-03     181.393E-03
            3410             182     186.371E-03     188.830E-03
            3428             182     186.371E-03     188.830E-03
            6566             250     8.86733E-03     10.3630E-03
            6548             250     8.86733E-03     10.3630E-03
            6530             251     12.0151E-03     11.5351E-03
            6548             251     12.0151E-03     11.5351E-03
            6512             252     16.9757E-03     15.8082E-03
            6530             252     16.9757E-03     15.8082E-03
            6512             253     21.5674E-03     23.3257E-03
            6494             253     21.5674E-03     23.3257E-03
            6476             254     21.2740E-03     23.2428E-03
            6494             254     21.2740E-03     23.2428E-03
            6458             255     22.4228E-03     21.5447E-03
            6476             255     22.4228E-03     21.5447E-03
            6458             256     28.4058E-03     27.8721E-03
            6440             256     28.4058E-03     27.8721E-03
            6440             257     33.7022E-03     33.1816E-03
            6422             257     33.7022E-03     33.1816E-03
            6422             258     38.2936E-03     38.3594E-03
            6404             258     38.2936E-03     38.3594E-03
            6386             259     43.0855E-03     43.0929E-03
            6404             259     43.0855E-03     43.0929E-03
            6386             260     47.4125E-03     48.0067E-03
            6368             260     47.4125E-03     48.0067E-03
            6368             261     52.3113E-03     52.5250E-03
            6350             261     52.3113E-03     52.5250E-03
            6332             262     56.6984E-03     58.0171E-03
            6350             262     56.6984E-03     58.0171E-03
            6314             263     62.3882E-03     62.1385E-03
            6332             263     62.3882E-03     62.1385E-03
            6314             264     67.1862E-03     68.8737E-03
            6296             264     67.1862E-03     68.8737E-03
            6278             265     62.8277E-03     64.8012E-03
            6296             265     62.8277E-03     64.8012E-03
            6260             266     61.5491E-03     59.3985E-03
            6278             266     61.5491E-03     59.3985E-03
            6242             267     68.7556E-03     68.5340E-03
            6260             267     68.7556E-03     68.5340E-03
            6242             268     75.2102E-03     75.4707E-03
            6224             268     75.2102E-03     75.4707E-03
            6206             269     80.8039E-03     81.0902E-03
            6224             269     80.8039E-03     81.0902E-03
            6206             270     85.9658E-03     86.7453E-03
            6188             270     85.9658E-03     86.7453E-03
            6170             271     91.2257E-03     91.8567E-03
            6188             271     91.2257E-03     91.8567E-03
            6152             272     95.8449E-03     97.1829E-03
            6170             272     95.8449E-03     97.1829E-03
            6152             273     101.129E-03     101.824E-03
            6134             273     101.129E-03     101.824E-03
            6116             274     105.622E-03     107.848E-03
            6134             274     105.622E-03     107.848E-03
            6116             275     111.539E-03     111.436E-03
            6098             275     111.539E-03     111.436E-03
            6098             276     116.274E-03     117.858E-03
            6080             276     116.274E-03     117.858E-03
            6080             277     110.574E-03     113.710E-03
            6062             277     110.574E-03     113.710E-03
            6044             278     109.603E-03     107.063E-03
            6062             278     109.603E-03     107.063E-03
            6044             279     117.608E-03     117.679E-03
            6026             279     117.608E-03     117.679E-03
            6026             280     124.794E-03     125.770E-03
            6008             280     124.794E-03     125.770E-03
            5990             281     130.816E-03     131.824E-03
            6008             281     130.816E-03     131.824E-03
            5972             282     136.600E-03     137.773E-03
            5990             282     136.600E-03     137.773E-03
            5954             283     141.674E-03     143.497E-03
            5972             283     141.674E-03     143.497E-03
            5954             284     147.261E-03     148.364E-03
            5936             284     147.261E-03     148.364E-03
            5936             285     151.867E-03     154.817E-03
            5918             285     151.867E-03     154.817E-03
            5918             286     157.991E-03     157.993E-03
            5900             286     157.991E-03     157.993E-03
            5882             287     162.660E-03     164.068E-03
            5900             287     162.660E-03     164.068E-03
            5882             288     155.197E-03     161.509E-03
            5864             288     155.197E-03     161.509E-03
            2324             326     274.951E-06     275.731E-06
            2342             326     274.951E-06     275.731E-06
            2324             327     296.404E-06     250.080E-06
            2306             327     296.404E-06     250.080E-06
            2306             328     265.711E-06     264.344E-06
            2288             328     265.711E-06     264.344E-06
             857             329     5.97164E-03     6.15079E-03
            2287             329     5.97164E-03     6.15079E-03
            2288             329     5.97164E-03     6.15079E-03
             858             329     5.97164E-03     6.15079E-03
             859             330     6.42913E-03     6.47487E-03
            2287             330     6.42913E-03     6.47487E-03
            2286             330     6.42913E-03     6.47487E-03
             858             330     6.42913E-03     6.47487E-03
            2285             331     6.72059E-03     6.68451E-03
            2286             331     6.72059E-03     6.68451E-03
             860             331     6.72059E-03     6.68451E-03
             859             331     6.72059E-03     6.68451E-03
            2285             332     6.99994E-03     6.93237E-03
            2284             332     6.99994E-03     6.93237E-03
             861             332     6.99994E-03     6.93237E-03
             860             332     6.99994E-03     6.93237E-03
            2283             333     7.19551E-03     7.08085E-03
            2284             333     7.19551E-03     7.08085E-03
             862             333     7.19551E-03     7.08085E-03
             861             333     7.19551E-03     7.08085E-03
             863             334     7.36085E-03     7.20715E-03
             862             334     7.36085E-03     7.20715E-03
            2283             334     7.36085E-03     7.20715E-03
            2282             334     7.36085E-03     7.20715E-03
             864             335     7.49733E-03     7.30187E-03
             863             335     7.49733E-03     7.30187E-03
            2282             335     7.49733E-03     7.30187E-03
            2281             335     7.49733E-03     7.30187E-03
            2280             336     7.61478E-03     7.37469E-03
             864             336     7.61478E-03     7.37469E-03
            2281             336     7.61478E-03     7.37469E-03
             865             336     7.61478E-03     7.37469E-03
             866             337     7.71924E-03     7.43867E-03
            2279             337     7.71924E-03     7.43867E-03
            2280             337     7.71924E-03     7.43867E-03
             865             337     7.71924E-03     7.43867E-03
            2279             338     7.79831E-03     7.47189E-03
             866             338     7.79831E-03     7.47189E-03
            2278             338     7.79831E-03     7.47189E-03
             867             338     7.79831E-03     7.47189E-03
             868             339     7.83936E-03     7.47147E-03
            2277             339     7.83936E-03     7.47147E-03
             867             339     7.83936E-03     7.47147E-03
            2278             339     7.83936E-03     7.47147E-03
            2277             340     7.80899E-03     7.39439E-03
             869             340     7.80899E-03     7.39439E-03
            2276             340     7.80899E-03     7.39439E-03
             868             340     7.80899E-03     7.39439E-03
            2275             341     7.63137E-03     7.17029E-03
            2276             341     7.63137E-03     7.17029E-03
             869             341     7.63137E-03     7.17029E-03
             870             341     7.63137E-03     7.17029E-03
            2275             342     7.28063E-03     6.74676E-03
            2274             342     7.28063E-03     6.74676E-03
             871             342     7.28063E-03     6.74676E-03
             870             342     7.28063E-03     6.74676E-03
             872             343     6.46412E-03     5.87093E-03
            2274             343     6.46412E-03     5.87093E-03
             871             343     6.46412E-03     5.87093E-03
            2273             343     6.46412E-03     5.87093E-03
            2273             344     5.33607E-03     4.57216E-03
             873             344     5.33607E-03     4.57216E-03
             872             344     5.33607E-03     4.57216E-03
            2272             344     5.33607E-03     4.57216E-03
             874             345     3.53511E-03     3.87179E-03
            2272             345     3.53511E-03     3.87179E-03
             873             345     3.53511E-03     3.87179E-03
            2271             345     3.53511E-03     3.87179E-03
            3976             346     166.660E-03     171.209E-03
            1755             346     166.660E-03     171.209E-03
            1756             346     166.660E-03     171.209E-03
            3975             346     166.660E-03     171.209E-03
            3974             347     149.974E-03     152.537E-03
            3975             347     149.974E-03     152.537E-03
            1755             347     149.974E-03     152.537E-03
            1754             347     149.974E-03     152.537E-03
            1753             348     137.455E-03     139.702E-03
            3974             348     137.455E-03     139.702E-03
            1754             348     137.455E-03     139.702E-03
            3973             348     137.455E-03     139.702E-03
            3973             349     125.773E-03     128.158E-03
            3972             349     125.773E-03     128.158E-03
            1752             349     125.773E-03     128.158E-03
            1753             349     125.773E-03     128.158E-03
            3971             350     114.870E-03     117.368E-03
            3972             350     114.870E-03     117.368E-03
            1752             350     114.870E-03     117.368E-03
            1751             350     114.870E-03     117.368E-03
            1751             351     104.234E-03     106.951E-03
            3971             351     104.234E-03     106.951E-03
            3970             351     104.234E-03     106.951E-03
            1750             351     104.234E-03     106.951E-03
            1749             352     93.8940E-03     96.7289E-03
            3970             352     93.8940E-03     96.7289E-03
            1750             352     93.8940E-03     96.7289E-03
            3969             352     93.8940E-03     96.7289E-03
            3969             353     83.6874E-03     86.6463E-03
            3968             353     83.6874E-03     86.6463E-03
            1749             353     83.6874E-03     86.6463E-03
            1748             353     83.6874E-03     86.6463E-03
            1748             354     73.6616E-03     76.6664E-03
            3968             354     73.6616E-03     76.6664E-03
            1747             354     73.6616E-03     76.6664E-03
            3967             354     73.6616E-03     76.6664E-03
            1746             355     63.7933E-03     66.8158E-03
            1747             355     63.7933E-03     66.8158E-03
            3967             355     63.7933E-03     66.8158E-03
            3966             355     63.7933E-03     66.8158E-03
            3966             356     54.1595E-03     57.1323E-03
            1745             356     54.1595E-03     57.1323E-03
            1746             356     54.1595E-03     57.1323E-03
            3965             356     54.1595E-03     57.1323E-03
            3964             357     44.8571E-03     47.7096E-03
            3965             357     44.8571E-03     47.7096E-03
            1744             357     44.8571E-03     47.7096E-03
            1745             357     44.8571E-03     47.7096E-03
            1743             358     36.0459E-03     38.6791E-03
            3964             358     36.0459E-03     38.6791E-03
            1744             358     36.0459E-03     38.6791E-03
            3963             358     36.0459E-03     38.6791E-03
            1743             359     28.0138E-03     30.2618E-03
            1742             359     28.0138E-03     30.2618E-03
            3963             359     28.0138E-03     30.2618E-03
            3962             359     28.0138E-03     30.2618E-03
            3962             360     22.5220E-03     23.2656E-03
            1742             360     22.5220E-03     23.2656E-03
            1741             360     22.5220E-03     23.2656E-03
            3961             360     22.5220E-03     23.2656E-03
            1740             361     23.5321E-03     22.7460E-03
            3961             361     23.5321E-03     22.7460E-03
            1741             361     23.5321E-03     22.7460E-03
            3960             361     23.5321E-03     22.7460E-03
            3959             362     31.8867E-03     31.6474E-03
            3960             362     31.8867E-03     31.6474E-03
            1740             362     31.8867E-03     31.6474E-03
            1739             362     31.8867E-03     31.6474E-03
            1721             363     32.1859E-03     30.0209E-03
            1739             363     32.1859E-03     30.0209E-03
            1703             364     29.3408E-03     24.6091E-03
            1721             364     29.3408E-03     24.6091E-03
            1703             365     26.6616E-03     22.8688E-03
            1685             365     26.6616E-03     22.8688E-03
            1667             366     26.4518E-03     22.1866E-03
            1685             366     26.4518E-03     22.1866E-03
            1649             367     26.5268E-03     22.7861E-03
            1667             367     26.5268E-03     22.7861E-03
            1649             368     28.1136E-03     24.5020E-03
            1631             368     28.1136E-03     24.5020E-03
            1631             369     29.4330E-03     26.9284E-03
            1613             369     29.4330E-03     26.9284E-03
            1613             370     33.1113E-03     30.2300E-03
            1595             370     33.1113E-03     30.2300E-03
            1595             371     31.2368E-03     36.2753E-03
            1577             371     31.2368E-03     36.2753E-03
            1577             372     26.6791E-03     34.2239E-03
            1559             372     26.6791E-03     34.2239E-03
            1559             373     26.8303E-03     24.8564E-03
            1541             373     26.8303E-03     24.8564E-03
            1541             374     24.0023E-03     20.4538E-03
            1523             374     24.0023E-03     20.4538E-03
            1523             375     21.9093E-03     19.0654E-03
            1505             375     21.9093E-03     19.0654E-03
            1505             376     21.4888E-03     18.3168E-03
            1487             376     21.4888E-03     18.3168E-03
            1487             377     21.4712E-03     18.6470E-03
            1469             377     21.4712E-03     18.6470E-03
            1469             378     22.1027E-03     19.3788E-03
            1451             378     22.1027E-03     19.3788E-03
            1451             379     23.3366E-03     20.9813E-03
            1433             379     23.3366E-03     20.9813E-03
            1415             380     24.4795E-03     22.8074E-03
            1433             380     24.4795E-03     22.8074E-03
            1397             381     27.2169E-03     25.4208E-03
            1415             381     27.2169E-03     25.4208E-03
            1379             382     25.5788E-03     30.0809E-03
            1397             382     25.5788E-03     30.0809E-03
            1361             383     21.8446E-03     27.1576E-03
            1379             383     21.8446E-03     27.1576E-03
            1361             384     20.9405E-03     19.1182E-03
            1343             384     20.9405E-03     19.1182E-03
            1343             385     18.2144E-03     15.8703E-03
            1325             385     18.2144E-03     15.8703E-03
            1325             386     16.8050E-03     14.7865E-03
            1307             386     16.8050E-03     14.7865E-03
            1307             387     16.4684E-03     14.3199E-03
            1289             387     16.4684E-03     14.3199E-03
            1271             388     16.4995E-03     14.5843E-03
            1289             388     16.4995E-03     14.5843E-03
            1253             389     16.9463E-03     15.1074E-03
            1271             389     16.9463E-03     15.1074E-03
            1235             390     17.7897E-03     16.2682E-03
            1253             390     17.7897E-03     16.2682E-03
            1235             391     18.5845E-03     17.5002E-03
            1217             391     18.5845E-03     17.5002E-03
            1199             392     20.4126E-03     19.4546E-03
            1217             392     20.4126E-03     19.4546E-03
            1181             393     19.3462E-03     22.7495E-03
            1199             393     19.3462E-03     22.7495E-03
            1181             394     17.1600E-03     20.1700E-03
            1163             394     17.1600E-03     20.1700E-03
            1163             395     15.8058E-03     14.5577E-03
            1145             395     15.8058E-03     14.5577E-03
            1127             396     13.3855E-03     12.2687E-03
            1145             396     13.3855E-03     12.2687E-03
            1109             397     12.5418E-03     11.3155E-03
            1127             397     12.5418E-03     11.3155E-03
            1091             398     12.2315E-03     11.0274E-03
            1109             398     12.2315E-03     11.0274E-03
            1073             399     12.2524E-03     11.1247E-03
            1091             399     12.2524E-03     11.1247E-03
            1073             400     12.4971E-03     11.4156E-03
            1055             400     12.4971E-03     11.4156E-03
            1055             401     12.9668E-03     12.1426E-03
            1037             401     12.9668E-03     12.1426E-03
            1019             402     13.4822E-03     12.8494E-03
            1037             402     13.4822E-03     12.8494E-03
            1019             403     14.5198E-03     14.2696E-03
            1001             403     14.5198E-03     14.2696E-03
             983             404     14.4418E-03     16.4614E-03
            1001             404     14.4418E-03     16.4614E-03
             983             405     13.1257E-03     14.3488E-03
             965             405     13.1257E-03     14.3488E-03
             965             406     11.2546E-03     10.8061E-03
             947             406     11.2546E-03     10.8061E-03
             929             407     9.76472E-03     9.13556E-03
             947             407     9.76472E-03     9.13556E-03
             911             408     9.41252E-03     8.50128E-03
             929             408     9.41252E-03     8.50128E-03
             911             409     9.39512E-03     8.56811E-03
             893             409     9.39512E-03     8.56811E-03
             875             410     9.81436E-03     9.33754E-03
             893             410     9.81436E-03     9.33754E-03
             875             411     10.5148E-03     10.9295E-03
             857             411     10.5148E-03     10.9295E-03
            2342             497     265.233E-06     285.861E-06
            2341             497     265.233E-06     285.861E-06
            2340             498     283.009E-06     274.139E-06
            2341             498     283.009E-06     274.139E-06
            2340             499     285.861E-06     274.323E-06
            2339             499     285.861E-06     274.323E-06
            2339             500     287.160E-06     274.277E-06
            2338             500     287.160E-06     274.277E-06
            2337             501     290.307E-06     272.575E-06
            2338             501     290.307E-06     272.575E-06
            2337             502     292.899E-06     272.376E-06
            2336             502     292.899E-06     272.376E-06
            2336             503     295.690E-06     272.114E-06
            2335             503     295.690E-06     272.114E-06
            2334             504     298.896E-06     272.446E-06
            2335             504     298.896E-06     272.446E-06
            2334             505     301.687E-06     272.639E-06
            2333             505     301.687E-06     272.639E-06
            2332             506     305.339E-06     273.851E-06
            2333             506     305.339E-06     273.851E-06
            2331             507     307.707E-06     274.001E-06
            2332             507     307.707E-06     274.001E-06
            2331             508     312.141E-06     276.255E-06
            2330             508     312.141E-06     276.255E-06
            2330             509     312.786E-06     275.739E-06
            2329             509     312.786E-06     275.739E-06
            2328             510     319.877E-06     277.651E-06
            2329             510     319.877E-06     277.651E-06
            2327             511     308.555E-06     269.467E-06
            2328             511     308.555E-06     269.467E-06
            2327             512     279.983E-06     236.389E-06
            2326             512     279.983E-06     236.389E-06
            2326             513     179.240E-06     200.698E-06
            2325             513     179.240E-06     200.698E-06
            3977             548     48.5515E-03     74.6267E-03
            3959             548     48.5515E-03     74.6267E-03
            3977             549     66.5010E-03     89.9765E-03
            3995             549     66.5010E-03     89.9765E-03
            3995             550     71.7671E-03     57.8618E-03
            4013             550     71.7671E-03     57.8618E-03
            4031             551     67.4442E-03     54.9582E-03
            4013             551     67.4442E-03     54.9582E-03
            4031             552     63.1431E-03     86.1168E-03
            4049             552     63.1431E-03     86.1168E-03
            4050             570     34.0255E-03     59.8177E-03
            3394             570     34.0255E-03     59.8177E-03
            4049             570     34.0255E-03     59.8177E-03
            3393             570     34.0255E-03     59.8177E-03
            4051             571     25.1353E-03     47.4659E-03
            3395             571     25.1353E-03     47.4659E-03
            4050             571     25.1353E-03     47.4659E-03
            3394             571     25.1353E-03     47.4659E-03
            4051             572     31.3823E-03     52.2752E-03
            3395             572     31.3823E-03     52.2752E-03
            3396             572     31.3823E-03     52.2752E-03
            4052             572     31.3823E-03     52.2752E-03
            3396             573     40.0508E-03     60.2200E-03
            3397             573     40.0508E-03     60.2200E-03
            4052             573     40.0508E-03     60.2200E-03
            4053             573     40.0508E-03     60.2200E-03
            4054             574     49.7015E-03     69.0368E-03
            3397             574     49.7015E-03     69.0368E-03
            4053             574     49.7015E-03     69.0368E-03
            3398             574     49.7015E-03     69.0368E-03
            3398             575     59.3867E-03     77.9252E-03
            3399             575     59.3867E-03     77.9252E-03
            4054             575     59.3867E-03     77.9252E-03
            4055             575     59.3867E-03     77.9252E-03
            3400             576     69.1774E-03     86.7645E-03
            4055             576     69.1774E-03     86.7645E-03
            4056             576     69.1774E-03     86.7645E-03
            3399             576     69.1774E-03     86.7645E-03
            4056             577     78.8899E-03     95.5735E-03
            3401             577     78.8899E-03     95.5735E-03
            3400             577     78.8899E-03     95.5735E-03
            4057             577     78.8899E-03     95.5735E-03
            3402             578     88.6171E-03     104.291E-03
            4057             578     88.6171E-03     104.291E-03
            3401             578     88.6171E-03     104.291E-03
            4058             578     88.6171E-03     104.291E-03
            3402             579     98.1962E-03     112.934E-03
            4059             579     98.1962E-03     112.934E-03
            3403             579     98.1962E-03     112.934E-03
            4058             579     98.1962E-03     112.934E-03
            3404             580     107.768E-03     121.438E-03
            3403             580     107.768E-03     121.438E-03
            4060             580     107.768E-03     121.438E-03
            4059             580     107.768E-03     121.438E-03
            4061             581     117.063E-03     129.775E-03
            3404             581     117.063E-03     129.775E-03
            3405             581     117.063E-03     129.775E-03
            4060             581     117.063E-03     129.775E-03
            3405             582     126.446E-03     137.888E-03
            4062             582     126.446E-03     137.888E-03
            4061             582     126.446E-03     137.888E-03
            3406             582     126.446E-03     137.888E-03
            3407             583     135.436E-03     145.805E-03
            4063             583     135.436E-03     145.805E-03
            4062             583     135.436E-03     145.805E-03
            3406             583     135.436E-03     145.805E-03
            3408             584     145.248E-03     153.973E-03
            4063             584     145.248E-03     153.973E-03
            3407             584     145.248E-03     153.973E-03
            4064             584     145.248E-03     153.973E-03
            3409             585     155.173E-03     163.019E-03
            4065             585     155.173E-03     163.019E-03
            4064             585     155.173E-03     163.019E-03
            3408             585     155.173E-03     163.019E-03
            3409             586     172.848E-03     183.750E-03
            4066             586     172.848E-03     183.750E-03
            3410             586     172.848E-03     183.750E-03
            4065             586     172.848E-03     183.750E-03
            3500             587     148.423E-03     148.713E-03
            5864             587     148.423E-03     148.713E-03
            5863             587     148.423E-03     148.713E-03
            3499             587     148.423E-03     148.713E-03
            5863             588     143.585E-03     143.220E-03
            5862             588     143.585E-03     143.220E-03
            3499             588     143.585E-03     143.220E-03
            3498             588     143.585E-03     143.220E-03
            3498             589     137.520E-03     137.297E-03
            3497             589     137.520E-03     137.297E-03
            5861             589     137.520E-03     137.297E-03
            5862             589     137.520E-03     137.297E-03
            5861             590     130.532E-03     130.549E-03
            3496             590     130.532E-03     130.549E-03
            5860             590     130.532E-03     130.549E-03
            3497             590     130.532E-03     130.549E-03
            3495             591     123.259E-03     123.325E-03
            3496             591     123.259E-03     123.325E-03
            5860             591     123.259E-03     123.325E-03
            5859             591     123.259E-03     123.325E-03
            3495             592     115.671E-03     115.773E-03
            5859             592     115.671E-03     115.773E-03
            5858             592     115.671E-03     115.773E-03
            3494             592     115.671E-03     115.773E-03
            5857             593     107.992E-03     108.045E-03
            3493             593     107.992E-03     108.045E-03
            5858             593     107.992E-03     108.045E-03
            3494             593     107.992E-03     108.045E-03
            3493             594     100.214E-03     100.235E-03
            5857             594     100.214E-03     100.235E-03
            5856             594     100.214E-03     100.235E-03
            3492             594     100.214E-03     100.235E-03
            5856             595     92.3877E-03     92.3295E-03
            5855             595     92.3877E-03     92.3295E-03
            3492             595     92.3877E-03     92.3295E-03
            3491             595     92.3877E-03     92.3295E-03
            5855             596     84.5162E-03     84.4147E-03
            3490             596     84.5162E-03     84.4147E-03
            3491             596     84.5162E-03     84.4147E-03
            5854             596     84.5162E-03     84.4147E-03
            5854             597     76.6333E-03     76.4712E-03
            3489             597     76.6333E-03     76.4712E-03
            5853             597     76.6333E-03     76.4712E-03
            3490             597     76.6333E-03     76.4712E-03
            3489             598     68.7452E-03     68.5528E-03
            5852             598     68.7452E-03     68.5528E-03
            5853             598     68.7452E-03     68.5528E-03
            3488             598     68.7452E-03     68.5528E-03
            5851             599     60.9035E-03     60.6837E-03
            5852             599     60.9035E-03     60.6837E-03
            3488             599     60.9035E-03     60.6837E-03
            3487             599     60.9035E-03     60.6837E-03
            3487             600     53.1029E-03     52.8750E-03
            3486             600     53.1029E-03     52.8750E-03
            5850             600     53.1029E-03     52.8750E-03
            5851             600     53.1029E-03     52.8750E-03
            5850             601     45.4554E-03     45.1791E-03
            5849             601     45.4554E-03     45.1791E-03
            3485             601     45.4554E-03     45.1791E-03
            3486             601     45.4554E-03     45.1791E-03
            5848             602     38.0642E-03     37.8205E-03
            3485             602     38.0642E-03     37.8205E-03
            5849             602     38.0642E-03     37.8205E-03
            3484             602     38.0642E-03     37.8205E-03
            3484             603     30.8322E-03     31.4031E-03
            5847             603     30.8322E-03     31.4031E-03
            5848             603     30.8322E-03     31.4031E-03
            3483             603     30.8322E-03     31.4031E-03
            3465             604     31.5176E-03     35.6970E-03
            3483             604     31.5176E-03     35.6970E-03
            3465             605     28.2469E-03     31.9101E-03
            3447             605     28.2469E-03     31.9101E-03
            3429             606     26.8265E-03     29.1978E-03
            3447             606     26.8265E-03     29.1978E-03
            3411             607     26.8937E-03     31.7431E-03
            3429             607     26.8937E-03     31.7431E-03
            3393             608     31.6039E-03     36.9158E-03
            3411             608     31.6039E-03     36.9158E-03
            5865             692     23.7283E-03     25.4192E-03
            5847             692     23.7283E-03     25.4192E-03
            5883             693     24.2591E-03     27.5876E-03
            5865             693     24.2591E-03     27.5876E-03
            5901             694     19.7737E-03     24.0837E-03
            5883             694     19.7737E-03     24.0837E-03
            5919             695     18.7980E-03     22.0366E-03
            5901             695     18.7980E-03     22.0366E-03
            5919             696     18.8338E-03     21.8981E-03
            5937             696     18.8338E-03     21.8981E-03
            5937             697     19.7357E-03     22.4541E-03
            5955             697     19.7357E-03     22.4541E-03
            5973             698     21.4782E-03     23.4254E-03
            5955             698     21.4782E-03     23.4254E-03
            5973             699     23.2495E-03     25.7049E-03
            5991             699     23.2495E-03     25.7049E-03
            6009             700     25.9640E-03     27.3331E-03
            5991             700     25.9640E-03     27.3331E-03
            6027             701     28.9112E-03     31.7880E-03
            6009             701     28.9112E-03     31.7880E-03
            6027             702     32.6246E-03     37.0940E-03
            6045             702     32.6246E-03     37.0940E-03
            6045             703     27.1649E-03     29.2492E-03
            6063             703     27.1649E-03     29.2492E-03
            6081             704     16.9055E-03     19.2363E-03
            6063             704     16.9055E-03     19.2363E-03
            6099             705     14.5668E-03     16.9127E-03
            6081             705     14.5668E-03     16.9127E-03
            6117             706     14.2136E-03     16.0583E-03
            6099             706     14.2136E-03     16.0583E-03
            6117             707     14.5343E-03     16.1003E-03
            6135             707     14.5343E-03     16.1003E-03
            6153             708     15.3789E-03     16.5049E-03
            6135             708     15.3789E-03     16.5049E-03
            6153             709     16.3199E-03     17.3704E-03
            6171             709     16.3199E-03     17.3704E-03
            6189             710     17.6391E-03     18.2092E-03
            6171             710     17.6391E-03     18.2092E-03
            6207             711     18.8647E-03     19.8605E-03
            6189             711     18.8647E-03     19.8605E-03
            6225             712     20.5071E-03     20.9164E-03
            6207             712     20.5071E-03     20.9164E-03
            6243             713     22.4493E-03     23.8434E-03
            6225             713     22.4493E-03     23.8434E-03
            6243             714     24.0618E-03     27.5812E-03
            6261             714     24.0618E-03     27.5812E-03
            6261             715     17.4846E-03     20.9019E-03
            6279             715     17.4846E-03     20.9019E-03
            6279             716     10.4430E-03     12.3725E-03
            6297             716     10.4430E-03     12.3725E-03
            6297             717     10.7139E-03     11.0118E-03
            6315             717     10.7139E-03     11.0118E-03
            6333             718     10.6916E-03     11.0505E-03
            6315             718     10.6916E-03     11.0505E-03
            6333             719     11.3763E-03     11.2361E-03
            6351             719     11.3763E-03     11.2361E-03
            6351             720     11.8906E-03     11.7305E-03
            6369             720     11.8906E-03     11.7305E-03
            6369             721     12.6491E-03     12.1897E-03
            6387             721     12.6491E-03     12.1897E-03
            6405             722     13.2952E-03     13.1044E-03
            6387             722     13.2952E-03     13.1044E-03
            6423             723     14.0280E-03     13.6451E-03
            6405             723     14.0280E-03     13.6451E-03
            6423             724     15.0607E-03     15.1335E-03
            6441             724     15.0607E-03     15.1335E-03
            6459             725     14.8798E-03     17.4331E-03
            6441             725     14.8798E-03     17.4331E-03
            6477             726     9.84075E-03     13.5872E-03
            6459             726     9.84075E-03     13.5872E-03
            6495             727     6.96495E-03     8.62700E-03
            6477             727     6.96495E-03     8.62700E-03
            6495             728     8.52629E-03     7.04112E-03
            6513             728     8.52629E-03     7.04112E-03
            6531             729     8.65248E-03     7.33588E-03
            6513             729     8.65248E-03     7.33588E-03
            6531             730     7.66133E-03     8.88329E-03
            6549             730     7.66133E-03     8.88329E-03
            5067             748     3.48968E-03     4.16038E-03
            6550             748     3.48968E-03     4.16038E-03
            6549             748     3.48968E-03     4.16038E-03
            5068             748     3.48968E-03     4.16038E-03
            5068             749     3.64352E-03     3.36189E-03
            6551             749     3.64352E-03     3.36189E-03
            6550             749     3.64352E-03     3.36189E-03
            5069             749     3.64352E-03     3.36189E-03
            6551             750     3.74059E-03     3.11575E-03
            6552             750     3.74059E-03     3.11575E-03
            5070             750     3.74059E-03     3.11575E-03
            5069             750     3.74059E-03     3.11575E-03
            6553             751     3.84687E-03     3.07435E-03
            5071             751     3.84687E-03     3.07435E-03
            5070             751     3.84687E-03     3.07435E-03
            6552             751     3.84687E-03     3.07435E-03
            5072             752     3.96794E-03     3.08064E-03
            6553             752     3.96794E-03     3.08064E-03
            5071             752     3.96794E-03     3.08064E-03
            6554             752     3.96794E-03     3.08064E-03
            5072             753     4.12540E-03     3.14628E-03
            6554             753     4.12540E-03     3.14628E-03
            5073             753     4.12540E-03     3.14628E-03
            6555             753     4.12540E-03     3.14628E-03
            5073             754     4.29214E-03     3.23600E-03
            6556             754     4.29214E-03     3.23600E-03
            6555             754     4.29214E-03     3.23600E-03
            5074             754     4.29214E-03     3.23600E-03
            6556             755     4.47308E-03     3.34442E-03
            6557             755     4.47308E-03     3.34442E-03
            5074             755     4.47308E-03     3.34442E-03
            5075             755     4.47308E-03     3.34442E-03
            6558             756     4.65500E-03     3.47186E-03
            5075             756     4.65500E-03     3.47186E-03
            6557             756     4.65500E-03     3.47186E-03
            5076             756     4.65500E-03     3.47186E-03
            5076             757     4.84436E-03     3.59938E-03
            6558             757     4.84436E-03     3.59938E-03
            6559             757     4.84436E-03     3.59938E-03
            5077             757     4.84436E-03     3.59938E-03
            5077             758     5.02955E-03     3.74421E-03
            5078             758     5.02955E-03     3.74421E-03
            6559             758     5.02955E-03     3.74421E-03
            6560             758     5.02955E-03     3.74421E-03
            5078             759     5.20957E-03     3.86431E-03
            5079             759     5.20957E-03     3.86431E-03
            6560             759     5.20957E-03     3.86431E-03
            6561             759     5.20957E-03     3.86431E-03
            6561             760     5.35637E-03     3.96029E-03
            5079             760     5.35637E-03     3.96029E-03
            6562             760     5.35637E-03     3.96029E-03
            5080             760     5.35637E-03     3.96029E-03
            5080             761     5.40873E-03     3.96299E-03
            5081             761     5.40873E-03     3.96299E-03
            6563             761     5.40873E-03     3.96299E-03
            6562             761     5.40873E-03     3.96299E-03
            5082             762     5.06974E-03     3.54559E-03
            6563             762     5.06974E-03     3.54559E-03
            5081             762     5.06974E-03     3.54559E-03
            6564             762     5.06974E-03     3.54559E-03
            6565             763     4.29083E-03     2.71825E-03
            5083             763     4.29083E-03     2.71825E-03
            5082             763     4.29083E-03     2.71825E-03
            6564             763     4.29083E-03     2.71825E-03
            6566             764     3.96784E-03     4.11375E-03
            6565             764     3.96784E-03     4.11375E-03
            5084             764     3.96784E-03     4.11375E-03
            5083             764     3.96784E-03     4.11375E-03
            5084             765     572.569E-06     602.467E-06
            5102             765     572.569E-06     602.467E-06
            5120             766     426.628E-06     421.158E-06
            5102             766     426.628E-06     421.158E-06
            5120             767     277.204E-06     279.645E-06
            5138             767     277.204E-06     279.645E-06
            5156             768     154.056E-06     137.597E-06
            5138             768     154.056E-06     137.597E-06
            5174             769     96.2626E-06     150.545E-06
            5156             769     96.2626E-06     150.545E-06
            5173             770     161.242E-06     181.783E-06
            5174             770     161.242E-06     181.783E-06
            5172             771     235.216E-06     185.307E-06
            5173             771     235.216E-06     185.307E-06
            5172             772     294.836E-06     251.946E-06
            5171             772     294.836E-06     251.946E-06
            5170             773     332.530E-06     291.313E-06
            5171             773     332.530E-06     291.313E-06
            5169             774     345.131E-06     308.487E-06
            5170             774     345.131E-06     308.487E-06
            5168             775     351.126E-06     315.333E-06
            5169             775     351.126E-06     315.333E-06
            5168             776     348.597E-06     315.617E-06
            5167             776     348.597E-06     315.617E-06
            5167             777     345.677E-06     314.653E-06
            5166             777     345.677E-06     314.653E-06
            5166             778     340.329E-06     311.607E-06
            5165             778     340.329E-06     311.607E-06
            5164             779     335.491E-06     309.228E-06
            5165             779     335.491E-06     309.228E-06
            5163             780     330.098E-06     306.332E-06
            5164             780     330.098E-06     306.332E-06
            5162             781     325.100E-06     304.446E-06
            5163             781     325.100E-06     304.446E-06
            5162             782     320.426E-06     302.338E-06
            5161             782     320.426E-06     302.338E-06
            5161             783     315.566E-06     301.527E-06
            5160             783     315.566E-06     301.527E-06
            5159             784     310.642E-06     300.804E-06
            5160             784     310.642E-06     300.804E-06
            5159             785     304.738E-06     303.698E-06
            5158             785     304.738E-06     303.698E-06
            5157             786     284.429E-06     317.194E-06
            5158             786     284.429E-06     317.194E-06
            5157             787     290.143E-06     312.655E-06
            5139             787     290.143E-06     312.655E-06
            5121             788     305.308E-06     279.228E-06
            5139             788     305.308E-06     279.228E-06
            5103             789     293.707E-06     258.452E-06
            5121             789     293.707E-06     258.452E-06
            5085             790     286.352E-06     258.619E-06
            5103             790     286.352E-06     258.619E-06
            5085             791     254.996E-06     269.744E-06
            5067             791     254.996E-06     269.744E-06
             876            1518     11.3571E-03     11.7574E-03
             858            1518     11.3571E-03     11.7574E-03
             875            1518     11.3571E-03     11.7574E-03
             857            1518     11.3571E-03     11.7574E-03
             876            1519     12.5103E-03     12.7418E-03
             877            1519     12.5103E-03     12.7418E-03
             859            1519     12.5103E-03     12.7418E-03
             858            1519     12.5103E-03     12.7418E-03
             878            1520     13.1487E-03     13.1474E-03
             877            1520     13.1487E-03     13.1474E-03
             859            1520     13.1487E-03     13.1474E-03
             860            1520     13.1487E-03     13.1474E-03
             879            1521     13.6499E-03     13.5369E-03
             860            1521     13.6499E-03     13.5369E-03
             878            1521     13.6499E-03     13.5369E-03
             861            1521     13.6499E-03     13.5369E-03
             879            1522     13.9944E-03     13.8003E-03
             862            1522     13.9944E-03     13.8003E-03
             861            1522     13.9944E-03     13.8003E-03
             880            1522     13.9944E-03     13.8003E-03
             880            1523     14.2862E-03     14.0156E-03
             863            1523     14.2862E-03     14.0156E-03
             881            1523     14.2862E-03     14.0156E-03
             862            1523     14.2862E-03     14.0156E-03
             882            1524     14.5332E-03     14.1860E-03
             881            1524     14.5332E-03     14.1860E-03
             864            1524     14.5332E-03     14.1860E-03
             863            1524     14.5332E-03     14.1860E-03
             864            1525     14.7674E-03     14.3466E-03
             865            1525     14.7674E-03     14.3466E-03
             883            1525     14.7674E-03     14.3466E-03
             882            1525     14.7674E-03     14.3466E-03
             866            1526     14.9898E-03     14.4930E-03
             865            1526     14.9898E-03     14.4930E-03
             884            1526     14.9898E-03     14.4930E-03
             883            1526     14.9898E-03     14.4930E-03
             866            1527     15.1929E-03     14.6220E-03
             867            1527     15.1929E-03     14.6220E-03
             884            1527     15.1929E-03     14.6220E-03
             885            1527     15.1929E-03     14.6220E-03
             867            1528     15.3481E-03     14.7035E-03
             886            1528     15.3481E-03     14.7035E-03
             885            1528     15.3481E-03     14.7035E-03
             868            1528     15.3481E-03     14.7035E-03
             868            1529     15.4126E-03     14.6849E-03
             887            1529     15.4126E-03     14.6849E-03
             869            1529     15.4126E-03     14.6849E-03
             886            1529     15.4126E-03     14.6849E-03
             887            1530     15.2571E-03     14.4574E-03
             888            1530     15.2571E-03     14.4574E-03
             869            1530     15.2571E-03     14.4574E-03
             870            1530     15.2571E-03     14.4574E-03
             889            1531     14.7287E-03     13.8269E-03
             870            1531     14.7287E-03     13.8269E-03
             871            1531     14.7287E-03     13.8269E-03
             888            1531     14.7287E-03     13.8269E-03
             890            1532     13.4674E-03     12.4459E-03
             871            1532     13.4674E-03     12.4459E-03
             889            1532     13.4674E-03     12.4459E-03
             872            1532     13.4674E-03     12.4459E-03
             873            1533     11.0305E-03     9.90489E-03
             891            1533     11.0305E-03     9.90489E-03
             872            1533     11.0305E-03     9.90489E-03
             890            1533     11.0305E-03     9.90489E-03
             892            1534     5.94787E-03     6.56423E-03
             874            1534     5.94787E-03     6.56423E-03
             891            1534     5.94787E-03     6.56423E-03
             873            1534     5.94787E-03     6.56423E-03
             875            1535     10.8271E-03     10.6274E-03
             876            1535     10.8271E-03     10.6274E-03
             894            1535     10.8271E-03     10.6274E-03
             893            1535     10.8271E-03     10.6274E-03
             876            1536     12.3367E-03     12.4487E-03
             894            1536     12.3367E-03     12.4487E-03
             895            1536     12.3367E-03     12.4487E-03
             877            1536     12.3367E-03     12.4487E-03
             896            1537     13.0758E-03     13.1336E-03
             877            1537     13.0758E-03     13.1336E-03
             895            1537     13.0758E-03     13.1336E-03
             878            1537     13.0758E-03     13.1336E-03
             897            1538     13.4880E-03     13.4427E-03
             878            1538     13.4880E-03     13.4427E-03
             896            1538     13.4880E-03     13.4427E-03
             879            1538     13.4880E-03     13.4427E-03
             898            1539     13.7529E-03     13.6627E-03
             897            1539     13.7529E-03     13.6627E-03
             879            1539     13.7529E-03     13.6627E-03
             880            1539     13.7529E-03     13.6627E-03
             881            1540     13.9511E-03     13.8032E-03
             899            1540     13.9511E-03     13.8032E-03
             898            1540     13.9511E-03     13.8032E-03
             880            1540     13.9511E-03     13.8032E-03
             899            1541     14.1549E-03     13.9615E-03
             881            1541     14.1549E-03     13.9615E-03
             882            1541     14.1549E-03     13.9615E-03
             900            1541     14.1549E-03     13.9615E-03
             900            1542     14.3782E-03     14.1385E-03
             883            1542     14.3782E-03     14.1385E-03
             882            1542     14.3782E-03     14.1385E-03
             901            1542     14.3782E-03     14.1385E-03
             884            1543     14.6319E-03     14.3500E-03
             902            1543     14.6319E-03     14.3500E-03
             883            1543     14.6319E-03     14.3500E-03
             901            1543     14.6319E-03     14.3500E-03
             903            1544     14.9150E-03     14.5889E-03
             902            1544     14.9150E-03     14.5889E-03
             885            1544     14.9150E-03     14.5889E-03
             884            1544     14.9150E-03     14.5889E-03
             904            1545     15.2207E-03     14.8521E-03
             885            1545     15.2207E-03     14.8521E-03
             886            1545     15.2207E-03     14.8521E-03
             903            1545     15.2207E-03     14.8521E-03
             905            1546     15.5012E-03     15.0895E-03
             886            1546     15.5012E-03     15.0895E-03
             887            1546     15.5012E-03     15.0895E-03
             904            1546     15.5012E-03     15.0895E-03
             887            1547     15.7075E-03     15.2490E-03
             905            1547     15.7075E-03     15.2490E-03
             906            1547     15.7075E-03     15.2490E-03
             888            1547     15.7075E-03     15.2490E-03
             889            1548     15.5219E-03     15.0715E-03
             906            1548     15.5219E-03     15.0715E-03
             907            1548     15.5219E-03     15.0715E-03
             888            1548     15.5219E-03     15.0715E-03
             890            1549     14.6501E-03     14.2025E-03
             908            1549     14.6501E-03     14.2025E-03
             889            1549     14.6501E-03     14.2025E-03
             907            1549     14.6501E-03     14.2025E-03
             909            1550     11.8510E-03     11.7199E-03
             890            1550     11.8510E-03     11.7199E-03
             891            1550     11.8510E-03     11.7199E-03
             908            1550     11.8510E-03     11.7199E-03
             910            1551     6.74025E-03     7.18257E-03
             891            1551     6.74025E-03     7.18257E-03
             909            1551     6.74025E-03     7.18257E-03
             892            1551     6.74025E-03     7.18257E-03
             893            1552     10.4588E-03     9.75574E-03
             894            1552     10.4588E-03     9.75574E-03
             912            1552     10.4588E-03     9.75574E-03
             911            1552     10.4588E-03     9.75574E-03
             894            1553     12.1048E-03     11.7464E-03
             912            1553     12.1048E-03     11.7464E-03
             913            1553     12.1048E-03     11.7464E-03
             895            1553     12.1048E-03     11.7464E-03
             914            1554     12.9522E-03     12.8948E-03
             896            1554     12.9522E-03     12.8948E-03
             895            1554     12.9522E-03     12.8948E-03
             913            1554     12.9522E-03     12.8948E-03
             915            1555     13.3256E-03     13.3340E-03
             914            1555     13.3256E-03     13.3340E-03
             896            1555     13.3256E-03     13.3340E-03
             897            1555     13.3256E-03     13.3340E-03
             898            1556     13.4991E-03     13.4902E-03
             897            1556     13.4991E-03     13.4902E-03
             915            1556     13.4991E-03     13.4902E-03
             916            1556     13.4991E-03     13.4902E-03
             898            1557     13.6343E-03     13.6137E-03
             899            1557     13.6343E-03     13.6137E-03
             916            1557     13.6343E-03     13.6137E-03
             917            1557     13.6343E-03     13.6137E-03
             899            1558     13.7958E-03     13.7606E-03
             900            1558     13.7958E-03     13.7606E-03
             918            1558     13.7958E-03     13.7606E-03
             917            1558     13.7958E-03     13.7606E-03
             901            1559     14.0073E-03     13.9627E-03
             900            1559     14.0073E-03     13.9627E-03
             918            1559     14.0073E-03     13.9627E-03
             919            1559     14.0073E-03     13.9627E-03
             902            1560     14.2826E-03     14.2279E-03
             901            1560     14.2826E-03     14.2279E-03
             919            1560     14.2826E-03     14.2279E-03
             920            1560     14.2826E-03     14.2279E-03
             903            1561     14.6218E-03     14.5594E-03
             921            1561     14.6218E-03     14.5594E-03
             902            1561     14.6218E-03     14.5594E-03
             920            1561     14.6218E-03     14.5594E-03
             903            1562     15.0228E-03     14.9498E-03
             921            1562     15.0228E-03     14.9498E-03
             922            1562     15.0228E-03     14.9498E-03
             904            1562     15.0228E-03     14.9498E-03
             922            1563     15.4678E-03     15.3892E-03
             923            1563     15.4678E-03     15.3892E-03
             905            1563     15.4678E-03     15.3892E-03
             904            1563     15.4678E-03     15.3892E-03
             906            1564     15.8505E-03     15.7785E-03
             924            1564     15.8505E-03     15.7785E-03
             923            1564     15.8505E-03     15.7785E-03
             905            1564     15.8505E-03     15.7785E-03
             907            1565     16.0444E-03     15.9902E-03
             925            1565     16.0444E-03     15.9902E-03
             906            1565     16.0444E-03     15.9902E-03
             924            1565     16.0444E-03     15.9902E-03
             926            1566     15.2899E-03     15.4871E-03
             908            1566     15.2899E-03     15.4871E-03
             925            1566     15.2899E-03     15.4871E-03
             907            1566     15.2899E-03     15.4871E-03
             908            1567     12.9031E-03     13.4263E-03
             926            1567     12.9031E-03     13.4263E-03
             909            1567     12.9031E-03     13.4263E-03
             927            1567     12.9031E-03     13.4263E-03
             909            1568     10.3841E-03     10.5408E-03
             927            1568     10.3841E-03     10.5408E-03
             928            1568     10.3841E-03     10.5408E-03
             910            1568     10.3841E-03     10.5408E-03
             912            1569     10.3674E-03     9.60617E-03
             911            1569     10.3674E-03     9.60617E-03
             930            1569     10.3674E-03     9.60617E-03
             929            1569     10.3674E-03     9.60617E-03
             912            1570     11.9184E-03     11.4961E-03
             930            1570     11.9184E-03     11.4961E-03
             913            1570     11.9184E-03     11.4961E-03
             931            1570     11.9184E-03     11.4961E-03
             932            1571     12.7396E-03     12.6252E-03
             931            1571     12.7396E-03     12.6252E-03
             914            1571     12.7396E-03     12.6252E-03
             913            1571     12.7396E-03     12.6252E-03
             932            1572     13.0243E-03     13.0565E-03
             915            1572     13.0243E-03     13.0565E-03
             933            1572     13.0243E-03     13.0565E-03
             914            1572     13.0243E-03     13.0565E-03
             933            1573     13.1438E-03     13.2178E-03
             916            1573     13.1438E-03     13.2178E-03
             934            1573     13.1438E-03     13.2178E-03
             915            1573     13.1438E-03     13.2178E-03
             917            1574     13.2524E-03     13.3576E-03
             934            1574     13.2524E-03     13.3576E-03
             916            1574     13.2524E-03     13.3576E-03
             935            1574     13.2524E-03     13.3576E-03
             935            1575     13.3911E-03     13.5232E-03
             918            1575     13.3911E-03     13.5232E-03
             917            1575     13.3911E-03     13.5232E-03
             936            1575     13.3911E-03     13.5232E-03
             936            1576     13.6000E-03     13.7574E-03
             919            1576     13.6000E-03     13.7574E-03
             918            1576     13.6000E-03     13.7574E-03
             937            1576     13.6000E-03     13.7574E-03
             919            1577     13.8767E-03     14.0592E-03
             938            1577     13.8767E-03     14.0592E-03
             920            1577     13.8767E-03     14.0592E-03
             937            1577     13.8767E-03     14.0592E-03
             920            1578     14.2333E-03     14.4383E-03
             921            1578     14.2333E-03     14.4383E-03
             939            1578     14.2333E-03     14.4383E-03
             938            1578     14.2333E-03     14.4383E-03
             939            1579     14.6565E-03     14.8872E-03
             922            1579     14.6565E-03     14.8872E-03
             940            1579     14.6565E-03     14.8872E-03
             921            1579     14.6565E-03     14.8872E-03
             922            1580     15.1430E-03     15.3929E-03
             941            1580     15.1430E-03     15.3929E-03
             940            1580     15.1430E-03     15.3929E-03
             923            1580     15.1430E-03     15.3929E-03
             923            1581     15.6193E-03     15.9126E-03
             924            1581     15.6193E-03     15.9126E-03
             942            1581     15.6193E-03     15.9126E-03
             941            1581     15.6193E-03     15.9126E-03
             943            1582     15.9668E-03     16.3037E-03
             924            1582     15.9668E-03     16.3037E-03
             925            1582     15.9668E-03     16.3037E-03
             942            1582     15.9668E-03     16.3037E-03
             926            1583     15.9220E-03     16.3640E-03
             925            1583     15.9220E-03     16.3640E-03
             944            1583     15.9220E-03     16.3640E-03
             943            1583     15.9220E-03     16.3640E-03
             944            1584     15.1034E-03     15.5964E-03
             945            1584     15.1034E-03     15.5964E-03
             926            1584     15.1034E-03     15.5964E-03
             927            1584     15.1034E-03     15.5964E-03
             928            1585     14.2824E-03     14.7916E-03
             945            1585     14.2824E-03     14.7916E-03
             946            1585     14.2824E-03     14.7916E-03
             927            1585     14.2824E-03     14.7916E-03
             948            1586     10.6715E-03     10.2094E-03
             947            1586     10.6715E-03     10.2094E-03
             929            1586     10.6715E-03     10.2094E-03
             930            1586     10.6715E-03     10.2094E-03
             949            1587     11.9140E-03     11.7285E-03
             931            1587     11.9140E-03     11.7285E-03
             930            1587     11.9140E-03     11.7285E-03
             948            1587     11.9140E-03     11.7285E-03
             949            1588     12.3407E-03     12.2953E-03
             932            1588     12.3407E-03     12.2953E-03
             950            1588     12.3407E-03     12.2953E-03
             931            1588     12.3407E-03     12.2953E-03
             950            1589     12.5283E-03     12.5823E-03
             933            1589     12.5283E-03     12.5823E-03
             932            1589     12.5283E-03     12.5823E-03
             951            1589     12.5283E-03     12.5823E-03
             934            1590     12.6557E-03     12.8207E-03
             952            1590     12.6557E-03     12.8207E-03
             933            1590     12.6557E-03     12.8207E-03
             951            1590     12.6557E-03     12.8207E-03
             935            1591     12.7607E-03     12.9990E-03
             952            1591     12.7607E-03     12.9990E-03
             934            1591     12.7607E-03     12.9990E-03
             953            1591     12.7607E-03     12.9990E-03
             936            1592     12.9168E-03     13.2239E-03
             954            1592     12.9168E-03     13.2239E-03
             935            1592     12.9168E-03     13.2239E-03
             953            1592     12.9168E-03     13.2239E-03
             937            1593     13.1224E-03     13.4897E-03
             954            1593     13.1224E-03     13.4897E-03
             955            1593     13.1224E-03     13.4897E-03
             936            1593     13.1224E-03     13.4897E-03
             956            1594     13.3956E-03     13.8212E-03
             955            1594     13.3956E-03     13.8212E-03
             938            1594     13.3956E-03     13.8212E-03
             937            1594     13.3956E-03     13.8212E-03
             938            1595     13.7268E-03     14.2044E-03
             957            1595     13.7268E-03     14.2044E-03
             939            1595     13.7268E-03     14.2044E-03
             956            1595     13.7268E-03     14.2044E-03
             939            1596     14.1207E-03     14.6502E-03
             957            1596     14.1207E-03     14.6502E-03
             958            1596     14.1207E-03     14.6502E-03
             940            1596     14.1207E-03     14.6502E-03
             941            1597     14.5423E-03     15.1265E-03
             940            1597     14.5423E-03     15.1265E-03
             959            1597     14.5423E-03     15.1265E-03
             958            1597     14.5423E-03     15.1265E-03
             941            1598     15.0153E-03     15.6465E-03
             959            1598     15.0153E-03     15.6465E-03
             960            1598     15.0153E-03     15.6465E-03
             942            1598     15.0153E-03     15.6465E-03
             942            1599     15.4152E-03     16.1356E-03
             960            1599     15.4152E-03     16.1356E-03
             943            1599     15.4152E-03     16.1356E-03
             961            1599     15.4152E-03     16.1356E-03
             943            1600     16.0054E-03     16.6586E-03
             944            1600     16.0054E-03     16.6586E-03
             962            1600     16.0054E-03     16.6586E-03
             961            1600     16.0054E-03     16.6586E-03
             945            1601     17.1940E-03     17.6522E-03
             963            1601     17.1940E-03     17.6522E-03
             962            1601     17.1940E-03     17.6522E-03
             944            1601     17.1940E-03     17.6522E-03
             946            1602     18.8296E-03     18.8979E-03
             963            1602     18.8296E-03     18.8979E-03
             964            1602     18.8296E-03     18.8979E-03
             945            1602     18.8296E-03     18.8979E-03
             948            1603     11.5277E-03     11.1831E-03
             966            1603     11.5277E-03     11.1831E-03
             965            1603     11.5277E-03     11.1831E-03
             947            1603     11.5277E-03     11.1831E-03
             948            1604     11.6831E-03     11.5073E-03
             949            1604     11.6831E-03     11.5073E-03
             967            1604     11.6831E-03     11.5073E-03
             966            1604     11.6831E-03     11.5073E-03
             950            1605     11.7090E-03     11.6692E-03
             968            1605     11.7090E-03     11.6692E-03
             967            1605     11.7090E-03     11.6692E-03
             949            1605     11.7090E-03     11.6692E-03
             950            1606     11.9008E-03     12.0149E-03
             968            1606     11.9008E-03     12.0149E-03
             951            1606     11.9008E-03     12.0149E-03
             969            1606     11.9008E-03     12.0149E-03
             970            1607     12.0377E-03     12.2959E-03
             952            1607     12.0377E-03     12.2959E-03
             969            1607     12.0377E-03     12.2959E-03
             951            1607     12.0377E-03     12.2959E-03
             953            1608     12.1967E-03     12.5802E-03
             971            1608     12.1967E-03     12.5802E-03
             970            1608     12.1967E-03     12.5802E-03
             952            1608     12.1967E-03     12.5802E-03
             954            1609     12.3709E-03     12.8594E-03
             972            1609     12.3709E-03     12.8594E-03
             971            1609     12.3709E-03     12.8594E-03
             953            1609     12.3709E-03     12.8594E-03
             955            1610     12.5872E-03     13.1758E-03
             972            1610     12.5872E-03     13.1758E-03
             954            1610     12.5872E-03     13.1758E-03
             973            1610     12.5872E-03     13.1758E-03
             973            1611     12.8476E-03     13.5210E-03
             956            1611     12.8476E-03     13.5210E-03
             974            1611     12.8476E-03     13.5210E-03
             955            1611     12.8476E-03     13.5210E-03
             975            1612     13.1486E-03     13.9087E-03
             974            1612     13.1486E-03     13.9087E-03
             956            1612     13.1486E-03     13.9087E-03
             957            1612     13.1486E-03     13.9087E-03
             957            1613     13.4764E-03     14.3108E-03
             975            1613     13.4764E-03     14.3108E-03
             976            1613     13.4764E-03     14.3108E-03
             958            1613     13.4764E-03     14.3108E-03
             976            1614     13.8307E-03     14.7467E-03
             959            1614     13.8307E-03     14.7467E-03
             958            1614     13.8307E-03     14.7467E-03
             977            1614     13.8307E-03     14.7467E-03
             959            1615     14.1703E-03     15.1703E-03
             960            1615     14.1703E-03     15.1703E-03
             977            1615     14.1703E-03     15.1703E-03
             978            1615     14.1703E-03     15.1703E-03
             960            1616     14.6443E-03     15.7213E-03
             979            1616     14.6443E-03     15.7213E-03
             978            1616     14.6443E-03     15.7213E-03
             961            1616     14.6443E-03     15.7213E-03
             979            1617     15.3047E-03     16.4907E-03
             980            1617     15.3047E-03     16.4907E-03
             962            1617     15.3047E-03     16.4907E-03
             961            1617     15.3047E-03     16.4907E-03
             963            1618     17.2979E-03     18.4838E-03
             981            1618     17.2979E-03     18.4838E-03
             962            1618     17.2979E-03     18.4838E-03
             980            1618     17.2979E-03     18.4838E-03
             964            1619     21.9445E-03     23.0300E-03
             963            1619     21.9445E-03     23.0300E-03
             981            1619     21.9445E-03     23.0300E-03
             982            1619     21.9445E-03     23.0300E-03
             966            1620     13.6215E-03     14.4184E-03
             984            1620     13.6215E-03     14.4184E-03
             965            1620     13.6215E-03     14.4184E-03
             983            1620     13.6215E-03     14.4184E-03
             966            1621     14.2730E-03     14.4389E-03
             985            1621     14.2730E-03     14.4389E-03
             967            1621     14.2730E-03     14.4389E-03
             984            1621     14.2730E-03     14.4389E-03
             967            1622     14.8007E-03     14.7893E-03
             985            1622     14.8007E-03     14.7893E-03
             968            1622     14.8007E-03     14.7893E-03
             986            1622     14.8007E-03     14.7893E-03
             969            1623     15.4388E-03     15.4255E-03
             968            1623     15.4388E-03     15.4255E-03
             987            1623     15.4388E-03     15.4255E-03
             986            1623     15.4388E-03     15.4255E-03
             988            1624     16.0347E-03     16.0133E-03
             970            1624     16.0347E-03     16.0133E-03
             969            1624     16.0347E-03     16.0133E-03
             987            1624     16.0347E-03     16.0133E-03
             989            1625     16.6781E-03     16.6745E-03
             988            1625     16.6781E-03     16.6745E-03
             970            1625     16.6781E-03     16.6745E-03
             971            1625     16.6781E-03     16.6745E-03
             972            1626     17.3351E-03     17.3406E-03
             989            1626     17.3351E-03     17.3406E-03
             990            1626     17.3351E-03     17.3406E-03
             971            1626     17.3351E-03     17.3406E-03
             972            1627     18.0221E-03     18.0334E-03
             973            1627     18.0221E-03     18.0334E-03
             990            1627     18.0221E-03     18.0334E-03
             991            1627     18.0221E-03     18.0334E-03
             974            1628     18.7149E-03     18.7249E-03
             991            1628     18.7149E-03     18.7249E-03
             992            1628     18.7149E-03     18.7249E-03
             973            1628     18.7149E-03     18.7249E-03
             975            1629     19.3933E-03     19.3928E-03
             974            1629     19.3933E-03     19.3928E-03
             992            1629     19.3933E-03     19.3928E-03
             993            1629     19.3933E-03     19.3928E-03
             994            1630     20.0088E-03     19.9864E-03
             975            1630     20.0088E-03     19.9864E-03
             976            1630     20.0088E-03     19.9864E-03
             993            1630     20.0088E-03     19.9864E-03
             995            1631     20.5381E-03     20.4762E-03
             977            1631     20.5381E-03     20.4762E-03
             994            1631     20.5381E-03     20.4762E-03
             976            1631     20.5381E-03     20.4762E-03
             995            1632     20.8865E-03     20.7733E-03
             978            1632     20.8865E-03     20.7733E-03
             996            1632     20.8865E-03     20.7733E-03
             977            1632     20.8865E-03     20.7733E-03
             997            1633     21.1091E-03     20.9052E-03
             979            1633     21.1091E-03     20.9052E-03
             996            1633     21.1091E-03     20.9052E-03
             978            1633     21.1091E-03     20.9052E-03
             997            1634     21.0988E-03     20.8164E-03
             998            1634     21.0988E-03     20.8164E-03
             980            1634     21.0988E-03     20.8164E-03
             979            1634     21.0988E-03     20.8164E-03
             980            1635     21.1621E-03     20.8059E-03
             981            1635     21.1621E-03     20.8059E-03
             999            1635     21.1621E-03     20.8059E-03
             998            1635     21.1621E-03     20.8059E-03
             982            1636     21.6977E-03     21.7717E-03
            1000            1636     21.6977E-03     21.7717E-03
             999            1636     21.6977E-03     21.7717E-03
             981            1636     21.6977E-03     21.7717E-03
             983            1637     15.1976E-03     16.9573E-03
             984            1637     15.1976E-03     16.9573E-03
            1002            1637     15.1976E-03     16.9573E-03
            1001            1637     15.1976E-03     16.9573E-03
            1002            1638     16.5444E-03     17.5504E-03
             985            1638     16.5444E-03     17.5504E-03
            1003            1638     16.5444E-03     17.5504E-03
             984            1638     16.5444E-03     17.5504E-03
            1003            1639     17.6889E-03     17.9768E-03
             986            1639     17.6889E-03     17.9768E-03
            1004            1639     17.6889E-03     17.9768E-03
             985            1639     17.6889E-03     17.9768E-03
             987            1640     18.7377E-03     18.6992E-03
             986            1640     18.7377E-03     18.6992E-03
            1005            1640     18.7377E-03     18.6992E-03
            1004            1640     18.7377E-03     18.6992E-03
             988            1641     19.8016E-03     19.5620E-03
             987            1641     19.8016E-03     19.5620E-03
            1005            1641     19.8016E-03     19.5620E-03
            1006            1641     19.8016E-03     19.5620E-03
            1007            1642     20.9535E-03     20.5664E-03
             989            1642     20.9535E-03     20.5664E-03
            1006            1642     20.9535E-03     20.5664E-03
             988            1642     20.9535E-03     20.5664E-03
             990            1643     22.1692E-03     21.6752E-03
            1007            1643     22.1692E-03     21.6752E-03
            1008            1643     22.1692E-03     21.6752E-03
             989            1643     22.1692E-03     21.6752E-03
             991            1644     23.4486E-03     22.8514E-03
            1009            1644     23.4486E-03     22.8514E-03
            1008            1644     23.4486E-03     22.8514E-03
             990            1644     23.4486E-03     22.8514E-03
             991            1645     24.7390E-03     24.0505E-03
             992            1645     24.7390E-03     24.0505E-03
            1010            1645     24.7390E-03     24.0505E-03
            1009            1645     24.7390E-03     24.0505E-03
             992            1646     26.0021E-03     25.2100E-03
            1011            1646     26.0021E-03     25.2100E-03
             993            1646     26.0021E-03     25.2100E-03
            1010            1646     26.0021E-03     25.2100E-03
            1011            1647     27.1650E-03     26.2680E-03
             994            1647     27.1650E-03     26.2680E-03
            1012            1647     27.1650E-03     26.2680E-03
             993            1647     27.1650E-03     26.2680E-03
             994            1648     28.1439E-03     27.1214E-03
            1012            1648     28.1439E-03     27.1214E-03
             995            1648     28.1439E-03     27.1214E-03
            1013            1648     28.1439E-03     27.1214E-03
            1013            1649     28.8315E-03     27.6667E-03
             996            1649     28.8315E-03     27.6667E-03
            1014            1649     28.8315E-03     27.6667E-03
             995            1649     28.8315E-03     27.6667E-03
             996            1650     29.0374E-03     27.7213E-03
            1015            1650     29.0374E-03     27.7213E-03
            1014            1650     29.0374E-03     27.7213E-03
             997            1650     29.0374E-03     27.7213E-03
            1015            1651     28.5388E-03     27.0551E-03
             997            1651     28.5388E-03     27.0551E-03
            1016            1651     28.5388E-03     27.0551E-03
             998            1651     28.5388E-03     27.0551E-03
             998            1652     26.7045E-03     25.1673E-03
            1017            1652     26.7045E-03     25.1673E-03
            1016            1652     26.7045E-03     25.1673E-03
             999            1652     26.7045E-03     25.1673E-03
             999            1653     22.6804E-03     21.3001E-03
            1018            1653     22.6804E-03     21.3001E-03
            1017            1653     22.6804E-03     21.3001E-03
            1000            1653     22.6804E-03     21.3001E-03
            1002            1654     14.9555E-03     15.2873E-03
            1019            1654     14.9555E-03     15.2873E-03
            1001            1654     14.9555E-03     15.2873E-03
            1020            1654     14.9555E-03     15.2873E-03
            1020            1655     15.7920E-03     16.6581E-03
            1003            1655     15.7920E-03     16.6581E-03
            1021            1655     15.7920E-03     16.6581E-03
            1002            1655     15.7920E-03     16.6581E-03
            1021            1656     16.6944E-03     17.2444E-03
            1022            1656     16.6944E-03     17.2444E-03
            1003            1656     16.6944E-03     17.2444E-03
            1004            1656     16.6944E-03     17.2444E-03
            1022            1657     17.7156E-03     17.8811E-03
            1005            1657     17.7156E-03     17.8811E-03
            1023            1657     17.7156E-03     17.8811E-03
            1004            1657     17.7156E-03     17.8811E-03
            1006            1658     18.8217E-03     18.7702E-03
            1023            1658     18.8217E-03     18.7702E-03
            1024            1658     18.8217E-03     18.7702E-03
            1005            1658     18.8217E-03     18.7702E-03
            1006            1659     20.0737E-03     19.8599E-03
            1025            1659     20.0737E-03     19.8599E-03
            1007            1659     20.0737E-03     19.8599E-03
            1024            1659     20.0737E-03     19.8599E-03
            1007            1660     21.4714E-03     21.1488E-03
            1025            1660     21.4714E-03     21.1488E-03
            1026            1660     21.4714E-03     21.1488E-03
            1008            1660     21.4714E-03     21.1488E-03
            1026            1661     22.9838E-03     22.5794E-03
            1009            1661     22.9838E-03     22.5794E-03
            1027            1661     22.9838E-03     22.5794E-03
            1008            1661     22.9838E-03     22.5794E-03
            1009            1662     24.5819E-03     24.1082E-03
            1028            1662     24.5819E-03     24.1082E-03
            1027            1662     24.5819E-03     24.1082E-03
            1010            1662     24.5819E-03     24.1082E-03
            1028            1663     26.1993E-03     25.6706E-03
            1029            1663     26.1993E-03     25.6706E-03
            1011            1663     26.1993E-03     25.6706E-03
            1010            1663     26.1993E-03     25.6706E-03
            1030            1664     27.7724E-03     27.1910E-03
            1011            1664     27.7724E-03     27.1910E-03
            1012            1664     27.7724E-03     27.1910E-03
            1029            1664     27.7724E-03     27.1910E-03
            1013            1665     29.1905E-03     28.5747E-03
            1031            1665     29.1905E-03     28.5747E-03
            1012            1665     29.1905E-03     28.5747E-03
            1030            1665     29.1905E-03     28.5747E-03
            1014            1666     30.3136E-03     29.6876E-03
            1032            1666     30.3136E-03     29.6876E-03
            1013            1666     30.3136E-03     29.6876E-03
            1031            1666     30.3136E-03     29.6876E-03
            1014            1667     30.9215E-03     30.3354E-03
            1032            1667     30.9215E-03     30.3354E-03
            1033            1667     30.9215E-03     30.3354E-03
            1015            1667     30.9215E-03     30.3354E-03
            1033            1668     30.6956E-03     30.2727E-03
            1016            1668     30.6956E-03     30.2727E-03
            1034            1668     30.6956E-03     30.2727E-03
            1015            1668     30.6956E-03     30.2727E-03
            1034            1669     28.9884E-03     28.9288E-03
            1035            1669     28.9884E-03     28.9288E-03
            1017            1669     28.9884E-03     28.9288E-03
            1016            1669     28.9884E-03     28.9288E-03
            1035            1670     26.7864E-03     26.9334E-03
            1018            1670     26.7864E-03     26.9334E-03
            1036            1670     26.7864E-03     26.9334E-03
            1017            1670     26.7864E-03     26.9334E-03
            1038            1671     14.1380E-03     13.6747E-03
            1020            1671     14.1380E-03     13.6747E-03
            1019            1671     14.1380E-03     13.6747E-03
            1037            1671     14.1380E-03     13.6747E-03
            1039            1672     15.1616E-03     15.1767E-03
            1038            1672     15.1616E-03     15.1767E-03
            1020            1672     15.1616E-03     15.1767E-03
            1021            1672     15.1616E-03     15.1767E-03
            1040            1673     15.9421E-03     16.2671E-03
            1021            1673     15.9421E-03     16.2671E-03
            1022            1673     15.9421E-03     16.2671E-03
            1039            1673     15.9421E-03     16.2671E-03
            1022            1674     16.8918E-03     17.1149E-03
            1040            1674     16.8918E-03     17.1149E-03
            1041            1674     16.8918E-03     17.1149E-03
            1023            1674     16.8918E-03     17.1149E-03
            1023            1675     18.0486E-03     18.1185E-03
            1024            1675     18.0486E-03     18.1185E-03
            1041            1675     18.0486E-03     18.1185E-03
            1042            1675     18.0486E-03     18.1185E-03
            1043            1676     19.4018E-03     19.3645E-03
            1025            1676     19.4018E-03     19.3645E-03
            1042            1676     19.4018E-03     19.3645E-03
            1024            1676     19.4018E-03     19.3645E-03
            1025            1677     20.9545E-03     20.8335E-03
            1026            1677     20.9545E-03     20.8335E-03
            1044            1677     20.9545E-03     20.8335E-03
            1043            1677     20.9545E-03     20.8335E-03
            1045            1678     22.6795E-03     22.5066E-03
            1026            1678     22.6795E-03     22.5066E-03
            1044            1678     22.6795E-03     22.5066E-03
            1027            1678     22.6795E-03     22.5066E-03
            1028            1679     24.5253E-03     24.3209E-03
            1046            1679     24.5253E-03     24.3209E-03
            1027            1679     24.5253E-03     24.3209E-03
            1045            1679     24.5253E-03     24.3209E-03
            1029            1680     26.4416E-03     26.2202E-03
            1047            1680     26.4416E-03     26.2202E-03
            1028            1680     26.4416E-03     26.2202E-03
            1046            1680     26.4416E-03     26.2202E-03
            1030            1681     28.3305E-03     28.1202E-03
            1029            1681     28.3305E-03     28.1202E-03
            1048            1681     28.3305E-03     28.1202E-03
            1047            1681     28.3305E-03     28.1202E-03
            1031            1682     30.0962E-03     29.9169E-03
            1030            1682     30.0962E-03     29.9169E-03
            1049            1682     30.0962E-03     29.9169E-03
            1048            1682     30.0962E-03     29.9169E-03
            1049            1683     31.5509E-03     31.4610E-03
            1032            1683     31.5509E-03     31.4610E-03
            1050            1683     31.5509E-03     31.4610E-03
            1031            1683     31.5509E-03     31.4610E-03
            1032            1684     32.4915E-03     32.5568E-03
            1051            1684     32.4915E-03     32.5568E-03
            1033            1684     32.4915E-03     32.5568E-03
            1050            1684     32.4915E-03     32.5568E-03
            1051            1685     32.5793E-03     32.8953E-03
            1052            1685     32.5793E-03     32.8953E-03
            1034            1685     32.5793E-03     32.8953E-03
            1033            1685     32.5793E-03     32.8953E-03
            1034            1686     31.8123E-03     32.3491E-03
            1053            1686     31.8123E-03     32.3491E-03
            1052            1686     31.8123E-03     32.3491E-03
            1035            1686     31.8123E-03     32.3491E-03
            1053            1687     31.4626E-03     31.7324E-03
            1035            1687     31.4626E-03     31.7324E-03
            1036            1687     31.4626E-03     31.7324E-03
            1054            1687     31.4626E-03     31.7324E-03
            1038            1688     13.3880E-03     12.7259E-03
            1056            1688     13.3880E-03     12.7259E-03
            1055            1688     13.3880E-03     12.7259E-03
            1037            1688     13.3880E-03     12.7259E-03
            1057            1689     14.2838E-03     13.9260E-03
            1056            1689     14.2838E-03     13.9260E-03
            1039            1689     14.2838E-03     13.9260E-03
            1038            1689     14.2838E-03     13.9260E-03
            1057            1690     15.1903E-03     15.1355E-03
            1058            1690     15.1903E-03     15.1355E-03
            1039            1690     15.1903E-03     15.1355E-03
            1040            1690     15.1903E-03     15.1355E-03
            1041            1691     16.1579E-03     16.2916E-03
            1040            1691     16.1579E-03     16.2916E-03
            1058            1691     16.1579E-03     16.2916E-03
            1059            1691     16.1579E-03     16.2916E-03
            1042            1692     17.3622E-03     17.5025E-03
            1059            1692     17.3622E-03     17.5025E-03
            1060            1692     17.3622E-03     17.5025E-03
            1041            1692     17.3622E-03     17.5025E-03
            1043            1693     18.8108E-03     18.9220E-03
            1060            1693     18.8108E-03     18.9220E-03
            1042            1693     18.8108E-03     18.9220E-03
            1061            1693     18.8108E-03     18.9220E-03
            1044            1694     20.4941E-03     20.5830E-03
            1043            1694     20.4941E-03     20.5830E-03
            1062            1694     20.4941E-03     20.5830E-03
            1061            1694     20.4941E-03     20.5830E-03
            1063            1695     22.3788E-03     22.4539E-03
            1044            1695     22.3788E-03     22.4539E-03
            1045            1695     22.3788E-03     22.4539E-03
            1062            1695     22.3788E-03     22.4539E-03
            1063            1696     24.4205E-03     24.5004E-03
            1045            1696     24.4205E-03     24.5004E-03
            1046            1696     24.4205E-03     24.5004E-03
            1064            1696     24.4205E-03     24.5004E-03
            1046            1697     26.5490E-03     26.6535E-03
            1047            1697     26.5490E-03     26.6535E-03
            1064            1697     26.5490E-03     26.6535E-03
            1065            1697     26.5490E-03     26.6535E-03
            1047            1698     28.6985E-03     28.8446E-03
            1048            1698     28.6985E-03     28.8446E-03
            1065            1698     28.6985E-03     28.8446E-03
            1066            1698     28.6985E-03     28.8446E-03
            1049            1699     30.7291E-03     30.9619E-03
            1048            1699     30.7291E-03     30.9619E-03
            1067            1699     30.7291E-03     30.9619E-03
            1066            1699     30.7291E-03     30.9619E-03
            1049            1700     32.5165E-03     32.8615E-03
            1067            1700     32.5165E-03     32.8615E-03
            1050            1700     32.5165E-03     32.8615E-03
            1068            1700     32.5165E-03     32.8615E-03
            1051            1701     33.8337E-03     34.3480E-03
            1050            1701     33.8337E-03     34.3480E-03
            1068            1701     33.8337E-03     34.3480E-03
            1069            1701     33.8337E-03     34.3480E-03
            1051            1702     34.5454E-03     35.2256E-03
            1052            1702     34.5454E-03     35.2256E-03
            1070            1702     34.5454E-03     35.2256E-03
            1069            1702     34.5454E-03     35.2256E-03
            1052            1703     34.9814E-03     35.5954E-03
            1053            1703     34.9814E-03     35.5954E-03
            1070            1703     34.9814E-03     35.5954E-03
            1071            1703     34.9814E-03     35.5954E-03
            1053            1704     35.7424E-03     36.1325E-03
            1054            1704     35.7424E-03     36.1325E-03
            1072            1704     35.7424E-03     36.1325E-03
            1071            1704     35.7424E-03     36.1325E-03
            1056            1705     12.8122E-03     11.8922E-03
            1073            1705     12.8122E-03     11.8922E-03
            1074            1705     12.8122E-03     11.8922E-03
            1055            1705     12.8122E-03     11.8922E-03
            1056            1706     13.5010E-03     12.9343E-03
            1075            1706     13.5010E-03     12.9343E-03
            1074            1706     13.5010E-03     12.9343E-03
            1057            1706     13.5010E-03     12.9343E-03
            1057            1707     14.3671E-03     14.1294E-03
            1076            1707     14.3671E-03     14.1294E-03
            1058            1707     14.3671E-03     14.1294E-03
            1075            1707     14.3671E-03     14.1294E-03
            1059            1708     15.4174E-03     15.4308E-03
            1076            1708     15.4174E-03     15.4308E-03
            1077            1708     15.4174E-03     15.4308E-03
            1058            1708     15.4174E-03     15.4308E-03
            1078            1709     16.6699E-03     16.8466E-03
            1077            1709     16.6699E-03     16.8466E-03
            1060            1709     16.6699E-03     16.8466E-03
            1059            1709     16.6699E-03     16.8466E-03
            1061            1710     18.1991E-03     18.4472E-03
            1060            1710     18.1991E-03     18.4472E-03
            1078            1710     18.1991E-03     18.4472E-03
            1079            1710     18.1991E-03     18.4472E-03
            1080            1711     19.9774E-03     20.2659E-03
            1079            1711     19.9774E-03     20.2659E-03
            1061            1711     19.9774E-03     20.2659E-03
            1062            1711     19.9774E-03     20.2659E-03
            1063            1712     21.9758E-03     22.3001E-03
            1062            1712     21.9758E-03     22.3001E-03
            1080            1712     21.9758E-03     22.3001E-03
            1081            1712     21.9758E-03     22.3001E-03
            1082            1713     24.1485E-03     24.5103E-03
            1064            1713     24.1485E-03     24.5103E-03
            1081            1713     24.1485E-03     24.5103E-03
            1063            1713     24.1485E-03     24.5103E-03
            1065            1714     26.4413E-03     26.8529E-03
            1064            1714     26.4413E-03     26.8529E-03
            1083            1714     26.4413E-03     26.8529E-03
            1082            1714     26.4413E-03     26.8529E-03
            1065            1715     28.7731E-03     29.2548E-03
            1083            1715     28.7731E-03     29.2548E-03
            1084            1715     28.7731E-03     29.2548E-03
            1066            1715     28.7731E-03     29.2548E-03
            1084            1716     31.0837E-03     31.6421E-03
            1066            1716     31.0837E-03     31.6421E-03
            1067            1716     31.0837E-03     31.6421E-03
            1085            1716     31.0837E-03     31.6421E-03
            1085            1717     33.2090E-03     33.8904E-03
            1067            1717     33.2090E-03     33.8904E-03
            1086            1717     33.2090E-03     33.8904E-03
            1068            1717     33.2090E-03     33.8904E-03
            1069            1718     35.0591E-03     35.8355E-03
            1068            1718     35.0591E-03     35.8355E-03
            1086            1718     35.0591E-03     35.8355E-03
            1087            1718     35.0591E-03     35.8355E-03
            1070            1719     36.6138E-03     37.4067E-03
            1087            1719     36.6138E-03     37.4067E-03
            1088            1719     36.6138E-03     37.4067E-03
            1069            1719     36.6138E-03     37.4067E-03
            1088            1720     37.9982E-03     38.7269E-03
            1071            1720     37.9982E-03     38.7269E-03
            1070            1720     37.9982E-03     38.7269E-03
            1089            1720     37.9982E-03     38.7269E-03
            1072            1721     39.8258E-03     40.2416E-03
            1071            1721     39.8258E-03     40.2416E-03
            1089            1721     39.8258E-03     40.2416E-03
            1090            1721     39.8258E-03     40.2416E-03
            1074            1722     12.3755E-03     11.3631E-03
            1091            1722     12.3755E-03     11.3631E-03
            1073            1722     12.3755E-03     11.3631E-03
            1092            1722     12.3755E-03     11.3631E-03
            1075            1723     12.8371E-03     12.1222E-03
            1074            1723     12.8371E-03     12.1222E-03
            1093            1723     12.8371E-03     12.1222E-03
            1092            1723     12.8371E-03     12.1222E-03
            1075            1724     13.6015E-03     13.2548E-03
            1076            1724     13.6015E-03     13.2548E-03
            1093            1724     13.6015E-03     13.2548E-03
            1094            1724     13.6015E-03     13.2548E-03
            1095            1725     14.6157E-03     14.5956E-03
            1077            1725     14.6157E-03     14.5956E-03
            1094            1725     14.6157E-03     14.5956E-03
            1076            1725     14.6157E-03     14.5956E-03
            1077            1726     15.9206E-03     16.1422E-03
            1078            1726     15.9206E-03     16.1422E-03
            1095            1726     15.9206E-03     16.1422E-03
            1096            1726     15.9206E-03     16.1422E-03
            1079            1727     17.4863E-03     17.8697E-03
            1097            1727     17.4863E-03     17.8697E-03
            1096            1727     17.4863E-03     17.8697E-03
            1078            1727     17.4863E-03     17.8697E-03
            1097            1728     19.3233E-03     19.8115E-03
            1080            1728     19.3233E-03     19.8115E-03
            1098            1728     19.3233E-03     19.8115E-03
            1079            1728     19.3233E-03     19.8115E-03
            1099            1729     21.3968E-03     21.9603E-03
            1081            1729     21.3968E-03     21.9603E-03
            1098            1729     21.3968E-03     21.9603E-03
            1080            1729     21.3968E-03     21.9603E-03
            1099            1730     23.6519E-03     24.2851E-03
            1082            1730     23.6519E-03     24.2851E-03
            1100            1730     23.6519E-03     24.2851E-03
            1081            1730     23.6519E-03     24.2851E-03
            1083            1731     26.0503E-03     26.7476E-03
            1101            1731     26.0503E-03     26.7476E-03
            1100            1731     26.0503E-03     26.7476E-03
            1082            1731     26.0503E-03     26.7476E-03
            1102            1732     28.5473E-03     29.3158E-03
            1084            1732     28.5473E-03     29.3158E-03
            1083            1732     28.5473E-03     29.3158E-03
            1101            1732     28.5473E-03     29.3158E-03
            1084            1733     31.0795E-03     31.9242E-03
            1103            1733     31.0795E-03     31.9242E-03
            1085            1733     31.0795E-03     31.9242E-03
            1102            1733     31.0795E-03     31.9242E-03
            1085            1734     33.6450E-03     34.5349E-03
            1103            1734     33.6450E-03     34.5349E-03
            1086            1734     33.6450E-03     34.5349E-03
            1104            1734     33.6450E-03     34.5349E-03
            1104            1735     36.1227E-03     37.0655E-03
            1105            1735     36.1227E-03     37.0655E-03
            1087            1735     36.1227E-03     37.0655E-03
            1086            1735     36.1227E-03     37.0655E-03
            1087            1736     38.5267E-03     39.4310E-03
            1088            1736     38.5267E-03     39.4310E-03
            1105            1736     38.5267E-03     39.4310E-03
            1106            1736     38.5267E-03     39.4310E-03
            1088            1737     41.0000E-03     41.7000E-03
            1106            1737     41.0000E-03     41.7000E-03
            1089            1737     41.0000E-03     41.7000E-03
            1107            1737     41.0000E-03     41.7000E-03
            1090            1738     43.6757E-03     44.2630E-03
            1107            1738     43.6757E-03     44.2630E-03
            1089            1738     43.6757E-03     44.2630E-03
            1108            1738     43.6757E-03     44.2630E-03
            1092            1739     12.2050E-03     11.1160E-03
            1109            1739     12.2050E-03     11.1160E-03
            1110            1739     12.2050E-03     11.1160E-03
            1091            1739     12.2050E-03     11.1160E-03
            1111            1740     12.3300E-03     11.5450E-03
            1093            1740     12.3300E-03     11.5450E-03
            1092            1740     12.3300E-03     11.5450E-03
            1110            1740     12.3300E-03     11.5450E-03
            1093            1741     12.8781E-03     12.4948E-03
            1094            1741     12.8781E-03     12.4948E-03
            1111            1741     12.8781E-03     12.4948E-03
            1112            1741     12.8781E-03     12.4948E-03
            1113            1742     13.8083E-03     13.8165E-03
            1094            1742     13.8083E-03     13.8165E-03
            1095            1742     13.8083E-03     13.8165E-03
            1112            1742     13.8083E-03     13.8165E-03
            1114            1743     15.0396E-03     15.3561E-03
            1095            1743     15.0396E-03     15.3561E-03
            1113            1743     15.0396E-03     15.3561E-03
            1096            1743     15.0396E-03     15.3561E-03
            1096            1744     16.6143E-03     17.1532E-03
            1097            1744     16.6143E-03     17.1532E-03
            1114            1744     16.6143E-03     17.1532E-03
            1115            1744     16.6143E-03     17.1532E-03
            1116            1745     18.4899E-03     19.1825E-03
            1097            1745     18.4899E-03     19.1825E-03
            1115            1745     18.4899E-03     19.1825E-03
            1098            1745     18.4899E-03     19.1825E-03
            1117            1746     20.5969E-03     21.4019E-03
            1099            1746     20.5969E-03     21.4019E-03
            1098            1746     20.5969E-03     21.4019E-03
            1116            1746     20.5969E-03     21.4019E-03
            1099            1747     22.9074E-03     23.7954E-03
            1100            1747     22.9074E-03     23.7954E-03
            1117            1747     22.9074E-03     23.7954E-03
            1118            1747     22.9074E-03     23.7954E-03
            1101            1748     25.3698E-03     26.3359E-03
            1118            1748     25.3698E-03     26.3359E-03
            1100            1748     25.3698E-03     26.3359E-03
            1119            1748     25.3698E-03     26.3359E-03
            1102            1749     27.9792E-03     29.0037E-03
            1120            1749     27.9792E-03     29.0037E-03
            1101            1749     27.9792E-03     29.0037E-03
            1119            1749     27.9792E-03     29.0037E-03
            1120            1750     30.7324E-03     31.8105E-03
            1103            1750     30.7324E-03     31.8105E-03
            1102            1750     30.7324E-03     31.8105E-03
            1121            1750     30.7324E-03     31.8105E-03
            1103            1751     33.6392E-03     34.7376E-03
            1104            1751     33.6392E-03     34.7376E-03
            1121            1751     33.6392E-03     34.7376E-03
            1122            1751     33.6392E-03     34.7376E-03
            1105            1752     36.8587E-03     37.8756E-03
            1123            1752     36.8587E-03     37.8756E-03
            1122            1752     36.8587E-03     37.8756E-03
            1104            1752     36.8587E-03     37.8756E-03
            1124            1753     40.2470E-03     41.2016E-03
            1105            1753     40.2470E-03     41.2016E-03
            1106            1753     40.2470E-03     41.2016E-03
            1123            1753     40.2470E-03     41.2016E-03
            1125            1754     43.7652E-03     44.6275E-03
            1106            1754     43.7652E-03     44.6275E-03
            1107            1754     43.7652E-03     44.6275E-03
            1124            1754     43.7652E-03     44.6275E-03
            1108            1755     47.6334E-03     48.1276E-03
            1126            1755     47.6334E-03     48.1276E-03
            1107            1755     47.6334E-03     48.1276E-03
            1125            1755     47.6334E-03     48.1276E-03
            1109            1756     12.2936E-03     11.1779E-03
            1110            1756     12.2936E-03     11.1779E-03
            1127            1756     12.2936E-03     11.1779E-03
            1128            1756     12.2936E-03     11.1779E-03
            1129            1757     12.0769E-03     11.2908E-03
            1110            1757     12.0769E-03     11.2908E-03
            1111            1757     12.0769E-03     11.2908E-03
            1128            1757     12.0769E-03     11.2908E-03
            1112            1758     12.2757E-03     11.9358E-03
            1130            1758     12.2757E-03     11.9358E-03
            1129            1758     12.2757E-03     11.9358E-03
            1111            1758     12.2757E-03     11.9358E-03
            1131            1759     12.8563E-03     12.9534E-03
            1112            1759     12.8563E-03     12.9534E-03
            1130            1759     12.8563E-03     12.9534E-03
            1113            1759     12.8563E-03     12.9534E-03
            1132            1760     13.9785E-03     14.4422E-03
            1113            1760     13.9785E-03     14.4422E-03
            1114            1760     13.9785E-03     14.4422E-03
            1131            1760     13.9785E-03     14.4422E-03
            1133            1761     15.5552E-03     16.2869E-03
            1114            1761     15.5552E-03     16.2869E-03
            1132            1761     15.5552E-03     16.2869E-03
            1115            1761     15.5552E-03     16.2869E-03
            1134            1762     17.4417E-03     18.3624E-03
            1115            1762     17.4417E-03     18.3624E-03
            1133            1762     17.4417E-03     18.3624E-03
            1116            1762     17.4417E-03     18.3624E-03
            1116            1763     19.5887E-03     20.6383E-03
            1134            1763     19.5887E-03     20.6383E-03
            1117            1763     19.5887E-03     20.6383E-03
            1135            1763     19.5887E-03     20.6383E-03
            1135            1764     21.9185E-03     23.0652E-03
            1117            1764     21.9185E-03     23.0652E-03
            1118            1764     21.9185E-03     23.0652E-03
            1136            1764     21.9185E-03     23.0652E-03
            1118            1765     24.4293E-03     25.6413E-03
            1137            1765     24.4293E-03     25.6413E-03
            1136            1765     24.4293E-03     25.6413E-03
            1119            1765     24.4293E-03     25.6413E-03
            1138            1766     27.0985E-03     28.3712E-03
            1120            1766     27.0985E-03     28.3712E-03
            1119            1766     27.0985E-03     28.3712E-03
            1137            1766     27.0985E-03     28.3712E-03
            1138            1767     29.9961E-03     31.2856E-03
            1139            1767     29.9961E-03     31.2856E-03
            1120            1767     29.9961E-03     31.2856E-03
            1121            1767     29.9961E-03     31.2856E-03
            1122            1768     33.1893E-03     34.4853E-03
            1139            1768     33.1893E-03     34.4853E-03
            1121            1768     33.1893E-03     34.4853E-03
            1140            1768     33.1893E-03     34.4853E-03
            1141            1769     36.8396E-03     38.0509E-03
            1140            1769     36.8396E-03     38.0509E-03
            1122            1769     36.8396E-03     38.0509E-03
            1123            1769     36.8396E-03     38.0509E-03
            1141            1770     41.4066E-03     42.3404E-03
            1123            1770     41.4066E-03     42.3404E-03
            1142            1770     41.4066E-03     42.3404E-03
            1124            1770     41.4066E-03     42.3404E-03
            1143            1771     46.4751E-03     47.2186E-03
            1142            1771     46.4751E-03     47.2186E-03
            1124            1771     46.4751E-03     47.2186E-03
            1125            1771     46.4751E-03     47.2186E-03
            1143            1772     51.3950E-03     52.3168E-03
            1144            1772     51.3950E-03     52.3168E-03
            1125            1772     51.3950E-03     52.3168E-03
            1126            1772     51.3950E-03     52.3168E-03
            1146            1773     13.0262E-03     12.0005E-03
            1145            1773     13.0262E-03     12.0005E-03
            1128            1773     13.0262E-03     12.0005E-03
            1127            1773     13.0262E-03     12.0005E-03
            1146            1774     12.1282E-03     11.3927E-03
            1147            1774     12.1282E-03     11.3927E-03
            1128            1774     12.1282E-03     11.3927E-03
            1129            1774     12.1282E-03     11.3927E-03
            1129            1775     11.4117E-03     11.1452E-03
            1148            1775     11.4117E-03     11.1452E-03
            1147            1775     11.4117E-03     11.1452E-03
            1130            1775     11.4117E-03     11.1452E-03
            1148            1776     11.6363E-03     11.8796E-03
            1130            1776     11.6363E-03     11.8796E-03
            1131            1776     11.6363E-03     11.8796E-03
            1149            1776     11.6363E-03     11.8796E-03
            1131            1777     12.7031E-03     13.3719E-03
            1150            1777     12.7031E-03     13.3719E-03
            1132            1777     12.7031E-03     13.3719E-03
            1149            1777     12.7031E-03     13.3719E-03
            1150            1778     14.2698E-03     15.2464E-03
            1132            1778     14.2698E-03     15.2464E-03
            1133            1778     14.2698E-03     15.2464E-03
            1151            1778     14.2698E-03     15.2464E-03
            1152            1779     16.2135E-03     17.3962E-03
            1133            1779     16.2135E-03     17.3962E-03
            1151            1779     16.2135E-03     17.3962E-03
            1134            1779     16.2135E-03     17.3962E-03
            1153            1780     18.3894E-03     19.7082E-03
            1134            1780     18.3894E-03     19.7082E-03
            1135            1780     18.3894E-03     19.7082E-03
            1152            1780     18.3894E-03     19.7082E-03
            1154            1781     20.7586E-03     22.1655E-03
            1135            1781     20.7586E-03     22.1655E-03
            1153            1781     20.7586E-03     22.1655E-03
            1136            1781     20.7586E-03     22.1655E-03
            1154            1782     23.2816E-03     24.7473E-03
            1137            1782     23.2816E-03     24.7473E-03
            1155            1782     23.2816E-03     24.7473E-03
            1136            1782     23.2816E-03     24.7473E-03
            1155            1783     26.0001E-03     27.4944E-03
            1138            1783     26.0001E-03     27.4944E-03
            1137            1783     26.0001E-03     27.4944E-03
            1156            1783     26.0001E-03     27.4944E-03
            1138            1784     28.9368E-03     30.4532E-03
            1156            1784     28.9368E-03     30.4532E-03
            1139            1784     28.9368E-03     30.4532E-03
            1157            1784     28.9368E-03     30.4532E-03
            1158            1785     32.2761E-03     33.7601E-03
            1139            1785     32.2761E-03     33.7601E-03
            1140            1785     32.2761E-03     33.7601E-03
            1157            1785     32.2761E-03     33.7601E-03
            1140            1786     36.1603E-03     37.6209E-03
            1159            1786     36.1603E-03     37.6209E-03
            1158            1786     36.1603E-03     37.6209E-03
            1141            1786     36.1603E-03     37.6209E-03
            1141            1787     41.0796E-03     42.3626E-03
            1159            1787     41.0796E-03     42.3626E-03
            1160            1787     41.0796E-03     42.3626E-03
            1142            1787     41.0796E-03     42.3626E-03
            1161            1788     48.0867E-03     48.8259E-03
            1142            1788     48.0867E-03     48.8259E-03
            1160            1788     48.0867E-03     48.8259E-03
            1143            1788     48.0867E-03     48.8259E-03
            1143            1789     55.6715E-03     55.7692E-03
            1161            1789     55.6715E-03     55.7692E-03
            1162            1789     55.6715E-03     55.7692E-03
            1144            1789     55.6715E-03     55.7692E-03
            1164            1790     14.2821E-03     13.1273E-03
            1145            1790     14.2821E-03     13.1273E-03
            1163            1790     14.2821E-03     13.1273E-03
            1146            1790     14.2821E-03     13.1273E-03
            1164            1791     11.4600E-03     10.6660E-03
            1147            1791     11.4600E-03     10.6660E-03
            1146            1791     11.4600E-03     10.6660E-03
            1165            1791     11.4600E-03     10.6660E-03
            1147            1792     9.98898E-03     9.79121E-03
            1148            1792     9.98898E-03     9.79121E-03
            1166            1792     9.98898E-03     9.79121E-03
            1165            1792     9.98898E-03     9.79121E-03
            1167            1793     10.1161E-03     10.5554E-03
            1166            1793     10.1161E-03     10.5554E-03
            1149            1793     10.1161E-03     10.5554E-03
            1148            1793     10.1161E-03     10.5554E-03
            1149            1794     11.1383E-03     12.0879E-03
            1168            1794     11.1383E-03     12.0879E-03
            1167            1794     11.1383E-03     12.0879E-03
            1150            1794     11.1383E-03     12.0879E-03
            1150            1795     12.8091E-03     14.0954E-03
            1168            1795     12.8091E-03     14.0954E-03
            1151            1795     12.8091E-03     14.0954E-03
            1169            1795     12.8091E-03     14.0954E-03
            1151            1796     14.8312E-03     16.3275E-03
            1152            1796     14.8312E-03     16.3275E-03
            1169            1796     14.8312E-03     16.3275E-03
            1170            1796     14.8312E-03     16.3275E-03
            1153            1797     17.0837E-03     18.7075E-03
            1171            1797     17.0837E-03     18.7075E-03
            1170            1797     17.0837E-03     18.7075E-03
            1152            1797     17.0837E-03     18.7075E-03
            1153            1798     19.4966E-03     21.1866E-03
            1171            1798     19.4966E-03     21.1866E-03
            1172            1798     19.4966E-03     21.1866E-03
            1154            1798     19.4966E-03     21.1866E-03
            1173            1799     22.0615E-03     23.7845E-03
            1155            1799     22.0615E-03     23.7845E-03
            1154            1799     22.0615E-03     23.7845E-03
            1172            1799     22.0615E-03     23.7845E-03
            1155            1800     24.7875E-03     26.5092E-03
            1174            1800     24.7875E-03     26.5092E-03
            1156            1800     24.7875E-03     26.5092E-03
            1173            1800     24.7875E-03     26.5092E-03
            1156            1801     27.7670E-03     29.4734E-03
            1157            1801     27.7670E-03     29.4734E-03
            1174            1801     27.7670E-03     29.4734E-03
            1175            1801     27.7670E-03     29.4734E-03
            1176            1802     31.0704E-03     32.7532E-03
            1158            1802     31.0704E-03     32.7532E-03
            1175            1802     31.0704E-03     32.7532E-03
            1157            1802     31.0704E-03     32.7532E-03
            1159            1803     35.0248E-03     36.6867E-03
            1176            1803     35.0248E-03     36.6867E-03
            1177            1803     35.0248E-03     36.6867E-03
            1158            1803     35.0248E-03     36.6867E-03
            1178            1804     39.8022E-03     41.5170E-03
            1177            1804     39.8022E-03     41.5170E-03
            1159            1804     39.8022E-03     41.5170E-03
            1160            1804     39.8022E-03     41.5170E-03
            1160            1805     46.7453E-03     48.5155E-03
            1161            1805     46.7453E-03     48.5155E-03
            1178            1805     46.7453E-03     48.5155E-03
            1179            1805     46.7453E-03     48.5155E-03
            1161            1806     57.4893E-03     58.8770E-03
            1179            1806     57.4893E-03     58.8770E-03
            1162            1806     57.4893E-03     58.8770E-03
            1180            1806     57.4893E-03     58.8770E-03
            1164            1807     16.6864E-03     18.4287E-03
            1163            1807     16.6864E-03     18.4287E-03
            1181            1807     16.6864E-03     18.4287E-03
            1182            1807     16.6864E-03     18.4287E-03
            1165            1808     16.0364E-03     16.2155E-03
            1164            1808     16.0364E-03     16.2155E-03
            1182            1808     16.0364E-03     16.2155E-03
            1183            1808     16.0364E-03     16.2155E-03
            1165            1809     16.2388E-03     16.2475E-03
            1183            1809     16.2388E-03     16.2475E-03
            1166            1809     16.2388E-03     16.2475E-03
            1184            1809     16.2388E-03     16.2475E-03
            1185            1810     17.2769E-03     17.4975E-03
            1166            1810     17.2769E-03     17.4975E-03
            1167            1810     17.2769E-03     17.4975E-03
            1184            1810     17.2769E-03     17.4975E-03
            1186            1811     18.9734E-03     19.3733E-03
            1185            1811     18.9734E-03     19.3733E-03
            1167            1811     18.9734E-03     19.3733E-03
            1168            1811     18.9734E-03     19.3733E-03
            1168            1812     21.1768E-03     21.7129E-03
            1186            1812     21.1768E-03     21.7129E-03
            1169            1812     21.1768E-03     21.7129E-03
            1187            1812     21.1768E-03     21.7129E-03
            1188            1813     23.6789E-03     24.2784E-03
            1170            1813     23.6789E-03     24.2784E-03
            1169            1813     23.6789E-03     24.2784E-03
            1187            1813     23.6789E-03     24.2784E-03
            1171            1814     26.3835E-03     27.0026E-03
            1188            1814     26.3835E-03     27.0026E-03
            1189            1814     26.3835E-03     27.0026E-03
            1170            1814     26.3835E-03     27.0026E-03
            1171            1815     29.2146E-03     29.8064E-03
            1172            1815     29.2146E-03     29.8064E-03
            1189            1815     29.2146E-03     29.8064E-03
            1190            1815     29.2146E-03     29.8064E-03
            1172            1816     32.1193E-03     32.6587E-03
            1173            1816     32.1193E-03     32.6587E-03
            1191            1816     32.1193E-03     32.6587E-03
            1190            1816     32.1193E-03     32.6587E-03
            1173            1817     35.0764E-03     35.5123E-03
            1174            1817     35.0764E-03     35.5123E-03
            1192            1817     35.0764E-03     35.5123E-03
            1191            1817     35.0764E-03     35.5123E-03
            1192            1818     38.0608E-03     38.3828E-03
            1193            1818     38.0608E-03     38.3828E-03
            1175            1818     38.0608E-03     38.3828E-03
            1174            1818     38.0608E-03     38.3828E-03
            1193            1819     41.0990E-03     41.2449E-03
            1175            1819     41.0990E-03     41.2449E-03
            1194            1819     41.0990E-03     41.2449E-03
            1176            1819     41.0990E-03     41.2449E-03
            1176            1820     44.1930E-03     44.1940E-03
            1177            1820     44.1930E-03     44.1940E-03
            1195            1820     44.1930E-03     44.1940E-03
            1194            1820     44.1930E-03     44.1940E-03
            1177            1821     47.5043E-03     47.3410E-03
            1178            1821     47.5043E-03     47.3410E-03
            1195            1821     47.5043E-03     47.3410E-03
            1196            1821     47.5043E-03     47.3410E-03
            1197            1822     51.0410E-03     50.9297E-03
            1178            1822     51.0410E-03     50.9297E-03
            1196            1822     51.0410E-03     50.9297E-03
            1179            1822     51.0410E-03     50.9297E-03
            1197            1823     56.0317E-03     56.9687E-03
            1180            1823     56.0317E-03     56.9687E-03
            1179            1823     56.0317E-03     56.9687E-03
            1198            1823     56.0317E-03     56.9687E-03
            1200            1824     19.4511E-03     22.4063E-03
            1181            1824     19.4511E-03     22.4063E-03
            1182            1824     19.4511E-03     22.4063E-03
            1199            1824     19.4511E-03     22.4063E-03
            1182            1825     20.3687E-03     22.0736E-03
            1183            1825     20.3687E-03     22.0736E-03
            1201            1825     20.3687E-03     22.0736E-03
            1200            1825     20.3687E-03     22.0736E-03
            1183            1826     22.0955E-03     22.6561E-03
            1201            1826     22.0955E-03     22.6561E-03
            1184            1826     22.0955E-03     22.6561E-03
            1202            1826     22.0955E-03     22.6561E-03
            1184            1827     24.1105E-03     24.1995E-03
            1202            1827     24.1105E-03     24.1995E-03
            1203            1827     24.1105E-03     24.1995E-03
            1185            1827     24.1105E-03     24.1995E-03
            1204            1828     26.5496E-03     26.4071E-03
            1185            1828     26.5496E-03     26.4071E-03
            1203            1828     26.5496E-03     26.4071E-03
            1186            1828     26.5496E-03     26.4071E-03
            1187            1829     29.3937E-03     29.1141E-03
            1204            1829     29.3937E-03     29.1141E-03
            1186            1829     29.3937E-03     29.1141E-03
            1205            1829     29.3937E-03     29.1141E-03
            1187            1830     32.5370E-03     32.1804E-03
            1188            1830     32.5370E-03     32.1804E-03
            1206            1830     32.5370E-03     32.1804E-03
            1205            1830     32.5370E-03     32.1804E-03
            1207            1831     35.9131E-03     35.4732E-03
            1188            1831     35.9131E-03     35.4732E-03
            1189            1831     35.9131E-03     35.4732E-03
            1206            1831     35.9131E-03     35.4732E-03
            1189            1832     39.4117E-03     38.8960E-03
            1190            1832     39.4117E-03     38.8960E-03
            1208            1832     39.4117E-03     38.8960E-03
            1207            1832     39.4117E-03     38.8960E-03
            1209            1833     42.9625E-03     42.3400E-03
            1190            1833     42.9625E-03     42.3400E-03
            1208            1833     42.9625E-03     42.3400E-03
            1191            1833     42.9625E-03     42.3400E-03
            1192            1834     46.4641E-03     45.7262E-03
            1191            1834     46.4641E-03     45.7262E-03
            1209            1834     46.4641E-03     45.7262E-03
            1210            1834     46.4641E-03     45.7262E-03
            1210            1835     49.8285E-03     48.9395E-03
            1193            1835     49.8285E-03     48.9395E-03
            1192            1835     49.8285E-03     48.9395E-03
            1211            1835     49.8285E-03     48.9395E-03
            1193            1836     52.9374E-03     51.8814E-03
            1211            1836     52.9374E-03     51.8814E-03
            1212            1836     52.9374E-03     51.8814E-03
            1194            1836     52.9374E-03     51.8814E-03
            1213            1837     55.6379E-03     54.4118E-03
            1195            1837     55.6379E-03     54.4118E-03
            1194            1837     55.6379E-03     54.4118E-03
            1212            1837     55.6379E-03     54.4118E-03
            1196            1838     57.7172E-03     56.3404E-03
            1213            1838     57.7172E-03     56.3404E-03
            1214            1838     57.7172E-03     56.3404E-03
            1195            1838     57.7172E-03     56.3404E-03
            1197            1839     58.7535E-03     57.4082E-03
            1196            1839     58.7535E-03     57.4082E-03
            1215            1839     58.7535E-03     57.4082E-03
            1214            1839     58.7535E-03     57.4082E-03
            1198            1840     58.1382E-03     56.7392E-03
            1216            1840     58.1382E-03     56.7392E-03
            1197            1840     58.1382E-03     56.7392E-03
            1215            1840     58.1382E-03     56.7392E-03
            1218            1841     19.7990E-03     19.9279E-03
            1199            1841     19.7990E-03     19.9279E-03
            1217            1841     19.7990E-03     19.9279E-03
            1200            1841     19.7990E-03     19.9279E-03
            1200            1842     19.2070E-03     20.4768E-03
            1201            1842     19.2070E-03     20.4768E-03
            1218            1842     19.2070E-03     20.4768E-03
            1219            1842     19.2070E-03     20.4768E-03
            1219            1843     20.0512E-03     21.0012E-03
            1202            1843     20.0512E-03     21.0012E-03
            1220            1843     20.0512E-03     21.0012E-03
            1201            1843     20.0512E-03     21.0012E-03
            1221            1844     21.9984E-03     22.4220E-03
            1202            1844     21.9984E-03     22.4220E-03
            1203            1844     21.9984E-03     22.4220E-03
            1220            1844     21.9984E-03     22.4220E-03
            1204            1845     24.5965E-03     24.7494E-03
            1221            1845     24.5965E-03     24.7494E-03
            1203            1845     24.5965E-03     24.7494E-03
            1222            1845     24.5965E-03     24.7494E-03
            1205            1846     27.7593E-03     27.7441E-03
            1223            1846     27.7593E-03     27.7441E-03
            1204            1846     27.7593E-03     27.7441E-03
            1222            1846     27.7593E-03     27.7441E-03
            1224            1847     31.3319E-03     31.2256E-03
            1205            1847     31.3319E-03     31.2256E-03
            1206            1847     31.3319E-03     31.2256E-03
            1223            1847     31.3319E-03     31.2256E-03
            1206            1848     35.1888E-03     35.0275E-03
            1224            1848     35.1888E-03     35.0275E-03
            1207            1848     35.1888E-03     35.0275E-03
            1225            1848     35.1888E-03     35.0275E-03
            1207            1849     39.2347E-03     39.0259E-03
            1208            1849     39.2347E-03     39.0259E-03
            1226            1849     39.2347E-03     39.0259E-03
            1225            1849     39.2347E-03     39.0259E-03
            1208            1850     43.3636E-03     43.1232E-03
            1209            1850     43.3636E-03     43.1232E-03
            1226            1850     43.3636E-03     43.1232E-03
            1227            1850     43.3636E-03     43.1232E-03
            1210            1851     47.4926E-03     47.2155E-03
            1228            1851     47.4926E-03     47.2155E-03
            1209            1851     47.4926E-03     47.2155E-03
            1227            1851     47.4926E-03     47.2155E-03
            1229            1852     51.5012E-03     51.2153E-03
            1228            1852     51.5012E-03     51.2153E-03
            1211            1852     51.5012E-03     51.2153E-03
            1210            1852     51.5012E-03     51.2153E-03
            1229            1853     55.2569E-03     54.9902E-03
            1211            1853     55.2569E-03     54.9902E-03
            1230            1853     55.2569E-03     54.9902E-03
            1212            1853     55.2569E-03     54.9902E-03
            1212            1854     58.5766E-03     58.3957E-03
            1230            1854     58.5766E-03     58.3957E-03
            1231            1854     58.5766E-03     58.3957E-03
            1213            1854     58.5766E-03     58.3957E-03
            1232            1855     61.1773E-03     61.2267E-03
            1213            1855     61.1773E-03     61.2267E-03
            1231            1855     61.1773E-03     61.2267E-03
            1214            1855     61.1773E-03     61.2267E-03
            1215            1856     62.7410E-03     63.0584E-03
            1232            1856     62.7410E-03     63.0584E-03
            1233            1856     62.7410E-03     63.0584E-03
            1214            1856     62.7410E-03     63.0584E-03
            1234            1857     63.5622E-03     63.8482E-03
            1216            1857     63.5622E-03     63.8482E-03
            1233            1857     63.5622E-03     63.8482E-03
            1215            1857     63.5622E-03     63.8482E-03
            1235            1858     18.4860E-03     17.6602E-03
            1217            1858     18.4860E-03     17.6602E-03
            1236            1858     18.4860E-03     17.6602E-03
            1218            1858     18.4860E-03     17.6602E-03
            1236            1859     18.2434E-03     18.2386E-03
            1219            1859     18.2434E-03     18.2386E-03
            1218            1859     18.2434E-03     18.2386E-03
            1237            1859     18.2434E-03     18.2386E-03
            1238            1860     18.6188E-03     19.2424E-03
            1219            1860     18.6188E-03     19.2424E-03
            1237            1860     18.6188E-03     19.2424E-03
            1220            1860     18.6188E-03     19.2424E-03
            1238            1861     20.3193E-03     20.8861E-03
            1239            1861     20.3193E-03     20.8861E-03
            1221            1861     20.3193E-03     20.8861E-03
            1220            1861     20.3193E-03     20.8861E-03
            1221            1862     23.0537E-03     23.4433E-03
            1240            1862     23.0537E-03     23.4433E-03
            1222            1862     23.0537E-03     23.4433E-03
            1239            1862     23.0537E-03     23.4433E-03
            1222            1863     26.4904E-03     26.7662E-03
            1240            1863     26.4904E-03     26.7662E-03
            1223            1863     26.4904E-03     26.7662E-03
            1241            1863     26.4904E-03     26.7662E-03
            1223            1864     30.4277E-03     30.6331E-03
            1224            1864     30.4277E-03     30.6331E-03
            1242            1864     30.4277E-03     30.6331E-03
            1241            1864     30.4277E-03     30.6331E-03
            1224            1865     34.7016E-03     34.8780E-03
            1242            1865     34.7016E-03     34.8780E-03
            1225            1865     34.7016E-03     34.8780E-03
            1243            1865     34.7016E-03     34.8780E-03
            1244            1866     39.1891E-03     39.3646E-03
            1225            1866     39.1891E-03     39.3646E-03
            1226            1866     39.1891E-03     39.3646E-03
            1243            1866     39.1891E-03     39.3646E-03
            1226            1867     43.7993E-03     43.9891E-03
            1244            1867     43.7993E-03     43.9891E-03
            1227            1867     43.7993E-03     43.9891E-03
            1245            1867     43.7993E-03     43.9891E-03
            1228            1868     48.4214E-03     48.6623E-03
            1227            1868     48.4214E-03     48.6623E-03
            1245            1868     48.4214E-03     48.6623E-03
            1246            1868     48.4214E-03     48.6623E-03
            1246            1869     52.9546E-03     53.2711E-03
            1247            1869     52.9546E-03     53.2711E-03
            1229            1869     52.9546E-03     53.2711E-03
            1228            1869     52.9546E-03     53.2711E-03
            1248            1870     57.2416E-03     57.6932E-03
            1247            1870     57.2416E-03     57.6932E-03
            1229            1870     57.2416E-03     57.6932E-03
            1230            1870     57.2416E-03     57.6932E-03
            1231            1871     61.0738E-03     61.7428E-03
            1230            1871     61.0738E-03     61.7428E-03
            1249            1871     61.0738E-03     61.7428E-03
            1248            1871     61.0738E-03     61.7428E-03
            1249            1872     64.2622E-03     65.1490E-03
            1231            1872     64.2622E-03     65.1490E-03
            1250            1872     64.2622E-03     65.1490E-03
            1232            1872     64.2622E-03     65.1490E-03
            1251            1873     66.6313E-03     67.6855E-03
            1232            1873     66.6313E-03     67.6855E-03
            1233            1873     66.6313E-03     67.6855E-03
            1250            1873     66.6313E-03     67.6855E-03
            1233            1874     68.8491E-03     69.6394E-03
            1252            1874     68.8491E-03     69.6394E-03
            1234            1874     68.8491E-03     69.6394E-03
            1251            1874     68.8491E-03     69.6394E-03
            1236            1875     17.2553E-03     16.0752E-03
            1254            1875     17.2553E-03     16.0752E-03
            1235            1875     17.2553E-03     16.0752E-03
            1253            1875     17.2553E-03     16.0752E-03
            1237            1876     16.7391E-03     16.2133E-03
            1254            1876     16.7391E-03     16.2133E-03
            1255            1876     16.7391E-03     16.2133E-03
            1236            1876     16.7391E-03     16.2133E-03
            1237            1877     17.2422E-03     17.3515E-03
            1255            1877     17.2422E-03     17.3515E-03
            1238            1877     17.2422E-03     17.3515E-03
            1256            1877     17.2422E-03     17.3515E-03
            1238            1878     18.8918E-03     19.3942E-03
            1239            1878     18.8918E-03     19.3942E-03
            1257            1878     18.8918E-03     19.3942E-03
            1256            1878     18.8918E-03     19.3942E-03
            1239            1879     21.7406E-03     22.3008E-03
            1258            1879     21.7406E-03     22.3008E-03
            1257            1879     21.7406E-03     22.3008E-03
            1240            1879     21.7406E-03     22.3008E-03
            1258            1880     25.4174E-03     25.9625E-03
            1241            1880     25.4174E-03     25.9625E-03
            1259            1880     25.4174E-03     25.9625E-03
            1240            1880     25.4174E-03     25.9625E-03
            1242            1881     29.6499E-03     30.1820E-03
            1259            1881     29.6499E-03     30.1820E-03
            1241            1881     29.6499E-03     30.1820E-03
            1260            1881     29.6499E-03     30.1820E-03
            1261            1882     34.2444E-03     34.7828E-03
            1260            1882     34.2444E-03     34.7828E-03
            1243            1882     34.2444E-03     34.7828E-03
            1242            1882     34.2444E-03     34.7828E-03
            1262            1883     39.0726E-03     39.6433E-03
            1261            1883     39.0726E-03     39.6433E-03
            1244            1883     39.0726E-03     39.6433E-03
            1243            1883     39.0726E-03     39.6433E-03
            1263            1884     44.0337E-03     44.6664E-03
            1244            1884     44.0337E-03     44.6664E-03
            1245            1884     44.0337E-03     44.6664E-03
            1262            1884     44.0337E-03     44.6664E-03
            1264            1885     49.0514E-03     49.7677E-03
            1245            1885     49.0514E-03     49.7677E-03
            1263            1885     49.0514E-03     49.7677E-03
            1246            1885     49.0514E-03     49.7677E-03
            1265            1886     54.0010E-03     54.8499E-03
            1246            1886     54.0010E-03     54.8499E-03
            1264            1886     54.0010E-03     54.8499E-03
            1247            1886     54.0010E-03     54.8499E-03
            1266            1887     58.7589E-03     59.7698E-03
            1265            1887     58.7589E-03     59.7698E-03
            1247            1887     58.7589E-03     59.7698E-03
            1248            1887     58.7589E-03     59.7698E-03
            1248            1888     63.1551E-03     64.3375E-03
            1266            1888     63.1551E-03     64.3375E-03
            1249            1888     63.1551E-03     64.3375E-03
            1267            1888     63.1551E-03     64.3375E-03
            1250            1889     66.9826E-03     68.3222E-03
            1249            1889     66.9826E-03     68.3222E-03
            1267            1889     66.9826E-03     68.3222E-03
            1268            1889     66.9826E-03     68.3222E-03
            1250            1890     70.3866E-03     71.6078E-03
            1268            1890     70.3866E-03     71.6078E-03
            1251            1890     70.3866E-03     71.6078E-03
            1269            1890     70.3866E-03     71.6078E-03
            1270            1891     73.6203E-03     74.4188E-03
            1251            1891     73.6203E-03     74.4188E-03
            1252            1891     73.6203E-03     74.4188E-03
            1269            1891     73.6203E-03     74.4188E-03
            1271            1892     16.2370E-03     14.6816E-03
            1272            1892     16.2370E-03     14.6816E-03
            1254            1892     16.2370E-03     14.6816E-03
            1253            1892     16.2370E-03     14.6816E-03
            1273            1893     15.3313E-03     14.4593E-03
            1254            1893     15.3313E-03     14.4593E-03
            1272            1893     15.3313E-03     14.4593E-03
            1255            1893     15.3313E-03     14.4593E-03
            1274            1894     15.7211E-03     15.5635E-03
            1255            1894     15.7211E-03     15.5635E-03
            1273            1894     15.7211E-03     15.5635E-03
            1256            1894     15.7211E-03     15.5635E-03
            1274            1895     17.5213E-03     17.9014E-03
            1257            1895     17.5213E-03     17.9014E-03
            1256            1895     17.5213E-03     17.9014E-03
            1275            1895     17.5213E-03     17.9014E-03
            1275            1896     20.5009E-03     21.1820E-03
            1276            1896     20.5009E-03     21.1820E-03
            1258            1896     20.5009E-03     21.1820E-03
            1257            1896     20.5009E-03     21.1820E-03
            1258            1897     24.3966E-03     25.1843E-03
            1276            1897     24.3966E-03     25.1843E-03
            1277            1897     24.3966E-03     25.1843E-03
            1259            1897     24.3966E-03     25.1843E-03
            1259            1898     28.8556E-03     29.6974E-03
            1260            1898     28.8556E-03     29.6974E-03
            1277            1898     28.8556E-03     29.6974E-03
            1278            1898     28.8556E-03     29.6974E-03
            1278            1899     33.6767E-03     34.5681E-03
            1279            1899     33.6767E-03     34.5681E-03
            1260            1899     33.6767E-03     34.5681E-03
            1261            1899     33.6767E-03     34.5681E-03
            1280            1900     38.7375E-03     39.6887E-03
            1279            1900     38.7375E-03     39.6887E-03
            1261            1900     38.7375E-03     39.6887E-03
            1262            1900     38.7375E-03     39.6887E-03
            1262            1901     43.9536E-03     44.9859E-03
            1280            1901     43.9536E-03     44.9859E-03
            1281            1901     43.9536E-03     44.9859E-03
            1263            1901     43.9536E-03     44.9859E-03
            1282            1902     49.2461E-03     50.3868E-03
            1281            1902     49.2461E-03     50.3868E-03
            1264            1902     49.2461E-03     50.3868E-03
            1263            1902     49.2461E-03     50.3868E-03
            1283            1903     54.5701E-03     55.8257E-03
            1264            1903     54.5701E-03     55.8257E-03
            1282            1903     54.5701E-03     55.8257E-03
            1265            1903     54.5701E-03     55.8257E-03
            1283            1904     59.7854E-03     61.1873E-03
            1284            1904     59.7854E-03     61.1873E-03
            1266            1904     59.7854E-03     61.1873E-03
            1265            1904     59.7854E-03     61.1873E-03
            1285            1905     64.7835E-03     66.2858E-03
            1284            1905     64.7835E-03     66.2858E-03
            1267            1905     64.7835E-03     66.2858E-03
            1266            1905     64.7835E-03     66.2858E-03
            1268            1906     69.4693E-03     70.9459E-03
            1285            1906     69.4693E-03     70.9459E-03
            1286            1906     69.4693E-03     70.9459E-03
            1267            1906     69.4693E-03     70.9459E-03
            1269            1907     73.7647E-03     75.0822E-03
            1287            1907     73.7647E-03     75.0822E-03
            1268            1907     73.7647E-03     75.0822E-03
            1286            1907     73.7647E-03     75.0822E-03
            1287            1908     77.9993E-03     78.8739E-03
            1269            1908     77.9993E-03     78.8739E-03
            1288            1908     77.9993E-03     78.8739E-03
            1270            1908     77.9993E-03     78.8739E-03
            1272            1909     15.4496E-03     13.7107E-03
            1271            1909     15.4496E-03     13.7107E-03
            1289            1909     15.4496E-03     13.7107E-03
            1290            1909     15.4496E-03     13.7107E-03
            1272            1910     14.0939E-03     12.9228E-03
            1273            1910     14.0939E-03     12.9228E-03
            1290            1910     14.0939E-03     12.9228E-03
            1291            1910     14.0939E-03     12.9228E-03
            1274            1911     14.2643E-03     13.9151E-03
            1292            1911     14.2643E-03     13.9151E-03
            1291            1911     14.2643E-03     13.9151E-03
            1273            1911     14.2643E-03     13.9151E-03
            1274            1912     16.0643E-03     16.4207E-03
            1292            1912     16.0643E-03     16.4207E-03
            1275            1912     16.0643E-03     16.4207E-03
            1293            1912     16.0643E-03     16.4207E-03
            1294            1913     19.2544E-03     20.0400E-03
            1275            1913     19.2544E-03     20.0400E-03
            1293            1913     19.2544E-03     20.0400E-03
            1276            1913     19.2544E-03     20.0400E-03
            1277            1914     23.3168E-03     24.3314E-03
            1295            1914     23.3168E-03     24.3314E-03
            1276            1914     23.3168E-03     24.3314E-03
            1294            1914     23.3168E-03     24.3314E-03
            1295            1915     27.9371E-03     29.0731E-03
            1277            1915     27.9371E-03     29.0731E-03
            1296            1915     27.9371E-03     29.0731E-03
            1278            1915     27.9371E-03     29.0731E-03
            1296            1916     32.9125E-03     34.1288E-03
            1278            1916     32.9125E-03     34.1288E-03
            1297            1916     32.9125E-03     34.1288E-03
            1279            1916     32.9125E-03     34.1288E-03
            1279            1917     38.1105E-03     39.4097E-03
            1280            1917     38.1105E-03     39.4097E-03
            1297            1917     38.1105E-03     39.4097E-03
            1298            1917     38.1105E-03     39.4097E-03
            1298            1918     43.4766E-03     44.8605E-03
            1280            1918     43.4766E-03     44.8605E-03
            1281            1918     43.4766E-03     44.8605E-03
            1299            1918     43.4766E-03     44.8605E-03
            1282            1919     48.9762E-03     50.4586E-03
            1299            1919     48.9762E-03     50.4586E-03
            1300            1919     48.9762E-03     50.4586E-03
            1281            1919     48.9762E-03     50.4586E-03
            1300            1920     54.5619E-03     56.1491E-03
            1282            1920     54.5619E-03     56.1491E-03
            1283            1920     54.5619E-03     56.1491E-03
            1301            1920     54.5619E-03     56.1491E-03
            1284            1921     60.2708E-03     61.9096E-03
            1283            1921     60.2708E-03     61.9096E-03
            1302            1921     60.2708E-03     61.9096E-03
            1301            1921     60.2708E-03     61.9096E-03
            1284            1922     65.9495E-03     67.6370E-03
            1303            1922     65.9495E-03     67.6370E-03
            1285            1922     65.9495E-03     67.6370E-03
            1302            1922     65.9495E-03     67.6370E-03
            1304            1923     71.5249E-03     73.1251E-03
            1285            1923     71.5249E-03     73.1251E-03
            1303            1923     71.5249E-03     73.1251E-03
            1286            1923     71.5249E-03     73.1251E-03
            1286            1924     76.9437E-03     78.2334E-03
            1304            1924     76.9437E-03     78.2334E-03
            1287            1924     76.9437E-03     78.2334E-03
            1305            1924     76.9437E-03     78.2334E-03
            1288            1925     82.0585E-03     83.1157E-03
            1287            1925     82.0585E-03     83.1157E-03
            1305            1925     82.0585E-03     83.1157E-03
            1306            1925     82.0585E-03     83.1157E-03
            1307            1926     15.1153E-03     13.1660E-03
            1308            1926     15.1153E-03     13.1660E-03
            1290            1926     15.1153E-03     13.1660E-03
            1289            1926     15.1153E-03     13.1660E-03
            1308            1927     13.0814E-03     11.7200E-03
            1309            1927     13.0814E-03     11.7200E-03
            1290            1927     13.0814E-03     11.7200E-03
            1291            1927     13.0814E-03     11.7200E-03
            1309            1928     12.8446E-03     12.3633E-03
            1291            1928     12.8446E-03     12.3633E-03
            1292            1928     12.8446E-03     12.3633E-03
            1310            1928     12.8446E-03     12.3633E-03
            1292            1929     14.6305E-03     15.0045E-03
            1310            1929     14.6305E-03     15.0045E-03
            1311            1929     14.6305E-03     15.0045E-03
            1293            1929     14.6305E-03     15.0045E-03
            1312            1930     17.8920E-03     18.8369E-03
            1294            1930     17.8920E-03     18.8369E-03
            1293            1930     17.8920E-03     18.8369E-03
            1311            1930     17.8920E-03     18.8369E-03
            1295            1931     22.0971E-03     23.3532E-03
            1313            1931     22.0971E-03     23.3532E-03
            1312            1931     22.0971E-03     23.3532E-03
            1294            1931     22.0971E-03     23.3532E-03
            1296            1932     26.8490E-03     28.2668E-03
            1314            1932     26.8490E-03     28.2668E-03
            1295            1932     26.8490E-03     28.2668E-03
            1313            1932     26.8490E-03     28.2668E-03
            1297            1933     31.8984E-03     33.4253E-03
            1314            1933     31.8984E-03     33.4253E-03
            1315            1933     31.8984E-03     33.4253E-03
            1296            1933     31.8984E-03     33.4253E-03
            1316            1934     37.1689E-03     38.7743E-03
            1315            1934     37.1689E-03     38.7743E-03
            1297            1934     37.1689E-03     38.7743E-03
            1298            1934     37.1689E-03     38.7743E-03
            1317            1935     42.5987E-03     44.2896E-03
            1316            1935     42.5987E-03     44.2896E-03
            1299            1935     42.5987E-03     44.2896E-03
            1298            1935     42.5987E-03     44.2896E-03
            1318            1936     48.1962E-03     49.9575E-03
            1317            1936     48.1962E-03     49.9575E-03
            1300            1936     48.1962E-03     49.9575E-03
            1299            1936     48.1962E-03     49.9575E-03
            1319            1937     53.9943E-03     55.8224E-03
            1300            1937     53.9943E-03     55.8224E-03
            1318            1937     53.9943E-03     55.8224E-03
            1301            1937     53.9943E-03     55.8224E-03
            1302            1938     60.0107E-03     61.8738E-03
            1301            1938     60.0107E-03     61.8738E-03
            1319            1938     60.0107E-03     61.8738E-03
            1320            1938     60.0107E-03     61.8738E-03
            1321            1939     66.4741E-03     68.2154E-03
            1320            1939     66.4741E-03     68.2154E-03
            1302            1939     66.4741E-03     68.2154E-03
            1303            1939     66.4741E-03     68.2154E-03
            1321            1940     73.1213E-03     74.7661E-03
            1303            1940     73.1213E-03     74.7661E-03
            1322            1940     73.1213E-03     74.7661E-03
            1304            1940     73.1213E-03     74.7661E-03
            1304            1941     79.6925E-03     81.1874E-03
            1323            1941     79.6925E-03     81.1874E-03
            1305            1941     79.6925E-03     81.1874E-03
            1322            1941     79.6925E-03     81.1874E-03
            1305            1942     86.1622E-03     87.0720E-03
            1324            1942     86.1622E-03     87.0720E-03
            1323            1942     86.1622E-03     87.0720E-03
            1306            1942     86.1622E-03     87.0720E-03
            1325            1943     15.1481E-03     13.1501E-03
            1308            1943     15.1481E-03     13.1501E-03
            1326            1943     15.1481E-03     13.1501E-03
            1307            1943     15.1481E-03     13.1501E-03
            1309            1944     12.5160E-03     10.9297E-03
            1308            1944     12.5160E-03     10.9297E-03
            1327            1944     12.5160E-03     10.9297E-03
            1326            1944     12.5160E-03     10.9297E-03
            1328            1945     11.6424E-03     11.0623E-03
            1309            1945     11.6424E-03     11.0623E-03
            1310            1945     11.6424E-03     11.0623E-03
            1327            1945     11.6424E-03     11.0623E-03
            1329            1946     13.0241E-03     13.5303E-03
            1311            1946     13.0241E-03     13.5303E-03
            1310            1946     13.0241E-03     13.5303E-03
            1328            1946     13.0241E-03     13.5303E-03
            1330            1947     16.3483E-03     17.5459E-03
            1311            1947     16.3483E-03     17.5459E-03
            1312            1947     16.3483E-03     17.5459E-03
            1329            1947     16.3483E-03     17.5459E-03
            1330            1948     20.7255E-03     22.2619E-03
            1313            1948     20.7255E-03     22.2619E-03
            1331            1948     20.7255E-03     22.2619E-03
            1312            1948     20.7255E-03     22.2619E-03
            1331            1949     25.5526E-03     27.2757E-03
            1332            1949     25.5526E-03     27.2757E-03
            1313            1949     25.5526E-03     27.2757E-03
            1314            1949     25.5526E-03     27.2757E-03
            1332            1950     30.6586E-03     32.4820E-03
            1314            1950     30.6586E-03     32.4820E-03
            1333            1950     30.6586E-03     32.4820E-03
            1315            1950     30.6586E-03     32.4820E-03
            1316            1951     35.9279E-03     37.8262E-03
            1333            1951     35.9279E-03     37.8262E-03
            1315            1951     35.9279E-03     37.8262E-03
            1334            1951     35.9279E-03     37.8262E-03
            1317            1952     41.3645E-03     43.3092E-03
            1335            1952     41.3645E-03     43.3092E-03
            1316            1952     41.3645E-03     43.3092E-03
            1334            1952     41.3645E-03     43.3092E-03
            1317            1953     46.9658E-03     48.9658E-03
            1318            1953     46.9658E-03     48.9658E-03
            1335            1953     46.9658E-03     48.9658E-03
            1336            1953     46.9658E-03     48.9658E-03
            1337            1954     52.8276E-03     54.8415E-03
            1318            1954     52.8276E-03     54.8415E-03
            1319            1954     52.8276E-03     54.8415E-03
            1336            1954     52.8276E-03     54.8415E-03
            1319            1955     59.0675E-03     61.0849E-03
            1338            1955     59.0675E-03     61.0849E-03
            1337            1955     59.0675E-03     61.0849E-03
            1320            1955     59.0675E-03     61.0849E-03
            1338            1956     65.8530E-03     67.7880E-03
            1339            1956     65.8530E-03     67.7880E-03
            1321            1956     65.8530E-03     67.7880E-03
            1320            1956     65.8530E-03     67.7880E-03
            1339            1957     73.7958E-03     75.3568E-03
            1321            1957     73.7958E-03     75.3568E-03
            1340            1957     73.7958E-03     75.3568E-03
            1322            1957     73.7958E-03     75.3568E-03
            1323            1958     82.2009E-03     83.4903E-03
            1322            1958     82.2009E-03     83.4903E-03
            1340            1958     82.2009E-03     83.4903E-03
            1341            1958     82.2009E-03     83.4903E-03
            1323            1959     89.8770E-03     91.3627E-03
            1324            1959     89.8770E-03     91.3627E-03
            1341            1959     89.8770E-03     91.3627E-03
            1342            1959     89.8770E-03     91.3627E-03
            1326            1960     16.2258E-03     13.9958E-03
            1343            1960     16.2258E-03     13.9958E-03
            1344            1960     16.2258E-03     13.9958E-03
            1325            1960     16.2258E-03     13.9958E-03
            1344            1961     12.2846E-03     10.5788E-03
            1326            1961     12.2846E-03     10.5788E-03
            1327            1961     12.2846E-03     10.5788E-03
            1345            1961     12.2846E-03     10.5788E-03
            1345            1962     9.96987E-03     9.49453E-03
            1346            1962     9.96987E-03     9.49453E-03
            1328            1962     9.96987E-03     9.49453E-03
            1327            1962     9.96987E-03     9.49453E-03
            1328            1963     11.0664E-03     11.8999E-03
            1347            1963     11.0664E-03     11.8999E-03
            1346            1963     11.0664E-03     11.8999E-03
            1329            1963     11.0664E-03     11.8999E-03
            1329            1964     14.6500E-03     16.2103E-03
            1330            1964     14.6500E-03     16.2103E-03
            1347            1964     14.6500E-03     16.2103E-03
            1348            1964     14.6500E-03     16.2103E-03
            1349            1965     19.1737E-03     21.0802E-03
            1331            1965     19.1737E-03     21.0802E-03
            1330            1965     19.1737E-03     21.0802E-03
            1348            1965     19.1737E-03     21.0802E-03
            1331            1966     24.1136E-03     26.1777E-03
            1350            1966     24.1136E-03     26.1777E-03
            1349            1966     24.1136E-03     26.1777E-03
            1332            1966     24.1136E-03     26.1777E-03
            1351            1967     29.2326E-03     31.3761E-03
            1333            1967     29.2326E-03     31.3761E-03
            1332            1967     29.2326E-03     31.3761E-03
            1350            1967     29.2326E-03     31.3761E-03
            1352            1968     34.4880E-03     36.6641E-03
            1333            1968     34.4880E-03     36.6641E-03
            1334            1968     34.4880E-03     36.6641E-03
            1351            1968     34.4880E-03     36.6641E-03
            1353            1969     39.8601E-03     42.0507E-03
            1352            1969     39.8601E-03     42.0507E-03
            1334            1969     39.8601E-03     42.0507E-03
            1335            1969     39.8601E-03     42.0507E-03
            1335            1970     45.4172E-03     47.5928E-03
            1353            1970     45.4172E-03     47.5928E-03
            1336            1970     45.4172E-03     47.5928E-03
            1354            1970     45.4172E-03     47.5928E-03
            1355            1971     51.2025E-03     53.3729E-03
            1354            1971     51.2025E-03     53.3729E-03
            1336            1971     51.2025E-03     53.3729E-03
            1337            1971     51.2025E-03     53.3729E-03
            1355            1972     57.4442E-03     59.5544E-03
            1338            1972     57.4442E-03     59.5544E-03
            1356            1972     57.4442E-03     59.5544E-03
            1337            1972     57.4442E-03     59.5544E-03
            1338            1973     64.3312E-03     66.4074E-03
            1339            1973     64.3312E-03     66.4074E-03
            1356            1973     64.3312E-03     66.4074E-03
            1357            1973     64.3312E-03     66.4074E-03
            1357            1974     72.4199E-03     74.3070E-03
            1339            1974     72.4199E-03     74.3070E-03
            1358            1974     72.4199E-03     74.3070E-03
            1340            1974     72.4199E-03     74.3070E-03
            1359            1975     83.0932E-03     84.2569E-03
            1358            1975     83.0932E-03     84.2569E-03
            1340            1975     83.0932E-03     84.2569E-03
            1341            1975     83.0932E-03     84.2569E-03
            1359            1976     94.0903E-03     94.3201E-03
            1341            1976     94.0903E-03     94.3201E-03
            1342            1976     94.0903E-03     94.3201E-03
            1360            1976     94.0903E-03     94.3201E-03
            1362            1977     17.2323E-03     15.3785E-03
            1361            1977     17.2323E-03     15.3785E-03
            1344            1977     17.2323E-03     15.3785E-03
            1343            1977     17.2323E-03     15.3785E-03
            1362            1978     10.6370E-03     9.12039E-03
            1363            1978     10.6370E-03     9.12039E-03
            1344            1978     10.6370E-03     9.12039E-03
            1345            1978     10.6370E-03     9.12039E-03
            1364            1979     7.45945E-03     7.31922E-03
            1345            1979     7.45945E-03     7.31922E-03
            1346            1979     7.45945E-03     7.31922E-03
            1363            1979     7.45945E-03     7.31922E-03
            1364            1980     8.82633E-03     10.2233E-03
            1346            1980     8.82633E-03     10.2233E-03
            1347            1980     8.82633E-03     10.2233E-03
            1365            1980     8.82633E-03     10.2233E-03
            1366            1981     12.7744E-03     14.8858E-03
            1365            1981     12.7744E-03     14.8858E-03
            1348            1981     12.7744E-03     14.8858E-03
            1347            1981     12.7744E-03     14.8858E-03
            1348            1982     17.5780E-03     19.9472E-03
            1367            1982     17.5780E-03     19.9472E-03
            1349            1982     17.5780E-03     19.9472E-03
            1366            1982     17.5780E-03     19.9472E-03
            1368            1983     22.6166E-03     25.0883E-03
            1349            1983     22.6166E-03     25.0883E-03
            1367            1983     22.6166E-03     25.0883E-03
            1350            1983     22.6166E-03     25.0883E-03
            1368            1984     27.7502E-03     30.2522E-03
            1350            1984     27.7502E-03     30.2522E-03
            1369            1984     27.7502E-03     30.2522E-03
            1351            1984     27.7502E-03     30.2522E-03
            1352            1985     32.9606E-03     35.4413E-03
            1369            1985     32.9606E-03     35.4413E-03
            1370            1985     32.9606E-03     35.4413E-03
            1351            1985     32.9606E-03     35.4413E-03
            1371            1986     38.2687E-03     40.6971E-03
            1352            1986     38.2687E-03     40.6971E-03
            1370            1986     38.2687E-03     40.6971E-03
            1353            1986     38.2687E-03     40.6971E-03
            1353            1987     43.7073E-03     46.0527E-03
            1371            1987     43.7073E-03     46.0527E-03
            1354            1987     43.7073E-03     46.0527E-03
            1372            1987     43.7073E-03     46.0527E-03
            1354            1988     49.4017E-03     51.6469E-03
            1372            1988     49.4017E-03     51.6469E-03
            1373            1988     49.4017E-03     51.6469E-03
            1355            1988     49.4017E-03     51.6469E-03
            1355            1989     55.4308E-03     57.5750E-03
            1356            1989     55.4308E-03     57.5750E-03
            1373            1989     55.4308E-03     57.5750E-03
            1374            1989     55.4308E-03     57.5750E-03
            1375            1990     62.1961E-03     64.2496E-03
            1356            1990     62.1961E-03     64.2496E-03
            1374            1990     62.1961E-03     64.2496E-03
            1357            1990     62.1961E-03     64.2496E-03
            1376            1991     69.8760E-03     71.9481E-03
            1358            1991     69.8760E-03     71.9481E-03
            1357            1991     69.8760E-03     71.9481E-03
            1375            1991     69.8760E-03     71.9481E-03
            1358            1992     80.1241E-03     82.2713E-03
            1377            1992     80.1241E-03     82.2713E-03
            1376            1992     80.1241E-03     82.2713E-03
            1359            1992     80.1241E-03     82.2713E-03
            1359            1993     94.9301E-03     96.4653E-03
            1360            1993     94.9301E-03     96.4653E-03
            1377            1993     94.9301E-03     96.4653E-03
            1378            1993     94.9301E-03     96.4653E-03
            1380            1994     20.0612E-03     23.0680E-03
            1362            1994     20.0612E-03     23.0680E-03
            1361            1994     20.0612E-03     23.0680E-03
            1379            1994     20.0612E-03     23.0680E-03
            1363            1995     17.5730E-03     17.7744E-03
            1362            1995     17.5730E-03     17.7744E-03
            1380            1995     17.5730E-03     17.7744E-03
            1381            1995     17.5730E-03     17.7744E-03
            1364            1996     17.4052E-03     17.6042E-03
            1381            1996     17.4052E-03     17.6042E-03
            1363            1996     17.4052E-03     17.6042E-03
            1382            1996     17.4052E-03     17.6042E-03
            1365            1997     19.7004E-03     20.5923E-03
            1383            1997     19.7004E-03     20.5923E-03
            1364            1997     19.7004E-03     20.5923E-03
            1382            1997     19.7004E-03     20.5923E-03
            1366            1998     23.7657E-03     24.9131E-03
            1384            1998     23.7657E-03     24.9131E-03
            1383            1998     23.7657E-03     24.9131E-03
            1365            1998     23.7657E-03     24.9131E-03
            1366            1999     28.5023E-03     29.7369E-03
            1385            1999     28.5023E-03     29.7369E-03
            1384            1999     28.5023E-03     29.7369E-03
            1367            1999     28.5023E-03     29.7369E-03
            1367            2000     33.5379E-03     34.7869E-03
            1386            2000     33.5379E-03     34.7869E-03
            1385            2000     33.5379E-03     34.7869E-03
            1368            2000     33.5379E-03     34.7869E-03
            1387            2001     38.7423E-03     39.9651E-03
            1369            2001     38.7423E-03     39.9651E-03
            1386            2001     38.7423E-03     39.9651E-03
            1368            2001     38.7423E-03     39.9651E-03
            1388            2002     44.0748E-03     45.2111E-03
            1370            2002     44.0748E-03     45.2111E-03
            1369            2002     44.0748E-03     45.2111E-03
            1387            2002     44.0748E-03     45.2111E-03
            1389            2003     49.4573E-03     50.4829E-03
            1388            2003     49.4573E-03     50.4829E-03
            1370            2003     49.4573E-03     50.4829E-03
            1371            2003     49.4573E-03     50.4829E-03
            1372            2004     54.9058E-03     55.7389E-03
            1390            2004     54.9058E-03     55.7389E-03
            1371            2004     54.9058E-03     55.7389E-03
            1389            2004     54.9058E-03     55.7389E-03
            1391            2005     60.3629E-03     61.0029E-03
            1373            2005     60.3629E-03     61.0029E-03
            1372            2005     60.3629E-03     61.0029E-03
            1390            2005     60.3629E-03     61.0029E-03
            1391            2006     65.9190E-03     66.2596E-03
            1392            2006     65.9190E-03     66.2596E-03
            1373            2006     65.9190E-03     66.2596E-03
            1374            2006     65.9190E-03     66.2596E-03
            1392            2007     71.5248E-03     71.6403E-03
            1393            2007     71.5248E-03     71.6403E-03
            1374            2007     71.5248E-03     71.6403E-03
            1375            2007     71.5248E-03     71.6403E-03
            1375            2008     77.4984E-03     77.3503E-03
            1393            2008     77.4984E-03     77.3503E-03
            1376            2008     77.4984E-03     77.3503E-03
            1394            2008     77.4984E-03     77.3503E-03
            1376            2009     83.7698E-03     83.7236E-03
            1377            2009     83.7698E-03     83.7236E-03
            1395            2009     83.7698E-03     83.7236E-03
            1394            2009     83.7698E-03     83.7236E-03
            1395            2010     92.3674E-03     94.0194E-03
            1396            2010     92.3674E-03     94.0194E-03
            1377            2010     92.3674E-03     94.0194E-03
            1378            2010     92.3674E-03     94.0194E-03
            1398            2011     24.6465E-03     28.6090E-03
            1380            2011     24.6465E-03     28.6090E-03
            1379            2011     24.6465E-03     28.6090E-03
            1397            2011     24.6465E-03     28.6090E-03
            1380            2012     24.6065E-03     26.9585E-03
            1399            2012     24.6065E-03     26.9585E-03
            1398            2012     24.6065E-03     26.9585E-03
            1381            2012     24.6065E-03     26.9585E-03
            1382            2013     26.8258E-03     27.6753E-03
            1381            2013     26.8258E-03     27.6753E-03
            1399            2013     26.8258E-03     27.6753E-03
            1400            2013     26.8258E-03     27.6753E-03
            1400            2014     29.9995E-03     30.2884E-03
            1382            2014     29.9995E-03     30.2884E-03
            1401            2014     29.9995E-03     30.2884E-03
            1383            2014     29.9995E-03     30.2884E-03
            1384            2015     34.1087E-03     34.1853E-03
            1383            2015     34.1087E-03     34.1853E-03
            1401            2015     34.1087E-03     34.1853E-03
            1402            2015     34.1087E-03     34.1853E-03
            1402            2016     38.9452E-03     38.9254E-03
            1385            2016     38.9452E-03     38.9254E-03
            1403            2016     38.9452E-03     38.9254E-03
            1384            2016     38.9452E-03     38.9254E-03
            1403            2017     44.2776E-03     44.2211E-03
            1385            2017     44.2776E-03     44.2211E-03
            1386            2017     44.2776E-03     44.2211E-03
            1404            2017     44.2776E-03     44.2211E-03
            1386            2018     49.9582E-03     49.8369E-03
            1404            2018     49.9582E-03     49.8369E-03
            1387            2018     49.9582E-03     49.8369E-03
            1405            2018     49.9582E-03     49.8369E-03
            1405            2019     55.8256E-03     55.6329E-03
            1406            2019     55.8256E-03     55.6329E-03
            1387            2019     55.8256E-03     55.6329E-03
            1388            2019     55.8256E-03     55.6329E-03
            1406            2020     61.7844E-03     61.4676E-03
            1407            2020     61.7844E-03     61.4676E-03
            1389            2020     61.7844E-03     61.4676E-03
            1388            2020     61.7844E-03     61.4676E-03
            1407            2021     67.7126E-03     67.2517E-03
            1389            2021     67.7126E-03     67.2517E-03
            1390            2021     67.7126E-03     67.2517E-03
            1408            2021     67.7126E-03     67.2517E-03
            1390            2022     73.5254E-03     72.8687E-03
            1408            2022     73.5254E-03     72.8687E-03
            1391            2022     73.5254E-03     72.8687E-03
            1409            2022     73.5254E-03     72.8687E-03
            1392            2023     79.0940E-03     78.2226E-03
            1409            2023     79.0940E-03     78.2226E-03
            1410            2023     79.0940E-03     78.2226E-03
            1391            2023     79.0940E-03     78.2226E-03
            1411            2024     84.3116E-03     83.2249E-03
            1410            2024     84.3116E-03     83.2249E-03
            1393            2024     84.3116E-03     83.2249E-03
            1392            2024     84.3116E-03     83.2249E-03
            1394            2025     88.9589E-03     87.7062E-03
            1412            2025     88.9589E-03     87.7062E-03
            1393            2025     88.9589E-03     87.7062E-03
            1411            2025     88.9589E-03     87.7062E-03
            1394            2026     92.8503E-03     91.6739E-03
            1395            2026     92.8503E-03     91.6739E-03
            1412            2026     92.8503E-03     91.6739E-03
            1413            2026     92.8503E-03     91.6739E-03
            1395            2027     95.6216E-03     94.2008E-03
            1413            2027     95.6216E-03     94.2008E-03
            1396            2027     95.6216E-03     94.2008E-03
            1414            2027     95.6216E-03     94.2008E-03
            1397            2028     25.3824E-03     25.1740E-03
            1416            2028     25.3824E-03     25.1740E-03
            1398            2028     25.3824E-03     25.1740E-03
            1415            2028     25.3824E-03     25.1740E-03
            1417            2029     23.0202E-03     24.6182E-03
            1416            2029     23.0202E-03     24.6182E-03
            1398            2029     23.0202E-03     24.6182E-03
            1399            2029     23.0202E-03     24.6182E-03
            1400            2030     23.6968E-03     25.0697E-03
            1417            2030     23.6968E-03     25.0697E-03
            1399            2030     23.6968E-03     25.0697E-03
            1418            2030     23.6968E-03     25.0697E-03
            1418            2031     26.8112E-03     27.5740E-03
            1419            2031     26.8112E-03     27.5740E-03
            1400            2031     26.8112E-03     27.5740E-03
            1401            2031     26.8112E-03     27.5740E-03
            1419            2032     31.2762E-03     31.7526E-03
            1401            2032     31.2762E-03     31.7526E-03
            1402            2032     31.2762E-03     31.7526E-03
            1420            2032     31.2762E-03     31.7526E-03
            1420            2033     36.7016E-03     37.0255E-03
            1402            2033     36.7016E-03     37.0255E-03
            1421            2033     36.7016E-03     37.0255E-03
            1403            2033     36.7016E-03     37.0255E-03
            1404            2034     42.7248E-03     42.9804E-03
            1422            2034     42.7248E-03     42.9804E-03
            1403            2034     42.7248E-03     42.9804E-03
            1421            2034     42.7248E-03     42.9804E-03
            1404            2035     49.1287E-03     49.3493E-03
            1422            2035     49.1287E-03     49.3493E-03
            1405            2035     49.1287E-03     49.3493E-03
            1423            2035     49.1287E-03     49.3493E-03
            1423            2036     55.7681E-03     55.9516E-03
            1406            2036     55.7681E-03     55.9516E-03
            1424            2036     55.7681E-03     55.9516E-03
            1405            2036     55.7681E-03     55.9516E-03
            1425            2037     62.5146E-03     62.6752E-03
            1424            2037     62.5146E-03     62.6752E-03
            1406            2037     62.5146E-03     62.6752E-03
            1407            2037     62.5146E-03     62.6752E-03
            1426            2038     69.2800E-03     69.4044E-03
            1425            2038     69.2800E-03     69.4044E-03
            1407            2038     69.2800E-03     69.4044E-03
            1408            2038     69.2800E-03     69.4044E-03
            1408            2039     75.9378E-03     76.0630E-03
            1409            2039     75.9378E-03     76.0630E-03
            1427            2039     75.9378E-03     76.0630E-03
            1426            2039     75.9378E-03     76.0630E-03
            1409            2040     82.3725E-03     82.5258E-03
            1428            2040     82.3725E-03     82.5258E-03
            1410            2040     82.3725E-03     82.5258E-03
            1427            2040     82.3725E-03     82.5258E-03
            1428            2041     88.4228E-03     88.6895E-03
            1429            2041     88.4228E-03     88.6895E-03
            1410            2041     88.4228E-03     88.6895E-03
            1411            2041     88.4228E-03     88.6895E-03
            1429            2042     93.8469E-03     94.3818E-03
            1411            2042     93.8469E-03     94.3818E-03
            1412            2042     93.8469E-03     94.3818E-03
            1430            2042     93.8469E-03     94.3818E-03
            1412            2043     98.5988E-03     99.2964E-03
            1430            2043     98.5988E-03     99.2964E-03
            1413            2043     98.5988E-03     99.2964E-03
            1431            2043     98.5988E-03     99.2964E-03
            1413            2044     102.372E-03     102.797E-03
            1414            2044     102.372E-03     102.797E-03
            1431            2044     102.372E-03     102.797E-03
            1432            2044     102.372E-03     102.797E-03
            1416            2045     23.4603E-03     22.1392E-03
            1415            2045     23.4603E-03     22.1392E-03
            1433            2045     23.4603E-03     22.1392E-03
            1434            2045     23.4603E-03     22.1392E-03
            1416            2046     21.6520E-03     21.5547E-03
            1434            2046     21.6520E-03     21.5547E-03
            1417            2046     21.6520E-03     21.5547E-03
            1435            2046     21.6520E-03     21.5547E-03
            1435            2047     21.5593E-03     22.5117E-03
            1417            2047     21.5593E-03     22.5117E-03
            1418            2047     21.5593E-03     22.5117E-03
            1436            2047     21.5593E-03     22.5117E-03
            1419            2048     24.3049E-03     25.3110E-03
            1436            2048     24.3049E-03     25.3110E-03
            1437            2048     24.3049E-03     25.3110E-03
            1418            2048     24.3049E-03     25.3110E-03
            1438            2049     29.0691E-03     29.8987E-03
            1437            2049     29.0691E-03     29.8987E-03
            1420            2049     29.0691E-03     29.8987E-03
            1419            2049     29.0691E-03     29.8987E-03
            1420            2050     34.9867E-03     35.7012E-03
            1439            2050     34.9867E-03     35.7012E-03
            1421            2050     34.9867E-03     35.7012E-03
            1438            2050     34.9867E-03     35.7012E-03
            1421            2051     41.5936E-03     42.2471E-03
            1439            2051     41.5936E-03     42.2471E-03
            1422            2051     41.5936E-03     42.2471E-03
            1440            2051     41.5936E-03     42.2471E-03
            1422            2052     48.6080E-03     49.2457E-03
            1440            2052     48.6080E-03     49.2457E-03
            1441            2052     48.6080E-03     49.2457E-03
            1423            2052     48.6080E-03     49.2457E-03
            1423            2053     55.8668E-03     56.5225E-03
            1424            2053     55.8668E-03     56.5225E-03
            1441            2053     55.8668E-03     56.5225E-03
            1442            2053     55.8668E-03     56.5225E-03
            1424            2054     63.2642E-03     63.9533E-03
            1443            2054     63.2642E-03     63.9533E-03
            1425            2054     63.2642E-03     63.9533E-03
            1442            2054     63.2642E-03     63.9533E-03
            1426            2055     70.6871E-03     71.4570E-03
            1443            2055     70.6871E-03     71.4570E-03
            1425            2055     70.6871E-03     71.4570E-03
            1444            2055     70.6871E-03     71.4570E-03
            1445            2056     78.0403E-03     78.9170E-03
            1444            2056     78.0403E-03     78.9170E-03
            1426            2056     78.0403E-03     78.9170E-03
            1427            2056     78.0403E-03     78.9170E-03
            1446            2057     85.1860E-03     86.2348E-03
            1427            2057     85.1860E-03     86.2348E-03
            1428            2057     85.1860E-03     86.2348E-03
            1445            2057     85.1860E-03     86.2348E-03
            1447            2058     91.9058E-03     93.2192E-03
            1428            2058     91.9058E-03     93.2192E-03
            1429            2058     91.9058E-03     93.2192E-03
            1446            2058     91.9058E-03     93.2192E-03
            1429            2059     98.1315E-03     99.6244E-03
            1447            2059     98.1315E-03     99.6244E-03
            1448            2059     98.1315E-03     99.6244E-03
            1430            2059     98.1315E-03     99.6244E-03
            1430            2060     103.470E-03     105.089E-03
            1449            2060     103.470E-03     105.089E-03
            1448            2060     103.470E-03     105.089E-03
            1431            2060     103.470E-03     105.089E-03
            1432            2061     108.208E-03     109.552E-03
            1449            2061     108.208E-03     109.552E-03
            1450            2061     108.208E-03     109.552E-03
            1431            2061     108.208E-03     109.552E-03
            1451            2062     21.6928E-03     19.8551E-03
            1434            2062     21.6928E-03     19.8551E-03
            1452            2062     21.6928E-03     19.8551E-03
            1433            2062     21.6928E-03     19.8551E-03
            1452            2063     19.4734E-03     18.7007E-03
            1434            2063     19.4734E-03     18.7007E-03
            1435            2063     19.4734E-03     18.7007E-03
            1453            2063     19.4734E-03     18.7007E-03
            1453            2064     19.5288E-03     19.8526E-03
            1454            2064     19.5288E-03     19.8526E-03
            1435            2064     19.5288E-03     19.8526E-03
            1436            2064     19.5288E-03     19.8526E-03
            1437            2065     22.2251E-03     23.2189E-03
            1454            2065     22.2251E-03     23.2189E-03
            1436            2065     22.2251E-03     23.2189E-03
            1455            2065     22.2251E-03     23.2189E-03
            1437            2066     27.2455E-03     28.3489E-03
            1455            2066     27.2455E-03     28.3489E-03
            1456            2066     27.2455E-03     28.3489E-03
            1438            2066     27.2455E-03     28.3489E-03
            1438            2067     33.5830E-03     34.6701E-03
            1439            2067     33.5830E-03     34.6701E-03
            1456            2067     33.5830E-03     34.6701E-03
            1457            2067     33.5830E-03     34.6701E-03
            1439            2068     40.6493E-03     41.7174E-03
            1440            2068     40.6493E-03     41.7174E-03
            1458            2068     40.6493E-03     41.7174E-03
            1457            2068     40.6493E-03     41.7174E-03
            1459            2069     48.1290E-03     49.2112E-03
            1441            2069     48.1290E-03     49.2112E-03
            1458            2069     48.1290E-03     49.2112E-03
            1440            2069     48.1290E-03     49.2112E-03
            1460            2070     55.8564E-03     56.9878E-03
            1441            2070     55.8564E-03     56.9878E-03
            1459            2070     55.8564E-03     56.9878E-03
            1442            2070     55.8564E-03     56.9878E-03
            1442            2071     63.7258E-03     64.9490E-03
            1443            2071     63.7258E-03     64.9490E-03
            1461            2071     63.7258E-03     64.9490E-03
            1460            2071     63.7258E-03     64.9490E-03
            1461            2072     71.6663E-03     73.0085E-03
            1444            2072     71.6663E-03     73.0085E-03
            1462            2072     71.6663E-03     73.0085E-03
            1443            2072     71.6663E-03     73.0085E-03
            1444            2073     79.5659E-03     81.0835E-03
            1445            2073     79.5659E-03     81.0835E-03
            1463            2073     79.5659E-03     81.0835E-03
            1462            2073     79.5659E-03     81.0835E-03
            1464            2074     87.2952E-03     89.0209E-03
            1445            2074     87.2952E-03     89.0209E-03
            1446            2074     87.2952E-03     89.0209E-03
            1463            2074     87.2952E-03     89.0209E-03
            1447            2075     94.7231E-03     96.6230E-03
            1446            2075     94.7231E-03     96.6230E-03
            1464            2075     94.7231E-03     96.6230E-03
            1465            2075     94.7231E-03     96.6230E-03
            1448            2076     101.539E-03     103.597E-03
            1465            2076     101.539E-03     103.597E-03
            1447            2076     101.539E-03     103.597E-03
            1466            2076     101.539E-03     103.597E-03
            1467            2077     107.756E-03     109.635E-03
            1448            2077     107.756E-03     109.635E-03
            1449            2077     107.756E-03     109.635E-03
            1466            2077     107.756E-03     109.635E-03
            1468            2078     113.462E-03     114.690E-03
            1450            2078     113.462E-03     114.690E-03
            1449            2078     113.462E-03     114.690E-03
            1467            2078     113.462E-03     114.690E-03
            1451            2079     20.2168E-03     17.8846E-03
            1470            2079     20.2168E-03     17.8846E-03
            1452            2079     20.2168E-03     17.8846E-03
            1469            2079     20.2168E-03     17.8846E-03
            1470            2080     17.4166E-03     16.1522E-03
            1471            2080     17.4166E-03     16.1522E-03
            1452            2080     17.4166E-03     16.1522E-03
            1453            2080     17.4166E-03     16.1522E-03
            1454            2081     17.2998E-03     17.2885E-03
            1453            2081     17.2998E-03     17.2885E-03
            1472            2081     17.2998E-03     17.2885E-03
            1471            2081     17.2998E-03     17.2885E-03
            1472            2082     20.2861E-03     21.1863E-03
            1455            2082     20.2861E-03     21.1863E-03
            1454            2082     20.2861E-03     21.1863E-03
            1473            2082     20.2861E-03     21.1863E-03
            1455            2083     25.5904E-03     26.9056E-03
            1456            2083     25.5904E-03     26.9056E-03
            1474            2083     25.5904E-03     26.9056E-03
            1473            2083     25.5904E-03     26.9056E-03
            1474            2084     32.3041E-03     33.7179E-03
            1456            2084     32.3041E-03     33.7179E-03
            1457            2084     32.3041E-03     33.7179E-03
            1475            2084     32.3041E-03     33.7179E-03
            1458            2085     39.7156E-03     41.1695E-03
            1457            2085     39.7156E-03     41.1695E-03
            1476            2085     39.7156E-03     41.1695E-03
            1475            2085     39.7156E-03     41.1695E-03
            1459            2086     47.5130E-03     49.0153E-03
            1477            2086     47.5130E-03     49.0153E-03
            1476            2086     47.5130E-03     49.0153E-03
            1458            2086     47.5130E-03     49.0153E-03
            1460            2087     55.5513E-03     57.1283E-03
            1477            2087     55.5513E-03     57.1283E-03
            1459            2087     55.5513E-03     57.1283E-03
            1478            2087     55.5513E-03     57.1283E-03
            1479            2088     63.7475E-03     65.4336E-03
            1478            2088     63.7475E-03     65.4336E-03
            1460            2088     63.7475E-03     65.4336E-03
            1461            2088     63.7475E-03     65.4336E-03
            1479            2089     72.0353E-03     73.8688E-03
            1480            2089     72.0353E-03     73.8688E-03
            1461            2089     72.0353E-03     73.8688E-03
            1462            2089     72.0353E-03     73.8688E-03
            1481            2090     80.3822E-03     82.3720E-03
            1462            2090     80.3822E-03     82.3720E-03
            1480            2090     80.3822E-03     82.3720E-03
            1463            2090     80.3822E-03     82.3720E-03
            1481            2091     88.6590E-03     90.8256E-03
            1463            2091     88.6590E-03     90.8256E-03
            1482            2091     88.6590E-03     90.8256E-03
            1464            2091     88.6590E-03     90.8256E-03
            1482            2092     96.7186E-03     99.0019E-03
            1464            2092     96.7186E-03     99.0019E-03
            1483            2092     96.7186E-03     99.0019E-03
            1465            2092     96.7186E-03     99.0019E-03
            1465            2093     104.396E-03     106.615E-03
            1483            2093     104.396E-03     106.615E-03
            1466            2093     104.396E-03     106.615E-03
            1484            2093     104.396E-03     106.615E-03
            1467            2094     111.470E-03     113.425E-03
            1484            2094     111.470E-03     113.425E-03
            1485            2094     111.470E-03     113.425E-03
            1466            2094     111.470E-03     113.425E-03
            1485            2095     118.125E-03     119.484E-03
            1467            2095     118.125E-03     119.484E-03
            1468            2095     118.125E-03     119.484E-03
            1486            2095     118.125E-03     119.484E-03
            1487            2096     19.1181E-03     16.5031E-03
            1488            2096     19.1181E-03     16.5031E-03
            1469            2096     19.1181E-03     16.5031E-03
            1470            2096     19.1181E-03     16.5031E-03
            1488            2097     15.6227E-03     13.8912E-03
            1470            2097     15.6227E-03     13.8912E-03
            1489            2097     15.6227E-03     13.8912E-03
            1471            2097     15.6227E-03     13.8912E-03
            1489            2098     15.1563E-03     14.8917E-03
            1471            2098     15.1563E-03     14.8917E-03
            1490            2098     15.1563E-03     14.8917E-03
            1472            2098     15.1563E-03     14.8917E-03
            1490            2099     18.2624E-03     19.1871E-03
            1473            2099     18.2624E-03     19.1871E-03
            1472            2099     18.2624E-03     19.1871E-03
            1491            2099     18.2624E-03     19.1871E-03
            1473            2100     24.0014E-03     25.4825E-03
            1474            2100     24.0014E-03     25.4825E-03
            1491            2100     24.0014E-03     25.4825E-03
            1492            2100     24.0014E-03     25.4825E-03
            1475            2101     31.0173E-03     32.7193E-03
            1492            2101     31.0173E-03     32.7193E-03
            1493            2101     31.0173E-03     32.7193E-03
            1474            2101     31.0173E-03     32.7193E-03
            1476            2102     38.6629E-03     40.4644E-03
            1494            2102     38.6629E-03     40.4644E-03
            1493            2102     38.6629E-03     40.4644E-03
            1475            2102     38.6629E-03     40.4644E-03
            1494            2103     46.6592E-03     48.5315E-03
            1476            2103     46.6592E-03     48.5315E-03
            1495            2103     46.6592E-03     48.5315E-03
            1477            2103     46.6592E-03     48.5315E-03
            1496            2104     54.8611E-03     56.8260E-03
            1478            2104     54.8611E-03     56.8260E-03
            1495            2104     54.8611E-03     56.8260E-03
            1477            2104     54.8611E-03     56.8260E-03
            1497            2105     63.2276E-03     65.3001E-03
            1496            2105     63.2276E-03     65.3001E-03
            1479            2105     63.2276E-03     65.3001E-03
            1478            2105     63.2276E-03     65.3001E-03
            1498            2106     71.7423E-03     73.9475E-03
            1479            2106     71.7423E-03     73.9475E-03
            1480            2106     71.7423E-03     73.9475E-03
            1497            2106     71.7423E-03     73.9475E-03
            1499            2107     80.3713E-03     82.7189E-03
            1480            2107     80.3713E-03     82.7189E-03
            1498            2107     80.3713E-03     82.7189E-03
            1481            2107     80.3713E-03     82.7189E-03
            1499            2108     89.1735E-03     91.5947E-03
            1481            2108     89.1735E-03     91.5947E-03
            1482            2108     89.1735E-03     91.5947E-03
            1500            2108     89.1735E-03     91.5947E-03
            1483            2109     97.9523E-03     100.433E-03
            1482            2109     97.9523E-03     100.433E-03
            1501            2109     97.9523E-03     100.433E-03
            1500            2109     97.9523E-03     100.433E-03
            1502            2110     106.562E-03     108.914E-03
            1501            2110     106.562E-03     108.914E-03
            1483            2110     106.562E-03     108.914E-03
            1484            2110     106.562E-03     108.914E-03
            1485            2111     114.810E-03     116.737E-03
            1503            2111     114.810E-03     116.737E-03
            1502            2111     114.810E-03     116.737E-03
            1484            2111     114.810E-03     116.737E-03
            1485            2112     122.386E-03     123.938E-03
            1503            2112     122.386E-03     123.938E-03
            1486            2112     122.386E-03     123.938E-03
            1504            2112     122.386E-03     123.938E-03
            1506            2113     18.6963E-03     15.7743E-03
            1487            2113     18.6963E-03     15.7743E-03
            1505            2113     18.6963E-03     15.7743E-03
            1488            2113     18.6963E-03     15.7743E-03
            1489            2114     14.1606E-03     12.1187E-03
            1506            2114     14.1606E-03     12.1187E-03
            1507            2114     14.1606E-03     12.1187E-03
            1488            2114     14.1606E-03     12.1187E-03
            1507            2115     13.0671E-03     12.5917E-03
            1490            2115     13.0671E-03     12.5917E-03
            1508            2115     13.0671E-03     12.5917E-03
            1489            2115     13.0671E-03     12.5917E-03
            1490            2116     16.3223E-03     17.2894E-03
            1508            2116     16.3223E-03     17.2894E-03
            1509            2116     16.3223E-03     17.2894E-03
            1491            2116     16.3223E-03     17.2894E-03
            1491            2117     22.3673E-03     24.0548E-03
            1509            2117     22.3673E-03     24.0548E-03
            1510            2117     22.3673E-03     24.0548E-03
            1492            2117     22.3673E-03     24.0548E-03
            1492            2118     29.6332E-03     31.6187E-03
            1493            2118     29.6332E-03     31.6187E-03
            1511            2118     29.6332E-03     31.6187E-03
            1510            2118     29.6332E-03     31.6187E-03
            1512            2119     37.4487E-03     39.5604E-03
            1494            2119     37.4487E-03     39.5604E-03
            1511            2119     37.4487E-03     39.5604E-03
            1493            2119     37.4487E-03     39.5604E-03
            1513            2120     45.5121E-03     47.7183E-03
            1495            2120     45.5121E-03     47.7183E-03
            1512            2120     45.5121E-03     47.7183E-03
            1494            2120     45.5121E-03     47.7183E-03
            1513            2121     53.7649E-03     56.0484E-03
            1514            2121     53.7649E-03     56.0484E-03
            1496            2121     53.7649E-03     56.0484E-03
            1495            2121     53.7649E-03     56.0484E-03
            1497            2122     62.1642E-03     64.5495E-03
            1514            2122     62.1642E-03     64.5495E-03
            1515            2122     62.1642E-03     64.5495E-03
            1496            2122     62.1642E-03     64.5495E-03
            1497            2123     70.7403E-03     73.2189E-03
            1516            2123     70.7403E-03     73.2189E-03
            1515            2123     70.7403E-03     73.2189E-03
            1498            2123     70.7403E-03     73.2189E-03
            1499            2124     79.5530E-03     82.1275E-03
            1517            2124     79.5530E-03     82.1275E-03
            1498            2124     79.5530E-03     82.1275E-03
            1516            2124     79.5530E-03     82.1275E-03
            1499            2125     88.6223E-03     91.2622E-03
            1500            2125     88.6223E-03     91.2622E-03
            1517            2125     88.6223E-03     91.2622E-03
            1518            2125     88.6223E-03     91.2622E-03
            1501            2126     98.2344E-03     100.732E-03
            1500            2126     98.2344E-03     100.732E-03
            1519            2126     98.2344E-03     100.732E-03
            1518            2126     98.2344E-03     100.732E-03
            1519            2127     108.010E-03     110.395E-03
            1501            2127     108.010E-03     110.395E-03
            1502            2127     108.010E-03     110.395E-03
            1520            2127     108.010E-03     110.395E-03
            1520            2128     117.533E-03     119.705E-03
            1502            2128     117.533E-03     119.705E-03
            1503            2128     117.533E-03     119.705E-03
            1521            2128     117.533E-03     119.705E-03
            1504            2129     126.627E-03     127.976E-03
            1521            2129     126.627E-03     127.976E-03
            1503            2129     126.627E-03     127.976E-03
            1522            2129     126.627E-03     127.976E-03
            1505            2130     18.8112E-03     15.8526E-03
            1524            2130     18.8112E-03     15.8526E-03
            1506            2130     18.8112E-03     15.8526E-03
            1523            2130     18.8112E-03     15.8526E-03
            1507            2131     13.4096E-03     10.9085E-03
            1524            2131     13.4096E-03     10.9085E-03
            1506            2131     13.4096E-03     10.9085E-03
            1525            2131     13.4096E-03     10.9085E-03
            1507            2132     11.3380E-03     10.6409E-03
            1508            2132     11.3380E-03     10.6409E-03
            1525            2132     11.3380E-03     10.6409E-03
            1526            2132     11.3380E-03     10.6409E-03
            1509            2133     14.2791E-03     15.4506E-03
            1508            2133     14.2791E-03     15.4506E-03
            1527            2133     14.2791E-03     15.4506E-03
            1526            2133     14.2791E-03     15.4506E-03
            1528            2134     20.6382E-03     22.6395E-03
            1527            2134     20.6382E-03     22.6395E-03
            1509            2134     20.6382E-03     22.6395E-03
            1510            2134     20.6382E-03     22.6395E-03
            1529            2135     28.1776E-03     30.4633E-03
            1528            2135     28.1776E-03     30.4633E-03
            1510            2135     28.1776E-03     30.4633E-03
            1511            2135     28.1776E-03     30.4633E-03
            1511            2136     36.0481E-03     38.4805E-03
            1530            2136     36.0481E-03     38.4805E-03
            1529            2136     36.0481E-03     38.4805E-03
            1512            2136     36.0481E-03     38.4805E-03
            1513            2137     44.1143E-03     46.6202E-03
            1531            2137     44.1143E-03     46.6202E-03
            1530            2137     44.1143E-03     46.6202E-03
            1512            2137     44.1143E-03     46.6202E-03
            1513            2138     52.2952E-03     54.8664E-03
            1532            2138     52.2952E-03     54.8664E-03
            1531            2138     52.2952E-03     54.8664E-03
            1514            2138     52.2952E-03     54.8664E-03
            1515            2139     60.6232E-03     63.2377E-03
            1533            2139     60.6232E-03     63.2377E-03
            1532            2139     60.6232E-03     63.2377E-03
            1514            2139     60.6232E-03     63.2377E-03
            1534            2140     69.1174E-03     71.7986E-03
            1515            2140     69.1174E-03     71.7986E-03
            1533            2140     69.1174E-03     71.7986E-03
            1516            2140     69.1174E-03     71.7986E-03
            1534            2141     77.8990E-03     80.6063E-03
            1535            2141     77.8990E-03     80.6063E-03
            1517            2141     77.8990E-03     80.6063E-03
            1516            2141     77.8990E-03     80.6063E-03
            1536            2142     87.1226E-03     89.8499E-03
            1518            2142     87.1226E-03     89.8499E-03
            1535            2142     87.1226E-03     89.8499E-03
            1517            2142     87.1226E-03     89.8499E-03
            1536            2143     96.9632E-03     99.6270E-03
            1518            2143     96.9632E-03     99.6270E-03
            1519            2143     96.9632E-03     99.6270E-03
            1537            2143     96.9632E-03     99.6270E-03
            1519            2144     108.185E-03     110.397E-03
            1520            2144     108.185E-03     110.397E-03
            1537            2144     108.185E-03     110.397E-03
            1538            2144     108.185E-03     110.397E-03
            1538            2145     119.834E-03     121.708E-03
            1520            2145     119.834E-03     121.708E-03
            1521            2145     119.834E-03     121.708E-03
            1539            2145     119.834E-03     121.708E-03
            1540            2146     130.280E-03     132.360E-03
            1521            2146     130.280E-03     132.360E-03
            1539            2146     130.280E-03     132.360E-03
            1522            2146     130.280E-03     132.360E-03
            1542            2147     20.3219E-03     16.9574E-03
            1523            2147     20.3219E-03     16.9574E-03
            1524            2147     20.3219E-03     16.9574E-03
            1541            2147     20.3219E-03     16.9574E-03
            1542            2148     12.8885E-03     10.2228E-03
            1543            2148     12.8885E-03     10.2228E-03
            1524            2148     12.8885E-03     10.2228E-03
            1525            2148     12.8885E-03     10.2228E-03
            1526            2149     8.95826E-03     8.48162E-03
            1544            2149     8.95826E-03     8.48162E-03
            1525            2149     8.95826E-03     8.48162E-03
            1543            2149     8.95826E-03     8.48162E-03
            1544            2150     11.9840E-03     13.6959E-03
            1527            2150     11.9840E-03     13.6959E-03
            1526            2150     11.9840E-03     13.6959E-03
            1545            2150     11.9840E-03     13.6959E-03
            1545            2151     18.9822E-03     21.3913E-03
            1546            2151     18.9822E-03     21.3913E-03
            1528            2151     18.9822E-03     21.3913E-03
            1527            2151     18.9822E-03     21.3913E-03
            1528            2152     26.6747E-03     29.3483E-03
            1546            2152     26.6747E-03     29.3483E-03
            1547            2152     26.6747E-03     29.3483E-03
            1529            2152     26.6747E-03     29.3483E-03
            1530            2153     34.5706E-03     37.3492E-03
            1547            2153     34.5706E-03     37.3492E-03
            1548            2153     34.5706E-03     37.3492E-03
            1529            2153     34.5706E-03     37.3492E-03
            1549            2154     42.5419E-03     45.3663E-03
            1530            2154     42.5419E-03     45.3663E-03
            1531            2154     42.5419E-03     45.3663E-03
            1548            2154     42.5419E-03     45.3663E-03
            1550            2155     50.5918E-03     53.4211E-03
            1531            2155     50.5918E-03     53.4211E-03
            1532            2155     50.5918E-03     53.4211E-03
            1549            2155     50.5918E-03     53.4211E-03
            1550            2156     58.7311E-03     61.5551E-03
            1533            2156     58.7311E-03     61.5551E-03
            1532            2156     58.7311E-03     61.5551E-03
            1551            2156     58.7311E-03     61.5551E-03
            1533            2157     67.0543E-03     69.8411E-03
            1551            2157     67.0543E-03     69.8411E-03
            1534            2157     67.0543E-03     69.8411E-03
            1552            2157     67.0543E-03     69.8411E-03
            1534            2158     75.6190E-03     78.3909E-03
            1552            2158     75.6190E-03     78.3909E-03
            1535            2158     75.6190E-03     78.3909E-03
            1553            2158     75.6190E-03     78.3909E-03
            1553            2159     84.6955E-03     87.3944E-03
            1536            2159     84.6955E-03     87.3944E-03
            1535            2159     84.6955E-03     87.3944E-03
            1554            2159     84.6955E-03     87.3944E-03
            1537            2160     94.5125E-03     97.1829E-03
            1555            2160     94.5125E-03     97.1829E-03
            1536            2160     94.5125E-03     97.1829E-03
            1554            2160     94.5125E-03     97.1829E-03
            1538            2161     105.706E-03     108.188E-03
            1537            2161     105.706E-03     108.188E-03
            1555            2161     105.706E-03     108.188E-03
            1556            2161     105.706E-03     108.188E-03
            1538            2162     120.000E-03     121.594E-03
            1557            2162     120.000E-03     121.594E-03
            1556            2162     120.000E-03     121.594E-03
            1539            2162     120.000E-03     121.594E-03
            1540            2163     134.425E-03     134.795E-03
            1539            2163     134.425E-03     134.795E-03
            1558            2163     134.425E-03     134.795E-03
            1557            2163     134.425E-03     134.795E-03
            1542            2164     20.9315E-03     18.8364E-03
            1541            2164     20.9315E-03     18.8364E-03
            1559            2164     20.9315E-03     18.8364E-03
            1560            2164     20.9315E-03     18.8364E-03
            1560            2165     10.3434E-03     8.24028E-03
            1542            2165     10.3434E-03     8.24028E-03
            1561            2165     10.3434E-03     8.24028E-03
            1543            2165     10.3434E-03     8.24028E-03
            1562            2166     5.96598E-03     6.04436E-03
            1561            2166     5.96598E-03     6.04436E-03
            1543            2166     5.96598E-03     6.04436E-03
            1544            2166     5.96598E-03     6.04436E-03
            1545            2167     10.0137E-03     12.5051E-03
            1563            2167     10.0137E-03     12.5051E-03
            1544            2167     10.0137E-03     12.5051E-03
            1562            2167     10.0137E-03     12.5051E-03
            1564            2168     17.5801E-03     20.5471E-03
            1546            2168     17.5801E-03     20.5471E-03
            1545            2168     17.5801E-03     20.5471E-03
            1563            2168     17.5801E-03     20.5471E-03
            1565            2169     25.3617E-03     28.4985E-03
            1546            2169     25.3617E-03     28.4985E-03
            1547            2169     25.3617E-03     28.4985E-03
            1564            2169     25.3617E-03     28.4985E-03
            1547            2170     33.1776E-03     36.3691E-03
            1566            2170     33.1776E-03     36.3691E-03
            1548            2170     33.1776E-03     36.3691E-03
            1565            2170     33.1776E-03     36.3691E-03
            1567            2171     40.9852E-03     44.1687E-03
            1566            2171     40.9852E-03     44.1687E-03
            1549            2171     40.9852E-03     44.1687E-03
            1548            2171     40.9852E-03     44.1687E-03
            1550            2172     48.8244E-03     51.9473E-03
            1568            2172     48.8244E-03     51.9473E-03
            1567            2172     48.8244E-03     51.9473E-03
            1549            2172     48.8244E-03     51.9473E-03
            1569            2173     56.7394E-03     59.7608E-03
            1550            2173     56.7394E-03     59.7608E-03
            1568            2173     56.7394E-03     59.7608E-03
            1551            2173     56.7394E-03     59.7608E-03
            1552            2174     64.7749E-03     67.6586E-03
            1569            2174     64.7749E-03     67.6586E-03
            1551            2174     64.7749E-03     67.6586E-03
            1570            2174     64.7749E-03     67.6586E-03
            1570            2175     73.0835E-03     75.8021E-03
            1552            2175     73.0835E-03     75.8021E-03
            1571            2175     73.0835E-03     75.8021E-03
            1553            2175     73.0835E-03     75.8021E-03
            1553            2176     81.7491E-03     84.3029E-03
            1572            2176     81.7491E-03     84.3029E-03
            1571            2176     81.7491E-03     84.3029E-03
            1554            2176     81.7491E-03     84.3029E-03
            1573            2177     91.2508E-03     93.6545E-03
            1555            2177     91.2508E-03     93.6545E-03
            1554            2177     91.2508E-03     93.6545E-03
            1572            2177     91.2508E-03     93.6545E-03
            1555            2178     101.776E-03     104.173E-03
            1573            2178     101.776E-03     104.173E-03
            1574            2178     101.776E-03     104.173E-03
            1556            2178     101.776E-03     104.173E-03
            1556            2179     115.316E-03     117.819E-03
            1575            2179     115.316E-03     117.819E-03
            1557            2179     115.316E-03     117.819E-03
            1574            2179     115.316E-03     117.819E-03
            1575            2180     134.243E-03     135.916E-03
            1558            2180     134.243E-03     135.916E-03
            1576            2180     134.243E-03     135.916E-03
            1557            2180     134.243E-03     135.916E-03
            1560            2181     23.4539E-03     27.7844E-03
            1577            2181     23.4539E-03     27.7844E-03
            1559            2181     23.4539E-03     27.7844E-03
            1578            2181     23.4539E-03     27.7844E-03
            1579            2182     18.9159E-03     19.1281E-03
            1560            2182     18.9159E-03     19.1281E-03
            1561            2182     18.9159E-03     19.1281E-03
            1578            2182     18.9159E-03     19.1281E-03
            1561            2183     18.8649E-03     19.2625E-03
            1562            2183     18.8649E-03     19.2625E-03
            1579            2183     18.8649E-03     19.2625E-03
            1580            2183     18.8649E-03     19.2625E-03
            1562            2184     23.3701E-03     24.9372E-03
            1563            2184     23.3701E-03     24.9372E-03
            1580            2184     23.3701E-03     24.9372E-03
            1581            2184     23.3701E-03     24.9372E-03
            1581            2185     30.1988E-03     31.8759E-03
            1563            2185     30.1988E-03     31.8759E-03
            1582            2185     30.1988E-03     31.8759E-03
            1564            2185     30.1988E-03     31.8759E-03
            1582            2186     37.4668E-03     39.2242E-03
            1564            2186     37.4668E-03     39.2242E-03
            1583            2186     37.4668E-03     39.2242E-03
            1565            2186     37.4668E-03     39.2242E-03
            1583            2187     45.0111E-03     46.7814E-03
            1565            2187     45.0111E-03     46.7814E-03
            1584            2187     45.0111E-03     46.7814E-03
            1566            2187     45.0111E-03     46.7814E-03
            1584            2188     52.7452E-03     54.4818E-03
            1585            2188     52.7452E-03     54.4818E-03
            1567            2188     52.7452E-03     54.4818E-03
            1566            2188     52.7452E-03     54.4818E-03
            1586            2189     60.5975E-03     62.2246E-03
            1585            2189     60.5975E-03     62.2246E-03
            1567            2189     60.5975E-03     62.2246E-03
            1568            2189     60.5975E-03     62.2246E-03
            1587            2190     68.5029E-03     69.9847E-03
            1586            2190     68.5029E-03     69.9847E-03
            1568            2190     68.5029E-03     69.9847E-03
            1569            2190     68.5029E-03     69.9847E-03
            1587            2191     76.4822E-03     77.7113E-03
            1570            2191     76.4822E-03     77.7113E-03
            1588            2191     76.4822E-03     77.7113E-03
            1569            2191     76.4822E-03     77.7113E-03
            1588            2192     84.4430E-03     85.4126E-03
            1570            2192     84.4430E-03     85.4126E-03
            1589            2192     84.4430E-03     85.4126E-03
            1571            2192     84.4430E-03     85.4126E-03
            1571            2193     92.5584E-03     93.1136E-03
            1572            2193     92.5584E-03     93.1136E-03
            1590            2193     92.5584E-03     93.1136E-03
            1589            2193     92.5584E-03     93.1136E-03
            1590            2194     100.677E-03     100.929E-03
            1573            2194     100.677E-03     100.929E-03
            1591            2194     100.677E-03     100.929E-03
            1572            2194     100.677E-03     100.929E-03
            1573            2195     109.334E-03     109.199E-03
            1574            2195     109.334E-03     109.199E-03
            1591            2195     109.334E-03     109.199E-03
            1592            2195     109.334E-03     109.199E-03
            1592            2196     118.316E-03     118.336E-03
            1574            2196     118.316E-03     118.336E-03
            1593            2196     118.316E-03     118.336E-03
            1575            2196     118.316E-03     118.336E-03
            1593            2197     130.519E-03     132.929E-03
            1576            2197     130.519E-03     132.929E-03
            1594            2197     130.519E-03     132.929E-03
            1575            2197     130.519E-03     132.929E-03
            1595            2198     29.0934E-03     33.6003E-03
            1596            2198     29.0934E-03     33.6003E-03
            1577            2198     29.0934E-03     33.6003E-03
            1578            2198     29.0934E-03     33.6003E-03
            1596            2199     27.8227E-03     30.5777E-03
            1578            2199     27.8227E-03     30.5777E-03
            1597            2199     27.8227E-03     30.5777E-03
            1579            2199     27.8227E-03     30.5777E-03
            1580            2200     30.5265E-03     31.5982E-03
            1579            2200     30.5265E-03     31.5982E-03
            1598            2200     30.5265E-03     31.5982E-03
            1597            2200     30.5265E-03     31.5982E-03
            1599            2201     35.1424E-03     35.6360E-03
            1598            2201     35.1424E-03     35.6360E-03
            1580            2201     35.1424E-03     35.6360E-03
            1581            2201     35.1424E-03     35.6360E-03
            1599            2202     41.2996E-03     41.6374E-03
            1581            2202     41.2996E-03     41.6374E-03
            1600            2202     41.2996E-03     41.6374E-03
            1582            2202     41.2996E-03     41.6374E-03
            1582            2203     48.4676E-03     48.7704E-03
            1583            2203     48.4676E-03     48.7704E-03
            1600            2203     48.4676E-03     48.7704E-03
            1601            2203     48.4676E-03     48.7704E-03
            1602            2204     56.3133E-03     56.6097E-03
            1601            2204     56.3133E-03     56.6097E-03
            1583            2204     56.3133E-03     56.6097E-03
            1584            2204     56.3133E-03     56.6097E-03
            1584            2205     64.5620E-03     64.8262E-03
            1585            2205     64.5620E-03     64.8262E-03
            1602            2205     64.5620E-03     64.8262E-03
            1603            2205     64.5620E-03     64.8262E-03
            1585            2206     73.0507E-03     73.2395E-03
            1586            2206     73.0507E-03     73.2395E-03
            1603            2206     73.0507E-03     73.2395E-03
            1604            2206     73.0507E-03     73.2395E-03
            1586            2207     81.6407E-03     81.7135E-03
            1605            2207     81.6407E-03     81.7135E-03
            1604            2207     81.6407E-03     81.7135E-03
            1587            2207     81.6407E-03     81.7135E-03
            1588            2208     90.2117E-03     90.1098E-03
            1587            2208     90.2117E-03     90.1098E-03
            1606            2208     90.2117E-03     90.1098E-03
            1605            2208     90.2117E-03     90.1098E-03
            1588            2209     98.6841E-03     98.3552E-03
            1589            2209     98.6841E-03     98.3552E-03
            1607            2209     98.6841E-03     98.3552E-03
            1606            2209     98.6841E-03     98.3552E-03
            1608            2210     106.882E-03     106.301E-03
            1589            2210     106.882E-03     106.301E-03
            1607            2210     106.882E-03     106.301E-03
            1590            2210     106.882E-03     106.301E-03
            1590            2211     114.796E-03     113.916E-03
            1591            2211     114.796E-03     113.916E-03
            1609            2211     114.796E-03     113.916E-03
            1608            2211     114.796E-03     113.916E-03
            1609            2212     122.084E-03     121.050E-03
            1610            2212     122.084E-03     121.050E-03
            1592            2212     122.084E-03     121.050E-03
            1591            2212     122.084E-03     121.050E-03
            1592            2213     128.880E-03     127.900E-03
            1593            2213     128.880E-03     127.900E-03
            1610            2213     128.880E-03     127.900E-03
            1611            2213     128.880E-03     127.900E-03
            1611            2214     135.026E-03     133.620E-03
            1594            2214     135.026E-03     133.620E-03
            1612            2214     135.026E-03     133.620E-03
            1593            2214     135.026E-03     133.620E-03
            1613            2215     30.0279E-03     29.1685E-03
            1595            2215     30.0279E-03     29.1685E-03
            1596            2215     30.0279E-03     29.1685E-03
            1614            2215     30.0279E-03     29.1685E-03
            1614            2216     25.7676E-03     27.3823E-03
            1596            2216     25.7676E-03     27.3823E-03
            1597            2216     25.7676E-03     27.3823E-03
            1615            2216     25.7676E-03     27.3823E-03
            1615            2217     26.2785E-03     27.9133E-03
            1616            2217     26.2785E-03     27.9133E-03
            1598            2217     26.2785E-03     27.9133E-03
            1597            2217     26.2785E-03     27.9133E-03
            1598            2218     30.8420E-03     31.9138E-03
            1617            2218     30.8420E-03     31.9138E-03
            1599            2218     30.8420E-03     31.9138E-03
            1616            2218     30.8420E-03     31.9138E-03
            1600            2219     37.5303E-03     38.3678E-03
            1599            2219     37.5303E-03     38.3678E-03
            1617            2219     37.5303E-03     38.3678E-03
            1618            2219     37.5303E-03     38.3678E-03
            1600            2220     45.5575E-03     46.2785E-03
            1619            2220     45.5575E-03     46.2785E-03
            1601            2220     45.5575E-03     46.2785E-03
            1618            2220     45.5575E-03     46.2785E-03
            1619            2221     54.2765E-03     54.9744E-03
            1601            2221     54.2765E-03     54.9744E-03
            1620            2221     54.2765E-03     54.9744E-03
            1602            2221     54.2765E-03     54.9744E-03
            1603            2222     63.4508E-03     64.1295E-03
            1602            2222     63.4508E-03     64.1295E-03
            1620            2222     63.4508E-03     64.1295E-03
            1621            2222     63.4508E-03     64.1295E-03
            1604            2223     72.8693E-03     73.5390E-03
            1622            2223     72.8693E-03     73.5390E-03
            1603            2223     72.8693E-03     73.5390E-03
            1621            2223     72.8693E-03     73.5390E-03
            1622            2224     82.4341E-03     83.0796E-03
            1604            2224     82.4341E-03     83.0796E-03
            1605            2224     82.4341E-03     83.0796E-03
            1623            2224     82.4341E-03     83.0796E-03
            1624            2225     92.0319E-03     92.6633E-03
            1606            2225     92.0319E-03     92.6633E-03
            1605            2225     92.0319E-03     92.6633E-03
            1623            2225     92.0319E-03     92.6633E-03
            1607            2226     101.559E-03     102.195E-03
            1606            2226     101.559E-03     102.195E-03
            1625            2226     101.559E-03     102.195E-03
            1624            2226     101.559E-03     102.195E-03
            1607            2227     110.910E-03     111.582E-03
            1608            2227     110.910E-03     111.582E-03
            1626            2227     110.910E-03     111.582E-03
            1625            2227     110.910E-03     111.582E-03
            1626            2228     119.882E-03     120.728E-03
            1608            2228     119.882E-03     120.728E-03
            1609            2228     119.882E-03     120.728E-03
            1627            2228     119.882E-03     120.728E-03
            1627            2229     128.351E-03     129.443E-03
            1610            2229     128.351E-03     129.443E-03
            1628            2229     128.351E-03     129.443E-03
            1609            2229     128.351E-03     129.443E-03
            1628            2230     136.364E-03     137.578E-03
            1610            2230     136.364E-03     137.578E-03
            1629            2230     136.364E-03     137.578E-03
            1611            2230     136.364E-03     137.578E-03
            1611            2231     143.149E-03     143.753E-03
            1630            2231     143.149E-03     143.753E-03
            1629            2231     143.149E-03     143.753E-03
            1612            2231     143.149E-03     143.753E-03
            1613            2232     27.4153E-03     25.2996E-03
            1632            2232     27.4153E-03     25.2996E-03
            1614            2232     27.4153E-03     25.2996E-03
            1631            2232     27.4153E-03     25.2996E-03
            1614            2233     23.8978E-03     23.3977E-03
            1633            2233     23.8978E-03     23.3977E-03
            1632            2233     23.8978E-03     23.3977E-03
            1615            2233     23.8978E-03     23.3977E-03
            1615            2234     23.3337E-03     24.4465E-03
            1616            2234     23.3337E-03     24.4465E-03
            1634            2234     23.3337E-03     24.4465E-03
            1633            2234     23.3337E-03     24.4465E-03
            1635            2235     27.4147E-03     28.8259E-03
            1616            2235     27.4147E-03     28.8259E-03
            1617            2235     27.4147E-03     28.8259E-03
            1634            2235     27.4147E-03     28.8259E-03
            1636            2236     34.6232E-03     35.9151E-03
            1618            2236     34.6232E-03     35.9151E-03
            1617            2236     34.6232E-03     35.9151E-03
            1635            2236     34.6232E-03     35.9151E-03
            1637            2237     43.2969E-03     44.5175E-03
            1636            2237     43.2969E-03     44.5175E-03
            1618            2237     43.2969E-03     44.5175E-03
            1619            2237     43.2969E-03     44.5175E-03
            1637            2238     52.7811E-03     53.9598E-03
            1638            2238     52.7811E-03     53.9598E-03
            1619            2238     52.7811E-03     53.9598E-03
            1620            2238     52.7811E-03     53.9598E-03
            1639            2239     62.6767E-03     63.8700E-03
            1620            2239     62.6767E-03     63.8700E-03
            1638            2239     62.6767E-03     63.8700E-03
            1621            2239     62.6767E-03     63.8700E-03
            1640            2240     72.8450E-03     74.0715E-03
            1622            2240     72.8450E-03     74.0715E-03
            1621            2240     72.8450E-03     74.0715E-03
            1639            2240     72.8450E-03     74.0715E-03
            1641            2241     83.1561E-03     84.4567E-03
            1622            2241     83.1561E-03     84.4567E-03
            1640            2241     83.1561E-03     84.4567E-03
            1623            2241     83.1561E-03     84.4567E-03
            1624            2242     93.5653E-03     94.9599E-03
            1642            2242     93.5653E-03     94.9599E-03
            1623            2242     93.5653E-03     94.9599E-03
            1641            2242     93.5653E-03     94.9599E-03
            1625            2243     103.936E-03     105.500E-03
            1624            2243     103.936E-03     105.500E-03
            1642            2243     103.936E-03     105.500E-03
            1643            2243     103.936E-03     105.500E-03
            1644            2244     114.197E-03     115.972E-03
            1643            2244     114.197E-03     115.972E-03
            1625            2244     114.197E-03     115.972E-03
            1626            2244     114.197E-03     115.972E-03
            1627            2245     124.103E-03     126.182E-03
            1645            2245     124.103E-03     126.182E-03
            1644            2245     124.103E-03     126.182E-03
            1626            2245     124.103E-03     126.182E-03
            1627            2246     133.576E-03     135.879E-03
            1628            2246     133.576E-03     135.879E-03
            1645            2246     133.576E-03     135.879E-03
            1646            2246     133.576E-03     135.879E-03
            1629            2247     142.160E-03     144.430E-03
            1647            2247     142.160E-03     144.430E-03
            1628            2247     142.160E-03     144.430E-03
            1646            2247     142.160E-03     144.430E-03
            1648            2248     149.482E-03     151.561E-03
            1647            2248     149.482E-03     151.561E-03
            1630            2248     149.482E-03     151.561E-03
            1629            2248     149.482E-03     151.561E-03
            1649            2249     25.2000E-03     22.3204E-03
            1631            2249     25.2000E-03     22.3204E-03
            1650            2249     25.2000E-03     22.3204E-03
            1632            2249     25.2000E-03     22.3204E-03
            1633            2250     20.9437E-03     19.6285E-03
            1632            2250     20.9437E-03     19.6285E-03
            1650            2250     20.9437E-03     19.6285E-03
            1651            2250     20.9437E-03     19.6285E-03
            1634            2251     20.5206E-03     20.8950E-03
            1652            2251     20.5206E-03     20.8950E-03
            1651            2251     20.5206E-03     20.8950E-03
            1633            2251     20.5206E-03     20.8950E-03
            1652            2252     24.6365E-03     26.0970E-03
            1634            2252     24.6365E-03     26.0970E-03
            1635            2252     24.6365E-03     26.0970E-03
            1653            2252     24.6365E-03     26.0970E-03
            1653            2253     32.2078E-03     33.9058E-03
            1635            2253     32.2078E-03     33.9058E-03
            1636            2253     32.2078E-03     33.9058E-03
            1654            2253     32.2078E-03     33.9058E-03
            1636            2254     41.4823E-03     43.1743E-03
            1637            2254     41.4823E-03     43.1743E-03
            1655            2254     41.4823E-03     43.1743E-03
            1654            2254     41.4823E-03     43.1743E-03
            1638            2255     51.5113E-03     53.1999E-03
            1655            2255     51.5113E-03     53.1999E-03
            1656            2255     51.5113E-03     53.1999E-03
            1637            2255     51.5113E-03     53.1999E-03
            1657            2256     61.9433E-03     63.6637E-03
            1638            2256     61.9433E-03     63.6637E-03
            1656            2256     61.9433E-03     63.6637E-03
            1639            2256     61.9433E-03     63.6637E-03
            1640            2257     72.6134E-03     74.4134E-03
            1658            2257     72.6134E-03     74.4134E-03
            1657            2257     72.6134E-03     74.4134E-03
            1639            2257     72.6134E-03     74.4134E-03
            1641            2258     83.4667E-03     85.3806E-03
            1659            2258     83.4667E-03     85.3806E-03
            1640            2258     83.4667E-03     85.3806E-03
            1658            2258     83.4667E-03     85.3806E-03
            1641            2259     94.4039E-03     96.5049E-03
            1659            2259     94.4039E-03     96.5049E-03
            1660            2259     94.4039E-03     96.5049E-03
            1642            2259     94.4039E-03     96.5049E-03
            1660            2260     105.456E-03     107.749E-03
            1661            2260     105.456E-03     107.749E-03
            1643            2260     105.456E-03     107.749E-03
            1642            2260     105.456E-03     107.749E-03
            1662            2261     116.394E-03     118.996E-03
            1643            2261     116.394E-03     118.996E-03
            1661            2261     116.394E-03     118.996E-03
            1644            2261     116.394E-03     118.996E-03
            1645            2262     127.188E-03     129.995E-03
            1644            2262     127.188E-03     129.995E-03
            1663            2262     127.188E-03     129.995E-03
            1662            2262     127.188E-03     129.995E-03
            1645            2263     137.420E-03     140.331E-03
            1664            2263     137.420E-03     140.331E-03
            1646            2263     137.420E-03     140.331E-03
            1663            2263     137.420E-03     140.331E-03
            1665            2264     146.658E-03     149.510E-03
            1646            2264     146.658E-03     149.510E-03
            1664            2264     146.658E-03     149.510E-03
            1647            2264     146.658E-03     149.510E-03
            1665            2265     155.265E-03     156.950E-03
            1666            2265     155.265E-03     156.950E-03
            1647            2265     155.265E-03     156.950E-03
            1648            2265     155.265E-03     156.950E-03
            1667            2266     23.3906E-03     19.9411E-03
            1668            2266     23.3906E-03     19.9411E-03
            1649            2266     23.3906E-03     19.9411E-03
            1650            2266     23.3906E-03     19.9411E-03
            1668            2267     18.3865E-03     16.2804E-03
            1650            2267     18.3865E-03     16.2804E-03
            1669            2267     18.3865E-03     16.2804E-03
            1651            2267     18.3865E-03     16.2804E-03
            1651            2268     17.5401E-03     17.5427E-03
            1669            2268     17.5401E-03     17.5427E-03
            1652            2268     17.5401E-03     17.5427E-03
            1670            2268     17.5401E-03     17.5427E-03
            1671            2269     22.0118E-03     23.5131E-03
            1670            2269     22.0118E-03     23.5131E-03
            1652            2269     22.0118E-03     23.5131E-03
            1653            2269     22.0118E-03     23.5131E-03
            1654            2270     30.1365E-03     32.1506E-03
            1671            2270     30.1365E-03     32.1506E-03
            1672            2270     30.1365E-03     32.1506E-03
            1653            2270     30.1365E-03     32.1506E-03
            1672            2271     39.8763E-03     41.9989E-03
            1655            2271     39.8763E-03     41.9989E-03
            1654            2271     39.8763E-03     41.9989E-03
            1673            2271     39.8763E-03     41.9989E-03
            1674            2272     50.2745E-03     52.4435E-03
            1655            2272     50.2745E-03     52.4435E-03
            1673            2272     50.2745E-03     52.4435E-03
            1656            2272     50.2745E-03     52.4435E-03
            1656            2273     61.0318E-03     63.2528E-03
            1674            2273     61.0318E-03     63.2528E-03
            1675            2273     61.0318E-03     63.2528E-03
            1657            2273     61.0318E-03     63.2528E-03
            1657            2274     71.9978E-03     74.3134E-03
            1675            2274     71.9978E-03     74.3134E-03
            1658            2274     71.9978E-03     74.3134E-03
            1676            2274     71.9978E-03     74.3134E-03
            1676            2275     83.1174E-03     85.5781E-03
            1658            2275     83.1174E-03     85.5781E-03
            1659            2275     83.1174E-03     85.5781E-03
            1677            2275     83.1174E-03     85.5781E-03
            1659            2276     94.4179E-03     97.0512E-03
            1660            2276     94.4179E-03     97.0512E-03
            1677            2276     94.4179E-03     97.0512E-03
            1678            2276     94.4179E-03     97.0512E-03
            1679            2277     105.801E-03     108.687E-03
            1661            2277     105.801E-03     108.687E-03
            1660            2277     105.801E-03     108.687E-03
            1678            2277     105.801E-03     108.687E-03
            1680            2278     117.416E-03     120.455E-03
            1679            2278     117.416E-03     120.455E-03
            1661            2278     117.416E-03     120.455E-03
            1662            2278     117.416E-03     120.455E-03
            1662            2279     128.910E-03     132.167E-03
            1680            2279     128.910E-03     132.167E-03
            1663            2279     128.910E-03     132.167E-03
            1681            2279     128.910E-03     132.167E-03
            1664            2280     140.065E-03     143.320E-03
            1682            2280     140.065E-03     143.320E-03
            1663            2280     140.065E-03     143.320E-03
            1681            2280     140.065E-03     143.320E-03
            1683            2281     150.616E-03     153.257E-03
            1664            2281     150.616E-03     153.257E-03
            1665            2281     150.616E-03     153.257E-03
            1682            2281     150.616E-03     153.257E-03
            1683            2282     159.866E-03     162.086E-03
            1666            2282     159.866E-03     162.086E-03
            1684            2282     159.866E-03     162.086E-03
            1665            2282     159.866E-03     162.086E-03
            1686            2283     22.5268E-03     18.6230E-03
            1668            2283     22.5268E-03     18.6230E-03
            1667            2283     22.5268E-03     18.6230E-03
            1685            2283     22.5268E-03     18.6230E-03
            1668            2284     16.1412E-03     13.5409E-03
            1687            2284     16.1412E-03     13.5409E-03
            1686            2284     16.1412E-03     13.5409E-03
            1669            2284     16.1412E-03     13.5409E-03
            1688            2285     14.6668E-03     14.3694E-03
            1669            2285     14.6668E-03     14.3694E-03
            1670            2285     14.6668E-03     14.3694E-03
            1687            2285     14.6668E-03     14.3694E-03
            1689            2286     19.5549E-03     21.1494E-03
            1688            2286     19.5549E-03     21.1494E-03
            1671            2286     19.5549E-03     21.1494E-03
            1670            2286     19.5549E-03     21.1494E-03
            1671            2287     28.2535E-03     30.5694E-03
            1689            2287     28.2535E-03     30.5694E-03
            1690            2287     28.2535E-03     30.5694E-03
            1672            2287     28.2535E-03     30.5694E-03
            1672            2288     38.3213E-03     40.8544E-03
            1691            2288     38.3213E-03     40.8544E-03
            1673            2288     38.3213E-03     40.8544E-03
            1690            2288     38.3213E-03     40.8544E-03
            1674            2289     48.9704E-03     51.5724E-03
            1691            2289     48.9704E-03     51.5724E-03
            1692            2289     48.9704E-03     51.5724E-03
            1673            2289     48.9704E-03     51.5724E-03
            1674            2290     59.8442E-03     62.5189E-03
            1692            2290     59.8442E-03     62.5189E-03
            1675            2290     59.8442E-03     62.5189E-03
            1693            2290     59.8442E-03     62.5189E-03
            1694            2291     70.8944E-03     73.6564E-03
            1675            2291     70.8944E-03     73.6564E-03
            1693            2291     70.8944E-03     73.6564E-03
            1676            2291     70.8944E-03     73.6564E-03
            1695            2292     82.0936E-03     84.9804E-03
            1676            2292     82.0936E-03     84.9804E-03
            1677            2292     82.0936E-03     84.9804E-03
            1694            2292     82.0936E-03     84.9804E-03
            1696            2293     93.4446E-03     96.4939E-03
            1677            2293     93.4446E-03     96.4939E-03
            1678            2293     93.4446E-03     96.4939E-03
            1695            2293     93.4446E-03     96.4939E-03
            1697            2294     105.056E-03     108.268E-03
            1696            2294     105.056E-03     108.268E-03
            1679            2294     105.056E-03     108.268E-03
            1678            2294     105.056E-03     108.268E-03
            1680            2295     116.876E-03     120.276E-03
            1679            2295     116.876E-03     120.276E-03
            1697            2295     116.876E-03     120.276E-03
            1698            2295     116.876E-03     120.276E-03
            1680            2296     129.243E-03     132.583E-03
            1681            2296     129.243E-03     132.583E-03
            1698            2296     129.243E-03     132.583E-03
            1699            2296     129.243E-03     132.583E-03
            1681            2297     141.664E-03     144.897E-03
            1682            2297     141.664E-03     144.897E-03
            1700            2297     141.664E-03     144.897E-03
            1699            2297     141.664E-03     144.897E-03
            1701            2298     153.468E-03     156.511E-03
            1683            2298     153.468E-03     156.511E-03
            1682            2298     153.468E-03     156.511E-03
            1700            2298     153.468E-03     156.511E-03
            1684            2299     164.608E-03     166.382E-03
            1701            2299     164.608E-03     166.382E-03
            1702            2299     164.608E-03     166.382E-03
            1683            2299     164.608E-03     166.382E-03
            1686            2300     22.4924E-03     18.5251E-03
            1685            2300     22.4924E-03     18.5251E-03
            1703            2300     22.4924E-03     18.5251E-03
            1704            2300     22.4924E-03     18.5251E-03
            1704            2301     14.9385E-03     11.6347E-03
            1687            2301     14.9385E-03     11.6347E-03
            1686            2301     14.9385E-03     11.6347E-03
            1705            2301     14.9385E-03     11.6347E-03
            1705            2302     12.3124E-03     11.7144E-03
            1688            2302     12.3124E-03     11.7144E-03
            1706            2302     12.3124E-03     11.7144E-03
            1687            2302     12.3124E-03     11.7144E-03
            1706            2303     17.1847E-03     19.1082E-03
            1689            2303     17.1847E-03     19.1082E-03
            1688            2303     17.1847E-03     19.1082E-03
            1707            2303     17.1847E-03     19.1082E-03
            1708            2304     26.4325E-03     29.1492E-03
            1690            2304     26.4325E-03     29.1492E-03
            1689            2304     26.4325E-03     29.1492E-03
            1707            2304     26.4325E-03     29.1492E-03
            1708            2305     36.8510E-03     39.7824E-03
            1691            2305     36.8510E-03     39.7824E-03
            1709            2305     36.8510E-03     39.7824E-03
            1690            2305     36.8510E-03     39.7824E-03
            1692            2306     47.5377E-03     50.5677E-03
            1709            2306     47.5377E-03     50.5677E-03
            1710            2306     47.5377E-03     50.5677E-03
            1691            2306     47.5377E-03     50.5677E-03
            1693            2307     58.3928E-03     61.4785E-03
            1711            2307     58.3928E-03     61.4785E-03
            1710            2307     58.3928E-03     61.4785E-03
            1692            2307     58.3928E-03     61.4785E-03
            1711            2308     69.3412E-03     72.4887E-03
            1693            2308     69.3412E-03     72.4887E-03
            1694            2308     69.3412E-03     72.4887E-03
            1712            2308     69.3412E-03     72.4887E-03
            1712            2309     80.4125E-03     83.6270E-03
            1713            2309     80.4125E-03     83.6270E-03
            1694            2309     80.4125E-03     83.6270E-03
            1695            2309     80.4125E-03     83.6270E-03
            1713            2310     91.6395E-03     94.9526E-03
            1714            2310     91.6395E-03     94.9526E-03
            1696            2310     91.6395E-03     94.9526E-03
            1695            2310     91.6395E-03     94.9526E-03
            1696            2311     103.122E-03     106.524E-03
            1697            2311     103.122E-03     106.524E-03
            1715            2311     103.122E-03     106.524E-03
            1714            2311     103.122E-03     106.524E-03
            1715            2312     115.037E-03     118.530E-03
            1697            2312     115.037E-03     118.530E-03
            1698            2312     115.037E-03     118.530E-03
            1716            2312     115.037E-03     118.530E-03
            1717            2313     127.545E-03     131.030E-03
            1698            2313     127.545E-03     131.030E-03
            1699            2313     127.545E-03     131.030E-03
            1716            2313     127.545E-03     131.030E-03
            1718            2314     141.491E-03     144.516E-03
            1717            2314     141.491E-03     144.516E-03
            1700            2314     141.491E-03     144.516E-03
            1699            2314     141.491E-03     144.516E-03
            1718            2315     155.782E-03     158.320E-03
            1719            2315     155.782E-03     158.320E-03
            1701            2315     155.782E-03     158.320E-03
            1700            2315     155.782E-03     158.320E-03
            1701            2316     168.282E-03     171.006E-03
            1720            2316     168.282E-03     171.006E-03
            1702            2316     168.282E-03     171.006E-03
            1719            2316     168.282E-03     171.006E-03
            1722            2317     24.2428E-03     19.8063E-03
            1703            2317     24.2428E-03     19.8063E-03
            1721            2317     24.2428E-03     19.8063E-03
            1704            2317     24.2428E-03     19.8063E-03
            1723            2318     13.9104E-03     10.4694E-03
            1704            2318     13.9104E-03     10.4694E-03
            1705            2318     13.9104E-03     10.4694E-03
            1722            2318     13.9104E-03     10.4694E-03
            1723            2319     9.34501E-03     9.08202E-03
            1724            2319     9.34501E-03     9.08202E-03
            1706            2319     9.34501E-03     9.08202E-03
            1705            2319     9.34501E-03     9.08202E-03
            1724            2320     14.8767E-03     17.5150E-03
            1707            2320     14.8767E-03     17.5150E-03
            1706            2320     14.8767E-03     17.5150E-03
            1725            2320     14.8767E-03     17.5150E-03
            1708            2321     24.9643E-03     28.1655E-03
            1725            2321     24.9643E-03     28.1655E-03
            1726            2321     24.9643E-03     28.1655E-03
            1707            2321     24.9643E-03     28.1655E-03
            1726            2322     35.4789E-03     38.8750E-03
            1709            2322     35.4789E-03     38.8750E-03
            1727            2322     35.4789E-03     38.8750E-03
            1708            2322     35.4789E-03     38.8750E-03
            1727            2323     46.1018E-03     49.5787E-03
            1728            2323     46.1018E-03     49.5787E-03
            1709            2323     46.1018E-03     49.5787E-03
            1710            2323     46.1018E-03     49.5787E-03
            1728            2324     56.7652E-03     60.2661E-03
            1711            2324     56.7652E-03     60.2661E-03
            1729            2324     56.7652E-03     60.2661E-03
            1710            2324     56.7652E-03     60.2661E-03
            1711            2325     67.4786E-03     70.9777E-03
            1729            2325     67.4786E-03     70.9777E-03
            1730            2325     67.4786E-03     70.9777E-03
            1712            2325     67.4786E-03     70.9777E-03
            1730            2326     78.2546E-03     81.7429E-03
            1712            2326     78.2546E-03     81.7429E-03
            1731            2326     78.2546E-03     81.7429E-03
            1713            2326     78.2546E-03     81.7429E-03
            1732            2327     89.1853E-03     92.6408E-03
            1713            2327     89.1853E-03     92.6408E-03
            1731            2327     89.1853E-03     92.6408E-03
            1714            2327     89.1853E-03     92.6408E-03
            1715            2328     100.317E-03     103.772E-03
            1732            2328     100.317E-03     103.772E-03
            1714            2328     100.317E-03     103.772E-03
            1733            2328     100.317E-03     103.772E-03
            1716            2329     111.946E-03     115.331E-03
            1715            2329     111.946E-03     115.331E-03
            1733            2329     111.946E-03     115.331E-03
            1734            2329     111.946E-03     115.331E-03
            1735            2330     124.287E-03     127.681E-03
            1717            2330     124.287E-03     127.681E-03
            1716            2330     124.287E-03     127.681E-03
            1734            2330     124.287E-03     127.681E-03
            1735            2331     138.089E-03     141.263E-03
            1736            2331     138.089E-03     141.263E-03
            1717            2331     138.089E-03     141.263E-03
            1718            2331     138.089E-03     141.263E-03
            1719            2332     155.326E-03     157.453E-03
            1718            2332     155.326E-03     157.453E-03
            1736            2332     155.326E-03     157.453E-03
            1737            2332     155.326E-03     157.453E-03
            1737            2333     172.463E-03     172.992E-03
            1720            2333     172.463E-03     172.992E-03
            1738            2333     172.463E-03     172.992E-03
            1719            2333     172.463E-03     172.992E-03
            1721            2334     24.4918E-03     22.2089E-03
            1740            2334     24.4918E-03     22.2089E-03
            1739            2334     24.4918E-03     22.2089E-03
            1722            2334     24.4918E-03     22.2089E-03
            1740            2335     10.8477E-03     8.82823E-03
            1722            2335     10.8477E-03     8.82823E-03
            1741            2335     10.8477E-03     8.82823E-03
            1723            2335     10.8477E-03     8.82823E-03
            1741            2336     6.71361E-03     7.46951E-03
            1742            2336     6.71361E-03     7.46951E-03
            1724            2336     6.71361E-03     7.46951E-03
            1723            2336     6.71361E-03     7.46951E-03
            1724            2337     13.7676E-03     17.1609E-03
            1725            2337     13.7676E-03     17.1609E-03
            1743            2337     13.7676E-03     17.1609E-03
            1742            2337     13.7676E-03     17.1609E-03
            1726            2338     24.1457E-03     27.9123E-03
            1744            2338     24.1457E-03     27.9123E-03
            1725            2338     24.1457E-03     27.9123E-03
            1743            2338     24.1457E-03     27.9123E-03
            1726            2339     34.5018E-03     38.4387E-03
            1727            2339     34.5018E-03     38.4387E-03
            1745            2339     34.5018E-03     38.4387E-03
            1744            2339     34.5018E-03     38.4387E-03
            1746            2340     44.8660E-03     48.8451E-03
            1745            2340     44.8660E-03     48.8451E-03
            1728            2340     44.8660E-03     48.8451E-03
            1727            2340     44.8660E-03     48.8451E-03
            1728            2341     55.1942E-03     59.1574E-03
            1747            2341     55.1942E-03     59.1574E-03
            1746            2341     55.1942E-03     59.1574E-03
            1729            2341     55.1942E-03     59.1574E-03
            1730            2342     65.5322E-03     69.4151E-03
            1748            2342     65.5322E-03     69.4151E-03
            1729            2342     65.5322E-03     69.4151E-03
            1747            2342     65.5322E-03     69.4151E-03
            1730            2343     75.9203E-03     79.6777E-03
            1749            2343     75.9203E-03     79.6777E-03
            1731            2343     75.9203E-03     79.6777E-03
            1748            2343     75.9203E-03     79.6777E-03
            1732            2344     86.3845E-03     89.9672E-03
            1750            2344     86.3845E-03     89.9672E-03
            1749            2344     86.3845E-03     89.9672E-03
            1731            2344     86.3845E-03     89.9672E-03
            1733            2345     97.0988E-03     100.458E-03
            1751            2345     97.0988E-03     100.458E-03
            1732            2345     97.0988E-03     100.458E-03
            1750            2345     97.0988E-03     100.458E-03
            1752            2346     108.108E-03     111.240E-03
            1751            2346     108.108E-03     111.240E-03
            1734            2346     108.108E-03     111.240E-03
            1733            2346     108.108E-03     111.240E-03
            1752            2347     119.987E-03     122.867E-03
            1734            2347     119.987E-03     122.867E-03
            1753            2347     119.987E-03     122.867E-03
            1735            2347     119.987E-03     122.867E-03
            1753            2348     132.871E-03     135.693E-03
            1736            2348     132.871E-03     135.693E-03
            1754            2348     132.871E-03     135.693E-03
            1735            2348     132.871E-03     135.693E-03
            1737            2349     149.107E-03     151.984E-03
            1754            2349     149.107E-03     151.984E-03
            1755            2349     149.107E-03     151.984E-03
            1736            2349     149.107E-03     151.984E-03
            1756            2350     171.417E-03     173.216E-03
            1737            2350     171.417E-03     173.216E-03
            1738            2350     171.417E-03     173.216E-03
            1755            2350     171.417E-03     173.216E-03
            2271            2785     301.024E-06     337.510E-06
            2290            2785     301.024E-06     337.510E-06
            2289            2785     301.024E-06     337.510E-06
            2272            2785     301.024E-06     337.510E-06
            2291            2786     279.324E-06     315.912E-06
            2290            2786     279.324E-06     315.912E-06
            2272            2786     279.324E-06     315.912E-06
            2273            2786     279.324E-06     315.912E-06
            2273            2787     280.035E-06     311.667E-06
            2291            2787     280.035E-06     311.667E-06
            2292            2787     280.035E-06     311.667E-06
            2274            2787     280.035E-06     311.667E-06
            2275            2788     277.396E-06     307.628E-06
            2292            2788     277.396E-06     307.628E-06
            2274            2788     277.396E-06     307.628E-06
            2293            2788     277.396E-06     307.628E-06
            2275            2789     270.926E-06     301.531E-06
            2294            2789     270.926E-06     301.531E-06
            2293            2789     270.926E-06     301.531E-06
            2276            2789     270.926E-06     301.531E-06
            2294            2790     268.363E-06     297.443E-06
            2295            2790     268.363E-06     297.443E-06
            2276            2790     268.363E-06     297.443E-06
            2277            2790     268.363E-06     297.443E-06
            2295            2791     265.160E-06     293.078E-06
            2278            2791     265.160E-06     293.078E-06
            2296            2791     265.160E-06     293.078E-06
            2277            2791     265.160E-06     293.078E-06
            2297            2792     263.362E-06     289.653E-06
            2296            2792     263.362E-06     289.653E-06
            2278            2792     263.362E-06     289.653E-06
            2279            2792     263.362E-06     289.653E-06
            2279            2793     261.517E-06     286.101E-06
            2298            2793     261.517E-06     286.101E-06
            2280            2793     261.517E-06     286.101E-06
            2297            2793     261.517E-06     286.101E-06
            2280            2794     260.358E-06     283.046E-06
            2281            2794     260.358E-06     283.046E-06
            2298            2794     260.358E-06     283.046E-06
            2299            2794     260.358E-06     283.046E-06
            2299            2795     259.408E-06     280.038E-06
            2282            2795     259.408E-06     280.038E-06
            2281            2795     259.408E-06     280.038E-06
            2300            2795     259.408E-06     280.038E-06
            2282            2796     258.916E-06     277.335E-06
            2283            2796     258.916E-06     277.335E-06
            2300            2796     258.916E-06     277.335E-06
            2301            2796     258.916E-06     277.335E-06
            2283            2797     258.718E-06     274.834E-06
            2301            2797     258.718E-06     274.834E-06
            2302            2797     258.718E-06     274.834E-06
            2284            2797     258.718E-06     274.834E-06
            2284            2798     258.975E-06     272.583E-06
            2285            2798     258.975E-06     272.583E-06
            2303            2798     258.975E-06     272.583E-06
            2302            2798     258.975E-06     272.583E-06
            2285            2799     259.799E-06     270.860E-06
            2303            2799     259.799E-06     270.860E-06
            2304            2799     259.799E-06     270.860E-06
            2286            2799     259.799E-06     270.860E-06
            2287            2800     261.364E-06     269.868E-06
            2305            2800     261.364E-06     269.868E-06
            2286            2800     261.364E-06     269.868E-06
            2304            2800     261.364E-06     269.868E-06
            2288            2801     264.008E-06     266.891E-06
            2305            2801     264.008E-06     266.891E-06
            2287            2801     264.008E-06     266.891E-06
            2306            2801     264.008E-06     266.891E-06
            2290            2802     219.076E-06     231.065E-06
            2308            2802     219.076E-06     231.065E-06
            2289            2802     219.076E-06     231.065E-06
            2307            2802     219.076E-06     231.065E-06
            2309            2803     303.588E-06     309.056E-06
            2291            2803     303.588E-06     309.056E-06
            2308            2803     303.588E-06     309.056E-06
            2290            2803     303.588E-06     309.056E-06
            2309            2804     305.289E-06     305.071E-06
            2292            2804     305.289E-06     305.071E-06
            2291            2804     305.289E-06     305.071E-06
            2310            2804     305.289E-06     305.071E-06
            2310            2805     290.372E-06     295.773E-06
            2293            2805     290.372E-06     295.773E-06
            2311            2805     290.372E-06     295.773E-06
            2292            2805     290.372E-06     295.773E-06
            2311            2806     286.734E-06     290.197E-06
            2312            2806     286.734E-06     290.197E-06
            2294            2806     286.734E-06     290.197E-06
            2293            2806     286.734E-06     290.197E-06
            2313            2807     282.080E-06     286.121E-06
            2294            2807     282.080E-06     286.121E-06
            2312            2807     282.080E-06     286.121E-06
            2295            2807     282.080E-06     286.121E-06
            2296            2808     279.528E-06     283.485E-06
            2313            2808     279.528E-06     283.485E-06
            2295            2808     279.528E-06     283.485E-06
            2314            2808     279.528E-06     283.485E-06
            2296            2809     276.502E-06     280.446E-06
            2315            2809     276.502E-06     280.446E-06
            2314            2809     276.502E-06     280.446E-06
            2297            2809     276.502E-06     280.446E-06
            2298            2810     274.187E-06     278.059E-06
            2315            2810     274.187E-06     278.059E-06
            2297            2810     274.187E-06     278.059E-06
            2316            2810     274.187E-06     278.059E-06
            2298            2811     271.796E-06     275.685E-06
            2299            2811     271.796E-06     275.685E-06
            2317            2811     271.796E-06     275.685E-06
            2316            2811     271.796E-06     275.685E-06
            2318            2812     269.900E-06     273.670E-06
            2317            2812     269.900E-06     273.670E-06
            2300            2812     269.900E-06     273.670E-06
            2299            2812     269.900E-06     273.670E-06
            2319            2813     268.130E-06     271.831E-06
            2301            2813     268.130E-06     271.831E-06
            2318            2813     268.130E-06     271.831E-06
            2300            2813     268.130E-06     271.831E-06
            2319            2814     266.477E-06     270.568E-06
            2320            2814     266.477E-06     270.568E-06
            2301            2814     266.477E-06     270.568E-06
            2302            2814     266.477E-06     270.568E-06
            2302            2815     266.050E-06     268.526E-06
            2321            2815     266.050E-06     268.526E-06
            2320            2815     266.050E-06     268.526E-06
            2303            2815     266.050E-06     268.526E-06
            2303            2816     264.298E-06     269.208E-06
            2322            2816     264.298E-06     269.208E-06
            2321            2816     264.298E-06     269.208E-06
            2304            2816     264.298E-06     269.208E-06
            2322            2817     265.174E-06     272.345E-06
            2305            2817     265.174E-06     272.345E-06
            2323            2817     265.174E-06     272.345E-06
            2304            2817     265.174E-06     272.345E-06
            2323            2818     282.360E-06     261.689E-06
            2305            2818     282.360E-06     261.689E-06
            2324            2818     282.360E-06     261.689E-06
            2306            2818     282.360E-06     261.689E-06
            2326            2819     167.460E-06     194.862E-06
            2307            2819     167.460E-06     194.862E-06
            2325            2819     167.460E-06     194.862E-06
            2308            2819     167.460E-06     194.862E-06
            2327            2820     293.417E-06     266.337E-06
            2309            2820     293.417E-06     266.337E-06
            2326            2820     293.417E-06     266.337E-06
            2308            2820     293.417E-06     266.337E-06
            2328            2821     311.925E-06     284.519E-06
            2309            2821     311.925E-06     284.519E-06
            2327            2821     311.925E-06     284.519E-06
            2310            2821     311.925E-06     284.519E-06
            2328            2822     308.478E-06     283.565E-06
            2311            2822     308.478E-06     283.565E-06
            2310            2822     308.478E-06     283.565E-06
            2329            2822     308.478E-06     283.565E-06
            2311            2823     304.189E-06     280.342E-06
            2330            2823     304.189E-06     280.342E-06
            2312            2823     304.189E-06     280.342E-06
            2329            2823     304.189E-06     280.342E-06
            2330            2824     301.098E-06     278.672E-06
            2312            2824     301.098E-06     278.672E-06
            2331            2824     301.098E-06     278.672E-06
            2313            2824     301.098E-06     278.672E-06
            2313            2825     297.781E-06     276.739E-06
            2314            2825     297.781E-06     276.739E-06
            2332            2825     297.781E-06     276.739E-06
            2331            2825     297.781E-06     276.739E-06
            2314            2826     294.878E-06     275.269E-06
            2315            2826     294.878E-06     275.269E-06
            2332            2826     294.878E-06     275.269E-06
            2333            2826     294.878E-06     275.269E-06
            2334            2827     291.778E-06     273.830E-06
            2316            2827     291.778E-06     273.830E-06
            2315            2827     291.778E-06     273.830E-06
            2333            2827     291.778E-06     273.830E-06
            2316            2828     288.970E-06     272.739E-06
            2335            2828     288.970E-06     272.739E-06
            2317            2828     288.970E-06     272.739E-06
            2334            2828     288.970E-06     272.739E-06
            2335            2829     286.197E-06     271.875E-06
            2317            2829     286.197E-06     271.875E-06
            2318            2829     286.197E-06     271.875E-06
            2336            2829     286.197E-06     271.875E-06
            2319            2830     283.650E-06     271.346E-06
            2336            2830     283.650E-06     271.346E-06
            2318            2830     283.650E-06     271.346E-06
            2337            2830     283.650E-06     271.346E-06
            2338            2831     281.283E-06     271.086E-06
            2320            2831     281.283E-06     271.086E-06
            2319            2831     281.283E-06     271.086E-06
            2337            2831     281.283E-06     271.086E-06
            2339            2832     279.162E-06     271.247E-06
            2320            2832     279.162E-06     271.247E-06
            2321            2832     279.162E-06     271.247E-06
            2338            2832     279.162E-06     271.247E-06
            2322            2833     277.297E-06     271.937E-06
            2339            2833     277.297E-06     271.937E-06
            2321            2833     277.297E-06     271.937E-06
            2340            2833     277.297E-06     271.937E-06
            2340            2834     275.959E-06     273.601E-06
            2323            2834     275.959E-06     273.601E-06
            2322            2834     275.959E-06     273.601E-06
            2341            2834     275.959E-06     273.601E-06
            2341            2835     275.173E-06     275.245E-06
            2342            2835     275.173E-06     275.245E-06
            2323            2835     275.173E-06     275.245E-06
            2324            2835     275.173E-06     275.245E-06
            3393            3784     32.8133E-03     38.8003E-03
            3394            3784     32.8133E-03     38.8003E-03
            3411            3784     32.8133E-03     38.8003E-03
            3412            3784     32.8133E-03     38.8003E-03
            3412            3785     36.8835E-03     43.7064E-03
            3395            3785     36.8835E-03     43.7064E-03
            3394            3785     36.8835E-03     43.7064E-03
            3413            3785     36.8835E-03     43.7064E-03
            3395            3786     43.8941E-03     51.0014E-03
            3396            3786     43.8941E-03     51.0014E-03
            3413            3786     43.8941E-03     51.0014E-03
            3414            3786     43.8941E-03     51.0014E-03
            3397            3787     52.1854E-03     59.3987E-03
            3396            3787     52.1854E-03     59.3987E-03
            3415            3787     52.1854E-03     59.3987E-03
            3414            3787     52.1854E-03     59.3987E-03
            3397            3788     60.7281E-03     67.8517E-03
            3398            3788     60.7281E-03     67.8517E-03
            3416            3788     60.7281E-03     67.8517E-03
            3415            3788     60.7281E-03     67.8517E-03
            3417            3789     69.4296E-03     76.4520E-03
            3416            3789     69.4296E-03     76.4520E-03
            3398            3789     69.4296E-03     76.4520E-03
            3399            3789     69.4296E-03     76.4520E-03
            3399            3790     78.0913E-03     85.0055E-03
            3417            3790     78.0913E-03     85.0055E-03
            3418            3790     78.0913E-03     85.0055E-03
            3400            3790     78.0913E-03     85.0055E-03
            3401            3791     86.7473E-03     93.5514E-03
            3400            3791     86.7473E-03     93.5514E-03
            3419            3791     86.7473E-03     93.5514E-03
            3418            3791     86.7473E-03     93.5514E-03
            3401            3792     95.3364E-03     102.029E-03
            3419            3792     95.3364E-03     102.029E-03
            3420            3792     95.3364E-03     102.029E-03
            3402            3792     95.3364E-03     102.029E-03
            3421            3793     103.878E-03     110.466E-03
            3403            3793     103.878E-03     110.466E-03
            3420            3793     103.878E-03     110.466E-03
            3402            3793     103.878E-03     110.466E-03
            3403            3794     112.331E-03     118.794E-03
            3404            3794     112.331E-03     118.794E-03
            3422            3794     112.331E-03     118.794E-03
            3421            3794     112.331E-03     118.794E-03
            3404            3795     120.745E-03     127.067E-03
            3422            3795     120.745E-03     127.067E-03
            3405            3795     120.745E-03     127.067E-03
            3423            3795     120.745E-03     127.067E-03
            3424            3796     129.058E-03     135.205E-03
            3423            3796     129.058E-03     135.205E-03
            3406            3796     129.058E-03     135.205E-03
            3405            3796     129.058E-03     135.205E-03
            3425            3797     137.643E-03     143.516E-03
            3407            3797     137.643E-03     143.516E-03
            3424            3797     137.643E-03     143.516E-03
            3406            3797     137.643E-03     143.516E-03
            3408            3798     146.448E-03     152.158E-03
            3426            3798     146.448E-03     152.158E-03
            3407            3798     146.448E-03     152.158E-03
            3425            3798     146.448E-03     152.158E-03
            3408            3799     157.753E-03     163.250E-03
            3426            3799     157.753E-03     163.250E-03
            3409            3799     157.753E-03     163.250E-03
            3427            3799     157.753E-03     163.250E-03
            3409            3800     175.552E-03     179.437E-03
            3427            3800     175.552E-03     179.437E-03
            3410            3800     175.552E-03     179.437E-03
            3428            3800     175.552E-03     179.437E-03
            3411            3801     30.7922E-03     35.4960E-03
            3430            3801     30.7922E-03     35.4960E-03
            3429            3801     30.7922E-03     35.4960E-03
            3412            3801     30.7922E-03     35.4960E-03
            3430            3802     37.7393E-03     42.6470E-03
            3412            3802     37.7393E-03     42.6470E-03
            3413            3802     37.7393E-03     42.6470E-03
            3431            3802     37.7393E-03     42.6470E-03
            3413            3803     44.9890E-03     50.1074E-03
            3431            3803     44.9890E-03     50.1074E-03
            3414            3803     44.9890E-03     50.1074E-03
            3432            3803     44.9890E-03     50.1074E-03
            3414            3804     53.4904E-03     58.3820E-03
            3415            3804     53.4904E-03     58.3820E-03
            3432            3804     53.4904E-03     58.3820E-03
            3433            3804     53.4904E-03     58.3820E-03
            3434            3805     62.1048E-03     66.9257E-03
            3415            3805     62.1048E-03     66.9257E-03
            3433            3805     62.1048E-03     66.9257E-03
            3416            3805     62.1048E-03     66.9257E-03
            3417            3806     70.7836E-03     75.5825E-03
            3435            3806     70.7836E-03     75.5825E-03
            3416            3806     70.7836E-03     75.5825E-03
            3434            3806     70.7836E-03     75.5825E-03
            3418            3807     79.4863E-03     84.2488E-03
            3435            3807     79.4863E-03     84.2488E-03
            3436            3807     79.4863E-03     84.2488E-03
            3417            3807     79.4863E-03     84.2488E-03
            3418            3808     88.1932E-03     92.9109E-03
            3436            3808     88.1932E-03     92.9109E-03
            3437            3808     88.1932E-03     92.9109E-03
            3419            3808     88.1932E-03     92.9109E-03
            3420            3809     96.9143E-03     101.582E-03
            3419            3809     96.9143E-03     101.582E-03
            3437            3809     96.9143E-03     101.582E-03
            3438            3809     96.9143E-03     101.582E-03
            3421            3810     105.639E-03     110.249E-03
            3438            3810     105.639E-03     110.249E-03
            3439            3810     105.639E-03     110.249E-03
            3420            3810     105.639E-03     110.249E-03
            3439            3811     114.384E-03     118.946E-03
            3421            3811     114.384E-03     118.946E-03
            3440            3811     114.384E-03     118.946E-03
            3422            3811     114.384E-03     118.946E-03
            3422            3812     123.148E-03     127.688E-03
            3441            3812     123.148E-03     127.688E-03
            3440            3812     123.148E-03     127.688E-03
            3423            3812     123.148E-03     127.688E-03
            3424            3813     131.974E-03     136.544E-03
            3423            3813     131.974E-03     136.544E-03
            3442            3813     131.974E-03     136.544E-03
            3441            3813     131.974E-03     136.544E-03
            3442            3814     141.056E-03     145.750E-03
            3443            3814     141.056E-03     145.750E-03
            3424            3814     141.056E-03     145.750E-03
            3425            3814     141.056E-03     145.750E-03
            3426            3815     150.606E-03     155.520E-03
            3444            3815     150.606E-03     155.520E-03
            3443            3815     150.606E-03     155.520E-03
            3425            3815     150.606E-03     155.520E-03
            3445            3816     163.139E-03     167.320E-03
            3426            3816     163.139E-03     167.320E-03
            3444            3816     163.139E-03     167.320E-03
            3427            3816     163.139E-03     167.320E-03
            3446            3817     176.197E-03     177.728E-03
            3428            3817     176.197E-03     177.728E-03
            3445            3817     176.197E-03     177.728E-03
            3427            3817     176.197E-03     177.728E-03
            3448            3818     30.3859E-03     33.6483E-03
            3429            3818     30.3859E-03     33.6483E-03
            3430            3818     30.3859E-03     33.6483E-03
            3447            3818     30.3859E-03     33.6483E-03
            3431            3819     38.3412E-03     42.0324E-03
            3430            3819     38.3412E-03     42.0324E-03
            3448            3819     38.3412E-03     42.0324E-03
            3449            3819     38.3412E-03     42.0324E-03
            3431            3820     46.7865E-03     49.6922E-03
            3449            3820     46.7865E-03     49.6922E-03
            3450            3820     46.7865E-03     49.6922E-03
            3432            3820     46.7865E-03     49.6922E-03
            3451            3821     55.1703E-03     57.7401E-03
            3450            3821     55.1703E-03     57.7401E-03
            3433            3821     55.1703E-03     57.7401E-03
            3432            3821     55.1703E-03     57.7401E-03
            3434            3822     63.7443E-03     66.3090E-03
            3452            3822     63.7443E-03     66.3090E-03
            3451            3822     63.7443E-03     66.3090E-03
            3433            3822     63.7443E-03     66.3090E-03
            3434            3823     72.3012E-03     74.8978E-03
            3435            3823     72.3012E-03     74.8978E-03
            3452            3823     72.3012E-03     74.8978E-03
            3453            3823     72.3012E-03     74.8978E-03
            3436            3824     80.9390E-03     83.5590E-03
            3435            3824     80.9390E-03     83.5590E-03
            3453            3824     80.9390E-03     83.5590E-03
            3454            3824     80.9390E-03     83.5590E-03
            3455            3825     89.5978E-03     92.2386E-03
            3437            3825     89.5978E-03     92.2386E-03
            3454            3825     89.5978E-03     92.2386E-03
            3436            3825     89.5978E-03     92.2386E-03
            3437            3826     98.3098E-03     100.948E-03
            3456            3826     98.3098E-03     100.948E-03
            3438            3826     98.3098E-03     100.948E-03
            3455            3826     98.3098E-03     100.948E-03
            3456            3827     107.060E-03     109.707E-03
            3438            3827     107.060E-03     109.707E-03
            3457            3827     107.060E-03     109.707E-03
            3439            3827     107.060E-03     109.707E-03
            3458            3828     115.883E-03     118.539E-03
            3439            3828     115.883E-03     118.539E-03
            3457            3828     115.883E-03     118.539E-03
            3440            3828     115.883E-03     118.539E-03
            3458            3829     124.755E-03     127.476E-03
            3459            3829     124.755E-03     127.476E-03
            3441            3829     124.755E-03     127.476E-03
            3440            3829     124.755E-03     127.476E-03
            3441            3830     133.823E-03     136.668E-03
            3459            3830     133.823E-03     136.668E-03
            3442            3830     133.823E-03     136.668E-03
            3460            3830     133.823E-03     136.668E-03
            3443            3831     142.896E-03     146.109E-03
            3442            3831     142.896E-03     146.109E-03
            3461            3831     142.896E-03     146.109E-03
            3460            3831     142.896E-03     146.109E-03
            3444            3832     153.050E-03     156.279E-03
            3443            3832     153.050E-03     156.279E-03
            3461            3832     153.050E-03     156.279E-03
            3462            3832     153.050E-03     156.279E-03
            3462            3833     163.108E-03     166.335E-03
            3445            3833     163.108E-03     166.335E-03
            3444            3833     163.108E-03     166.335E-03
            3463            3833     163.108E-03     166.335E-03
            3464            3834     170.623E-03     174.691E-03
            3463            3834     170.623E-03     174.691E-03
            3446            3834     170.623E-03     174.691E-03
            3445            3834     170.623E-03     174.691E-03
            3465            3835     31.9093E-03     35.2129E-03
            3466            3835     31.9093E-03     35.2129E-03
            3448            3835     31.9093E-03     35.2129E-03
            3447            3835     31.9093E-03     35.2129E-03
            3467            3836     40.1315E-03     41.9128E-03
            3466            3836     40.1315E-03     41.9128E-03
            3448            3836     40.1315E-03     41.9128E-03
            3449            3836     40.1315E-03     41.9128E-03
            3450            3837     48.9313E-03     49.3828E-03
            3467            3837     48.9313E-03     49.3828E-03
            3468            3837     48.9313E-03     49.3828E-03
            3449            3837     48.9313E-03     49.3828E-03
            3468            3838     57.2199E-03     57.5422E-03
            3469            3838     57.2199E-03     57.5422E-03
            3450            3838     57.2199E-03     57.5422E-03
            3451            3838     57.2199E-03     57.5422E-03
            3452            3839     65.5041E-03     65.8789E-03
            3469            3839     65.5041E-03     65.8789E-03
            3451            3839     65.5041E-03     65.8789E-03
            3470            3839     65.5041E-03     65.8789E-03
            3470            3840     73.9291E-03     74.3665E-03
            3453            3840     73.9291E-03     74.3665E-03
            3471            3840     73.9291E-03     74.3665E-03
            3452            3840     73.9291E-03     74.3665E-03
            3471            3841     82.3778E-03     82.8976E-03
            3453            3841     82.3778E-03     82.8976E-03
            3472            3841     82.3778E-03     82.8976E-03
            3454            3841     82.3778E-03     82.8976E-03
            3455            3842     90.9061E-03     91.4757E-03
            3472            3842     90.9061E-03     91.4757E-03
            3454            3842     90.9061E-03     91.4757E-03
            3473            3842     90.9061E-03     91.4757E-03
            3473            3843     99.4523E-03     100.086E-03
            3455            3843     99.4523E-03     100.086E-03
            3456            3843     99.4523E-03     100.086E-03
            3474            3843     99.4523E-03     100.086E-03
            3474            3844     108.057E-03     108.729E-03
            3456            3844     108.057E-03     108.729E-03
            3457            3844     108.057E-03     108.729E-03
            3475            3844     108.057E-03     108.729E-03
            3475            3845     116.676E-03     117.421E-03
            3476            3845     116.676E-03     117.421E-03
            3458            3845     116.676E-03     117.421E-03
            3457            3845     116.676E-03     117.421E-03
            3458            3846     125.397E-03     126.197E-03
            3476            3846     125.397E-03     126.197E-03
            3477            3846     125.397E-03     126.197E-03
            3459            3846     125.397E-03     126.197E-03
            3477            3847     134.102E-03     135.060E-03
            3459            3847     134.102E-03     135.060E-03
            3460            3847     134.102E-03     135.060E-03
            3478            3847     134.102E-03     135.060E-03
            3460            3848     143.026E-03     144.118E-03
            3478            3848     143.026E-03     144.118E-03
            3461            3848     143.026E-03     144.118E-03
            3479            3848     143.026E-03     144.118E-03
            3461            3849     151.679E-03     153.154E-03
            3480            3849     151.679E-03     153.154E-03
            3479            3849     151.679E-03     153.154E-03
            3462            3849     151.679E-03     153.154E-03
            3480            3850     159.333E-03     161.445E-03
            3462            3850     159.333E-03     161.445E-03
            3463            3850     159.333E-03     161.445E-03
            3481            3850     159.333E-03     161.445E-03
            3463            3851     165.132E-03     166.253E-03
            3481            3851     165.132E-03     166.253E-03
            3464            3851     165.132E-03     166.253E-03
            3482            3851     165.132E-03     166.253E-03
            3465            3852     35.6724E-03     37.2932E-03
            3466            3852     35.6724E-03     37.2932E-03
            3483            3852     35.6724E-03     37.2932E-03
            3484            3852     35.6724E-03     37.2932E-03
            3485            3853     43.5841E-03     42.2522E-03
            3466            3853     43.5841E-03     42.2522E-03
            3484            3853     43.5841E-03     42.2522E-03
            3467            3853     43.5841E-03     42.2522E-03
            3486            3854     51.3355E-03     49.5865E-03
            3468            3854     51.3355E-03     49.5865E-03
            3467            3854     51.3355E-03     49.5865E-03
            3485            3854     51.3355E-03     49.5865E-03
            3486            3855     59.3338E-03     57.5700E-03
            3469            3855     59.3338E-03     57.5700E-03
            3468            3855     59.3338E-03     57.5700E-03
            3487            3855     59.3338E-03     57.5700E-03
            3488            3856     67.3921E-03     65.6819E-03
            3469            3856     67.3921E-03     65.6819E-03
            3470            3856     67.3921E-03     65.6819E-03
            3487            3856     67.3921E-03     65.6819E-03
            3488            3857     75.5876E-03     73.9517E-03
            3471            3857     75.5876E-03     73.9517E-03
            3470            3857     75.5876E-03     73.9517E-03
            3489            3857     75.5876E-03     73.9517E-03
            3489            3858     83.8597E-03     82.2952E-03
            3472            3858     83.8597E-03     82.2952E-03
            3490            3858     83.8597E-03     82.2952E-03
            3471            3858     83.8597E-03     82.2952E-03
            3490            3859     92.1406E-03     90.6747E-03
            3491            3859     92.1406E-03     90.6747E-03
            3473            3859     92.1406E-03     90.6747E-03
            3472            3859     92.1406E-03     90.6747E-03
            3473            3860     100.441E-03     99.0596E-03
            3491            3860     100.441E-03     99.0596E-03
            3474            3860     100.441E-03     99.0596E-03
            3492            3860     100.441E-03     99.0596E-03
            3474            3861     108.683E-03     107.415E-03
            3492            3861     108.683E-03     107.415E-03
            3475            3861     108.683E-03     107.415E-03
            3493            3861     108.683E-03     107.415E-03
            3476            3862     116.909E-03     115.706E-03
            3494            3862     116.909E-03     115.706E-03
            3475            3862     116.909E-03     115.706E-03
            3493            3862     116.909E-03     115.706E-03
            3477            3863     125.024E-03     123.919E-03
            3476            3863     125.024E-03     123.919E-03
            3494            3863     125.024E-03     123.919E-03
            3495            3863     125.024E-03     123.919E-03
            3496            3864     133.049E-03     131.935E-03
            3478            3864     133.049E-03     131.935E-03
            3477            3864     133.049E-03     131.935E-03
            3495            3864     133.049E-03     131.935E-03
            3497            3865     140.838E-03     139.689E-03
            3496            3865     140.838E-03     139.689E-03
            3479            3865     140.838E-03     139.689E-03
            3478            3865     140.838E-03     139.689E-03
            3479            3866     147.752E-03     146.699E-03
            3498            3866     147.752E-03     146.699E-03
            3497            3866     147.752E-03     146.699E-03
            3480            3866     147.752E-03     146.699E-03
            3499            3867     153.571E-03     152.507E-03
            3480            3867     153.571E-03     152.507E-03
            3498            3867     153.571E-03     152.507E-03
            3481            3867     153.571E-03     152.507E-03
            3482            3868     157.072E-03     155.721E-03
            3499            3868     157.072E-03     155.721E-03
            3481            3868     157.072E-03     155.721E-03
            3500            3868     157.072E-03     155.721E-03
            3977            4243     41.7159E-03     55.5291E-03
            3959            4243     41.7159E-03     55.5291E-03
            3960            4243     41.7159E-03     55.5291E-03
            3978            4243     41.7159E-03     55.5291E-03
            3979            4244     37.3994E-03     32.7011E-03
            3978            4244     37.3994E-03     32.7011E-03
            3960            4244     37.3994E-03     32.7011E-03
            3961            4244     37.3994E-03     32.7011E-03
            3961            4245     43.3785E-03     31.3201E-03
            3980            4245     43.3785E-03     31.3201E-03
            3962            4245     43.3785E-03     31.3201E-03
            3979            4245     43.3785E-03     31.3201E-03
            3981            4246     50.2152E-03     37.3497E-03
            3980            4246     50.2152E-03     37.3497E-03
            3963            4246     50.2152E-03     37.3497E-03
            3962            4246     50.2152E-03     37.3497E-03
            3982            4247     57.5849E-03     45.3742E-03
            3963            4247     57.5849E-03     45.3742E-03
            3964            4247     57.5849E-03     45.3742E-03
            3981            4247     57.5849E-03     45.3742E-03
            3982            4248     65.8007E-03     54.5199E-03
            3983            4248     65.8007E-03     54.5199E-03
            3965            4248     65.8007E-03     54.5199E-03
            3964            4248     65.8007E-03     54.5199E-03
            3984            4249     74.5596E-03     64.2838E-03
            3966            4249     74.5596E-03     64.2838E-03
            3965            4249     74.5596E-03     64.2838E-03
            3983            4249     74.5596E-03     64.2838E-03
            3985            4250     83.6881E-03     74.3746E-03
            3966            4250     83.6881E-03     74.3746E-03
            3967            4250     83.6881E-03     74.3746E-03
            3984            4250     83.6881E-03     74.3746E-03
            3967            4251     93.0420E-03     84.7335E-03
            3985            4251     93.0420E-03     84.7335E-03
            3986            4251     93.0420E-03     84.7335E-03
            3968            4251     93.0420E-03     84.7335E-03
            3968            4252     102.520E-03     95.1765E-03
            3986            4252     102.520E-03     95.1765E-03
            3969            4252     102.520E-03     95.1765E-03
            3987            4252     102.520E-03     95.1765E-03
            3970            4253     112.089E-03     105.728E-03
            3987            4253     112.089E-03     105.728E-03
            3969            4253     112.089E-03     105.728E-03
            3988            4253     112.089E-03     105.728E-03
            3971            4254     121.633E-03     116.244E-03
            3970            4254     121.633E-03     116.244E-03
            3989            4254     121.633E-03     116.244E-03
            3988            4254     121.633E-03     116.244E-03
            3990            4255     131.233E-03     126.731E-03
            3971            4255     131.233E-03     126.731E-03
            3989            4255     131.233E-03     126.731E-03
            3972            4255     131.233E-03     126.731E-03
            3972            4256     140.652E-03     137.104E-03
            3990            4256     140.652E-03     137.104E-03
            3973            4256     140.652E-03     137.104E-03
            3991            4256     140.652E-03     137.104E-03
            3991            4257     149.821E-03     147.080E-03
            3973            4257     149.821E-03     147.080E-03
            3992            4257     149.821E-03     147.080E-03
            3974            4257     149.821E-03     147.080E-03
            3974            4258     158.283E-03     156.307E-03
            3993            4258     158.283E-03     156.307E-03
            3975            4258     158.283E-03     156.307E-03
            3992            4258     158.283E-03     156.307E-03
            3994            4259     165.650E-03     165.557E-03
            3976            4259     165.650E-03     165.557E-03
            3975            4259     165.650E-03     165.557E-03
            3993            4259     165.650E-03     165.557E-03
            3995            4260     44.4655E-03     57.9484E-03
            3996            4260     44.4655E-03     57.9484E-03
            3978            4260     44.4655E-03     57.9484E-03
            3977            4260     44.4655E-03     57.9484E-03
            3996            4261     31.0572E-03     23.7944E-03
            3997            4261     31.0572E-03     23.7944E-03
            3978            4261     31.0572E-03     23.7944E-03
            3979            4261     31.0572E-03     23.7944E-03
            3998            4262     44.4053E-03     25.4585E-03
            3979            4262     44.4053E-03     25.4585E-03
            3980            4262     44.4053E-03     25.4585E-03
            3997            4262     44.4053E-03     25.4585E-03
            3980            4263     53.8109E-03     34.2617E-03
            3998            4263     53.8109E-03     34.2617E-03
            3999            4263     53.8109E-03     34.2617E-03
            3981            4263     53.8109E-03     34.2617E-03
            4000            4264     63.1413E-03     44.4812E-03
            3982            4264     63.1413E-03     44.4812E-03
            3981            4264     63.1413E-03     44.4812E-03
            3999            4264     63.1413E-03     44.4812E-03
            3982            4265     72.4293E-03     55.0276E-03
            4000            4265     72.4293E-03     55.0276E-03
            3983            4265     72.4293E-03     55.0276E-03
            4001            4265     72.4293E-03     55.0276E-03
            4002            4266     81.7911E-03     65.7456E-03
            4001            4266     81.7911E-03     65.7456E-03
            3983            4266     81.7911E-03     65.7456E-03
            3984            4266     81.7911E-03     65.7456E-03
            4003            4267     91.2376E-03     76.5726E-03
            4002            4267     91.2376E-03     76.5726E-03
            3985            4267     91.2376E-03     76.5726E-03
            3984            4267     91.2376E-03     76.5726E-03
            4004            4268     100.663E-03     87.4184E-03
            3985            4268     100.663E-03     87.4184E-03
            3986            4268     100.663E-03     87.4184E-03
            4003            4268     100.663E-03     87.4184E-03
            3986            4269     110.113E-03     98.2679E-03
            4005            4269     110.113E-03     98.2679E-03
            4004            4269     110.113E-03     98.2679E-03
            3987            4269     110.113E-03     98.2679E-03
            4006            4270     119.470E-03     109.074E-03
            3988            4270     119.470E-03     109.074E-03
            3987            4270     119.470E-03     109.074E-03
            4005            4270     119.470E-03     109.074E-03
            4006            4271     128.877E-03     119.841E-03
            3988            4271     128.877E-03     119.841E-03
            3989            4271     128.877E-03     119.841E-03
            4007            4271     128.877E-03     119.841E-03
            3990            4272     138.087E-03     130.540E-03
            4008            4272     138.087E-03     130.540E-03
            3989            4272     138.087E-03     130.540E-03
            4007            4272     138.087E-03     130.540E-03
            4009            4273     147.436E-03     141.137E-03
            3991            4273     147.436E-03     141.137E-03
            4008            4273     147.436E-03     141.137E-03
            3990            4273     147.436E-03     141.137E-03
            4010            4274     156.327E-03     151.375E-03
            3991            4274     156.327E-03     151.375E-03
            3992            4274     156.327E-03     151.375E-03
            4009            4274     156.327E-03     151.375E-03
            4011            4275     164.005E-03     160.979E-03
            3992            4275     164.005E-03     160.979E-03
            4010            4275     164.005E-03     160.979E-03
            3993            4275     164.005E-03     160.979E-03
            4012            4276     170.334E-03     167.531E-03
            3993            4276     170.334E-03     167.531E-03
            3994            4276     170.334E-03     167.531E-03
            4011            4276     170.334E-03     167.531E-03
            4013            4277     46.2775E-03     39.8640E-03
            3996            4277     46.2775E-03     39.8640E-03
            3995            4277     46.2775E-03     39.8640E-03
            4014            4277     46.2775E-03     39.8640E-03
            4015            4278     26.7163E-03     23.8575E-03
            3997            4278     26.7163E-03     23.8575E-03
            4014            4278     26.7163E-03     23.8575E-03
            3996            4278     26.7163E-03     23.8575E-03
            4015            4279     36.5969E-03     30.4839E-03
            3997            4279     36.5969E-03     30.4839E-03
            3998            4279     36.5969E-03     30.4839E-03
            4016            4279     36.5969E-03     30.4839E-03
            4017            4280     45.5707E-03     40.3825E-03
            3998            4280     45.5707E-03     40.3825E-03
            3999            4280     45.5707E-03     40.3825E-03
            4016            4280     45.5707E-03     40.3825E-03
            4017            4281     55.5067E-03     50.8487E-03
            3999            4281     55.5067E-03     50.8487E-03
            4000            4281     55.5067E-03     50.8487E-03
            4018            4281     55.5067E-03     50.8487E-03
            4000            4282     65.3670E-03     61.2295E-03
            4019            4282     65.3670E-03     61.2295E-03
            4001            4282     65.3670E-03     61.2295E-03
            4018            4282     65.3670E-03     61.2295E-03
            4020            4283     75.3291E-03     71.6855E-03
            4002            4283     75.3291E-03     71.6855E-03
            4001            4283     75.3291E-03     71.6855E-03
            4019            4283     75.3291E-03     71.6855E-03
            4003            4284     85.3555E-03     82.2043E-03
            4020            4284     85.3555E-03     82.2043E-03
            4002            4284     85.3555E-03     82.2043E-03
            4021            4284     85.3555E-03     82.2043E-03
            4022            4285     95.4138E-03     92.7289E-03
            4021            4285     95.4138E-03     92.7289E-03
            4003            4285     95.4138E-03     92.7289E-03
            4004            4285     95.4138E-03     92.7289E-03
            4023            4286     105.486E-03     103.286E-03
            4005            4286     105.486E-03     103.286E-03
            4004            4286     105.486E-03     103.286E-03
            4022            4286     105.486E-03     103.286E-03
            4024            4287     115.614E-03     113.870E-03
            4023            4287     115.614E-03     113.870E-03
            4006            4287     115.614E-03     113.870E-03
            4005            4287     115.614E-03     113.870E-03
            4025            4288     125.750E-03     124.521E-03
            4006            4288     125.750E-03     124.521E-03
            4007            4288     125.750E-03     124.521E-03
            4024            4288     125.750E-03     124.521E-03
            4026            4289     136.058E-03     135.298E-03
            4025            4289     136.058E-03     135.298E-03
            4008            4289     136.058E-03     135.298E-03
            4007            4289     136.058E-03     135.298E-03
            4008            4290     146.322E-03     146.251E-03
            4009            4290     146.322E-03     146.251E-03
            4026            4290     146.322E-03     146.251E-03
            4027            4290     146.322E-03     146.251E-03
            4028            4291     157.273E-03     157.696E-03
            4027            4291     157.273E-03     157.696E-03
            4010            4291     157.273E-03     157.696E-03
            4009            4291     157.273E-03     157.696E-03
            4029            4292     168.549E-03     169.184E-03
            4011            4292     168.549E-03     169.184E-03
            4028            4292     168.549E-03     169.184E-03
            4010            4292     168.549E-03     169.184E-03
            4011            4293     176.528E-03     177.794E-03
            4030            4293     176.528E-03     177.794E-03
            4012            4293     176.528E-03     177.794E-03
            4029            4293     176.528E-03     177.794E-03
            4032            4294     46.4908E-03     44.3603E-03
            4013            4294     46.4908E-03     44.3603E-03
            4014            4294     46.4908E-03     44.3603E-03
            4031            4294     46.4908E-03     44.3603E-03
            4033            4295     24.2049E-03     33.5520E-03
            4032            4295     24.2049E-03     33.5520E-03
            4015            4295     24.2049E-03     33.5520E-03
            4014            4295     24.2049E-03     33.5520E-03
            4033            4296     28.0548E-03     38.0002E-03
            4034            4296     28.0548E-03     38.0002E-03
            4016            4296     28.0548E-03     38.0002E-03
            4015            4296     28.0548E-03     38.0002E-03
            4017            4297     38.1622E-03     47.6869E-03
            4034            4297     38.1622E-03     47.6869E-03
            4035            4297     38.1622E-03     47.6869E-03
            4016            4297     38.1622E-03     47.6869E-03
            4035            4298     48.3100E-03     57.7419E-03
            4018            4298     48.3100E-03     57.7419E-03
            4036            4298     48.3100E-03     57.7419E-03
            4017            4298     48.3100E-03     57.7419E-03
            4019            4299     58.7728E-03     67.8756E-03
            4037            4299     58.7728E-03     67.8756E-03
            4036            4299     58.7728E-03     67.8756E-03
            4018            4299     58.7728E-03     67.8756E-03
            4038            4300     69.2585E-03     77.9897E-03
            4019            4300     69.2585E-03     77.9897E-03
            4020            4300     69.2585E-03     77.9897E-03
            4037            4300     69.2585E-03     77.9897E-03
            4021            4301     79.7519E-03     88.0344E-03
            4039            4301     79.7519E-03     88.0344E-03
            4020            4301     79.7519E-03     88.0344E-03
            4038            4301     79.7519E-03     88.0344E-03
            4022            4302     90.2652E-03     98.1053E-03
            4021            4302     90.2652E-03     98.1053E-03
            4039            4302     90.2652E-03     98.1053E-03
            4040            4302     90.2652E-03     98.1053E-03
            4022            4303     100.787E-03     108.162E-03
            4040            4303     100.787E-03     108.162E-03
            4041            4303     100.787E-03     108.162E-03
            4023            4303     100.787E-03     108.162E-03
            4042            4304     111.346E-03     118.258E-03
            4024            4304     111.346E-03     118.258E-03
            4023            4304     111.346E-03     118.258E-03
            4041            4304     111.346E-03     118.258E-03
            4042            4305     121.911E-03     128.385E-03
            4025            4305     121.911E-03     128.385E-03
            4043            4305     121.911E-03     128.385E-03
            4024            4305     121.911E-03     128.385E-03
            4025            4306     132.568E-03     138.593E-03
            4026            4306     132.568E-03     138.593E-03
            4043            4306     132.568E-03     138.593E-03
            4044            4306     132.568E-03     138.593E-03
            4026            4307     143.269E-03     149.041E-03
            4044            4307     143.269E-03     149.041E-03
            4027            4307     143.269E-03     149.041E-03
            4045            4307     143.269E-03     149.041E-03
            4028            4308     154.360E-03     159.904E-03
            4027            4308     154.360E-03     159.904E-03
            4046            4308     154.360E-03     159.904E-03
            4045            4308     154.360E-03     159.904E-03
            4046            4309     167.835E-03     172.272E-03
            4029            4309     167.835E-03     172.272E-03
            4028            4309     167.835E-03     172.272E-03
            4047            4309     167.835E-03     172.272E-03
            4029            4310     180.666E-03     182.902E-03
            4030            4310     180.666E-03     182.902E-03
            4048            4310     180.666E-03     182.902E-03
            4047            4310     180.666E-03     182.902E-03
            4031            4311     40.5034E-03     66.2834E-03
            4049            4311     40.5034E-03     66.2834E-03
            4032            4311     40.5034E-03     66.2834E-03
            4050            4311     40.5034E-03     66.2834E-03
            4032            4312     17.2451E-03     45.1064E-03
            4051            4312     17.2451E-03     45.1064E-03
            4050            4312     17.2451E-03     45.1064E-03
            4033            4312     17.2451E-03     45.1064E-03
            4033            4313     21.5495E-03     47.5960E-03
            4051            4313     21.5495E-03     47.5960E-03
            4052            4313     21.5495E-03     47.5960E-03
            4034            4313     21.5495E-03     47.5960E-03
            4035            4314     31.6204E-03     56.0285E-03
            4052            4314     31.6204E-03     56.0285E-03
            4053            4314     31.6204E-03     56.0285E-03
            4034            4314     31.6204E-03     56.0285E-03
            4053            4315     42.0579E-03     65.4912E-03
            4035            4315     42.0579E-03     65.4912E-03
            4054            4315     42.0579E-03     65.4912E-03
            4036            4315     42.0579E-03     65.4912E-03
            4037            4316     52.8039E-03     75.1315E-03
            4055            4316     52.8039E-03     75.1315E-03
            4036            4316     52.8039E-03     75.1315E-03
            4054            4316     52.8039E-03     75.1315E-03
            4056            4317     63.6112E-03     84.6637E-03
            4055            4317     63.6112E-03     84.6637E-03
            4038            4317     63.6112E-03     84.6637E-03
            4037            4317     63.6112E-03     84.6637E-03
            4038            4318     74.3983E-03     94.1496E-03
            4056            4318     74.3983E-03     94.1496E-03
            4057            4318     74.3983E-03     94.1496E-03
            4039            4318     74.3983E-03     94.1496E-03
            4058            4319     85.1864E-03     103.569E-03
            4040            4319     85.1864E-03     103.569E-03
            4057            4319     85.1864E-03     103.569E-03
            4039            4319     85.1864E-03     103.569E-03
            4041            4320     95.9633E-03     112.972E-03
            4059            4320     95.9633E-03     112.972E-03
            4040            4320     95.9633E-03     112.972E-03
            4058            4320     95.9633E-03     112.972E-03
            4042            4321     106.661E-03     122.284E-03
            4059            4321     106.661E-03     122.284E-03
            4041            4321     106.661E-03     122.284E-03
            4060            4321     106.661E-03     122.284E-03
            4060            4322     117.358E-03     131.539E-03
            4061            4322     117.358E-03     131.539E-03
            4043            4322     117.358E-03     131.539E-03
            4042            4322     117.358E-03     131.539E-03
            4044            4323     127.823E-03     140.644E-03
            4061            4323     127.823E-03     140.644E-03
            4062            4323     127.823E-03     140.644E-03
            4043            4323     127.823E-03     140.644E-03
            4062            4324     138.466E-03     149.729E-03
            4045            4324     138.466E-03     149.729E-03
            4044            4324     138.466E-03     149.729E-03
            4063            4324     138.466E-03     149.729E-03
            4045            4325     148.951E-03     158.811E-03
            4046            4325     148.951E-03     158.811E-03
            4064            4325     148.951E-03     158.811E-03
            4063            4325     148.951E-03     158.811E-03
            4064            4326     160.881E-03     169.699E-03
            4047            4326     160.881E-03     169.699E-03
            4046            4326     160.881E-03     169.699E-03
            4065            4326     160.881E-03     169.699E-03
            4048            4327     178.794E-03     184.256E-03
            4047            4327     178.794E-03     184.256E-03
            4066            4327     178.794E-03     184.256E-03
            4065            4327     178.794E-03     184.256E-03
            5085            5225     253.848E-06     270.947E-06
            5086            5225     253.848E-06     270.947E-06
            5067            5225     253.848E-06     270.947E-06
            5068            5225     253.848E-06     270.947E-06
            5069            5226     254.745E-06     270.690E-06
            5086            5226     254.745E-06     270.690E-06
            5087            5226     254.745E-06     270.690E-06
            5068            5226     254.745E-06     270.690E-06
            5069            5227     257.890E-06     271.378E-06
            5070            5227     257.890E-06     271.378E-06
            5087            5227     257.890E-06     271.378E-06
            5088            5227     257.890E-06     271.378E-06
            5070            5228     259.490E-06     276.635E-06
            5089            5228     259.490E-06     276.635E-06
            5071            5228     259.490E-06     276.635E-06
            5088            5228     259.490E-06     276.635E-06
            5090            5229     261.404E-06     282.389E-06
            5089            5229     261.404E-06     282.389E-06
            5071            5229     261.404E-06     282.389E-06
            5072            5229     261.404E-06     282.389E-06
            5072            5230     264.660E-06     288.554E-06
            5090            5230     264.660E-06     288.554E-06
            5091            5230     264.660E-06     288.554E-06
            5073            5230     264.660E-06     288.554E-06
            5091            5231     268.805E-06     295.484E-06
            5092            5231     268.805E-06     295.484E-06
            5073            5231     268.805E-06     295.484E-06
            5074            5231     268.805E-06     295.484E-06
            5075            5232     274.163E-06     303.082E-06
            5093            5232     274.163E-06     303.082E-06
            5074            5232     274.163E-06     303.082E-06
            5092            5232     274.163E-06     303.082E-06
            5093            5233     280.330E-06     311.222E-06
            5076            5233     280.330E-06     311.222E-06
            5075            5233     280.330E-06     311.222E-06
            5094            5233     280.330E-06     311.222E-06
            5077            5234     287.561E-06     320.089E-06
            5095            5234     287.561E-06     320.089E-06
            5094            5234     287.561E-06     320.089E-06
            5076            5234     287.561E-06     320.089E-06
            5077            5235     295.112E-06     329.009E-06
            5096            5235     295.112E-06     329.009E-06
            5095            5235     295.112E-06     329.009E-06
            5078            5235     295.112E-06     329.009E-06
            5097            5236     303.261E-06     338.404E-06
            5079            5236     303.261E-06     338.404E-06
            5078            5236     303.261E-06     338.404E-06
            5096            5236     303.261E-06     338.404E-06
            5080            5237     310.601E-06     347.027E-06
            5079            5237     310.601E-06     347.027E-06
            5097            5237     310.601E-06     347.027E-06
            5098            5237     310.601E-06     347.027E-06
            5080            5238     318.422E-06     356.975E-06
            5099            5238     318.422E-06     356.975E-06
            5081            5238     318.422E-06     356.975E-06
            5098            5238     318.422E-06     356.975E-06
            5081            5239     328.745E-06     369.229E-06
            5100            5239     328.745E-06     369.229E-06
            5082            5239     328.745E-06     369.229E-06
            5099            5239     328.745E-06     369.229E-06
            5101            5240     369.175E-06     410.445E-06
            5083            5240     369.175E-06     410.445E-06
            5100            5240     369.175E-06     410.445E-06
            5082            5240     369.175E-06     410.445E-06
            5101            5241     488.524E-06     524.295E-06
            5102            5241     488.524E-06     524.295E-06
            5083            5241     488.524E-06     524.295E-06
            5084            5241     488.524E-06     524.295E-06
            5086            5242     279.555E-06     264.570E-06
            5103            5242     279.555E-06     264.570E-06
            5085            5242     279.555E-06     264.570E-06
            5104            5242     279.555E-06     264.570E-06
            5104            5243     270.864E-06     273.371E-06
            5105            5243     270.864E-06     273.371E-06
            5086            5243     270.864E-06     273.371E-06
            5087            5243     270.864E-06     273.371E-06
            5106            5244     269.579E-06     277.877E-06
            5087            5244     269.579E-06     277.877E-06
            5088            5244     269.579E-06     277.877E-06
            5105            5244     269.579E-06     277.877E-06
            5088            5245     270.652E-06     281.678E-06
            5089            5245     270.652E-06     281.678E-06
            5106            5245     270.652E-06     281.678E-06
            5107            5245     270.652E-06     281.678E-06
            5107            5246     273.038E-06     286.124E-06
            5089            5246     273.038E-06     286.124E-06
            5108            5246     273.038E-06     286.124E-06
            5090            5246     273.038E-06     286.124E-06
            5091            5247     276.812E-06     291.164E-06
            5108            5247     276.812E-06     291.164E-06
            5090            5247     276.812E-06     291.164E-06
            5109            5247     276.812E-06     291.164E-06
            5091            5248     281.444E-06     297.284E-06
            5092            5248     281.444E-06     297.284E-06
            5110            5248     281.444E-06     297.284E-06
            5109            5248     281.444E-06     297.284E-06
            5111            5249     287.055E-06     304.055E-06
            5110            5249     287.055E-06     304.055E-06
            5093            5249     287.055E-06     304.055E-06
            5092            5249     287.055E-06     304.055E-06
            5094            5250     293.809E-06     311.836E-06
            5093            5250     293.809E-06     311.836E-06
            5112            5250     293.809E-06     311.836E-06
            5111            5250     293.809E-06     311.836E-06
            5112            5251     301.391E-06     320.336E-06
            5113            5251     301.391E-06     320.336E-06
            5095            5251     301.391E-06     320.336E-06
            5094            5251     301.391E-06     320.336E-06
            5113            5252     310.533E-06     330.047E-06
            5096            5252     310.533E-06     330.047E-06
            5114            5252     310.533E-06     330.047E-06
            5095            5252     310.533E-06     330.047E-06
            5114            5253     320.048E-06     340.542E-06
            5096            5253     320.048E-06     340.542E-06
            5115            5253     320.048E-06     340.542E-06
            5097            5253     320.048E-06     340.542E-06
            5115            5254     331.506E-06     351.992E-06
            5116            5254     331.506E-06     351.992E-06
            5098            5254     331.506E-06     351.992E-06
            5097            5254     331.506E-06     351.992E-06
            5117            5255     340.413E-06     362.998E-06
            5116            5255     340.413E-06     362.998E-06
            5099            5255     340.413E-06     362.998E-06
            5098            5255     340.413E-06     362.998E-06
            5099            5256     347.912E-06     370.832E-06
            5100            5256     347.912E-06     370.832E-06
            5118            5256     347.912E-06     370.832E-06
            5117            5256     347.912E-06     370.832E-06
            5100            5257     365.301E-06     382.338E-06
            5118            5257     365.301E-06     382.338E-06
            5101            5257     365.301E-06     382.338E-06
            5119            5257     365.301E-06     382.338E-06
            5102            5258     401.650E-06     405.809E-06
            5119            5258     401.650E-06     405.809E-06
            5101            5258     401.650E-06     405.809E-06
            5120            5258     401.650E-06     405.809E-06
            5103            5259     293.241E-06     263.843E-06
            5121            5259     293.241E-06     263.843E-06
            5104            5259     293.241E-06     263.843E-06
            5122            5259     293.241E-06     263.843E-06
            5104            5260     287.586E-06     276.371E-06
            5123            5260     287.586E-06     276.371E-06
            5105            5260     287.586E-06     276.371E-06
            5122            5260     287.586E-06     276.371E-06
            5123            5261     281.224E-06     284.983E-06
            5105            5261     281.224E-06     284.983E-06
            5106            5261     281.224E-06     284.983E-06
            5124            5261     281.224E-06     284.983E-06
            5125            5262     282.183E-06     287.206E-06
            5107            5262     282.183E-06     287.206E-06
            5106            5262     282.183E-06     287.206E-06
            5124            5262     282.183E-06     287.206E-06
            5108            5263     285.638E-06     290.007E-06
            5126            5263     285.638E-06     290.007E-06
            5107            5263     285.638E-06     290.007E-06
            5125            5263     285.638E-06     290.007E-06
            5108            5264     289.538E-06     294.272E-06
            5109            5264     289.538E-06     294.272E-06
            5127            5264     289.538E-06     294.272E-06
            5126            5264     289.538E-06     294.272E-06
            5128            5265     294.518E-06     299.108E-06
            5127            5265     294.518E-06     299.108E-06
            5110            5265     294.518E-06     299.108E-06
            5109            5265     294.518E-06     299.108E-06
            5110            5266     300.276E-06     305.071E-06
            5129            5266     300.276E-06     305.071E-06
            5111            5266     300.276E-06     305.071E-06
            5128            5266     300.276E-06     305.071E-06
            5111            5267     306.899E-06     311.772E-06
            5112            5267     306.899E-06     311.772E-06
            5130            5267     306.899E-06     311.772E-06
            5129            5267     306.899E-06     311.772E-06
            5112            5268     314.854E-06     319.725E-06
            5113            5268     314.854E-06     319.725E-06
            5131            5268     314.854E-06     319.725E-06
            5130            5268     314.854E-06     319.725E-06
            5113            5269     323.761E-06     328.884E-06
            5131            5269     323.761E-06     328.884E-06
            5114            5269     323.761E-06     328.884E-06
            5132            5269     323.761E-06     328.884E-06
            5133            5270     334.889E-06     339.574E-06
            5115            5270     334.889E-06     339.574E-06
            5132            5270     334.889E-06     339.574E-06
            5114            5270     334.889E-06     339.574E-06
            5115            5271     345.668E-06     351.269E-06
            5134            5271     345.668E-06     351.269E-06
            5116            5271     345.668E-06     351.269E-06
            5133            5271     345.668E-06     351.269E-06
            5135            5272     356.128E-06     360.576E-06
            5117            5272     356.128E-06     360.576E-06
            5134            5272     356.128E-06     360.576E-06
            5116            5272     356.128E-06     360.576E-06
            5118            5273     353.299E-06     361.834E-06
            5136            5273     353.299E-06     361.834E-06
            5135            5273     353.299E-06     361.834E-06
            5117            5273     353.299E-06     361.834E-06
            5136            5274     311.944E-06     328.248E-06
            5118            5274     311.944E-06     328.248E-06
            5137            5274     311.944E-06     328.248E-06
            5119            5274     311.944E-06     328.248E-06
            5119            5275     278.605E-06     288.392E-06
            5120            5275     278.605E-06     288.392E-06
            5137            5275     278.605E-06     288.392E-06
            5138            5275     278.605E-06     288.392E-06
            5139            5276     298.382E-06     285.029E-06
            5121            5276     298.382E-06     285.029E-06
            5122            5276     298.382E-06     285.029E-06
            5140            5276     298.382E-06     285.029E-06
            5122            5277     290.889E-06     291.016E-06
            5123            5277     290.889E-06     291.016E-06
            5140            5277     290.889E-06     291.016E-06
            5141            5277     290.889E-06     291.016E-06
            5142            5278     292.177E-06     291.207E-06
            5141            5278     292.177E-06     291.207E-06
            5124            5278     292.177E-06     291.207E-06
            5123            5278     292.177E-06     291.207E-06
            5125            5279     295.212E-06     292.393E-06
            5124            5279     295.212E-06     292.393E-06
            5143            5279     295.212E-06     292.393E-06
            5142            5279     295.212E-06     292.393E-06
            5144            5280     298.776E-06     294.710E-06
            5143            5280     298.776E-06     294.710E-06
            5126            5280     298.776E-06     294.710E-06
            5125            5280     298.776E-06     294.710E-06
            5127            5281     303.270E-06     297.630E-06
            5126            5281     303.270E-06     297.630E-06
            5145            5281     303.270E-06     297.630E-06
            5144            5281     303.270E-06     297.630E-06
            5146            5282     308.218E-06     301.608E-06
            5128            5282     308.218E-06     301.608E-06
            5145            5282     308.218E-06     301.608E-06
            5127            5282     308.218E-06     301.608E-06
            5147            5283     313.817E-06     306.143E-06
            5128            5283     313.817E-06     306.143E-06
            5146            5283     313.817E-06     306.143E-06
            5129            5283     313.817E-06     306.143E-06
            5129            5284     320.109E-06     311.539E-06
            5130            5284     320.109E-06     311.539E-06
            5147            5284     320.109E-06     311.539E-06
            5148            5284     320.109E-06     311.539E-06
            5130            5285     327.028E-06     317.618E-06
            5149            5285     327.028E-06     317.618E-06
            5131            5285     327.028E-06     317.618E-06
            5148            5285     327.028E-06     317.618E-06
            5150            5286     334.924E-06     324.693E-06
            5149            5286     334.924E-06     324.693E-06
            5131            5286     334.924E-06     324.693E-06
            5132            5286     334.924E-06     324.693E-06
            5151            5287     343.270E-06     332.356E-06
            5132            5287     343.270E-06     332.356E-06
            5133            5287     343.270E-06     332.356E-06
            5150            5287     343.270E-06     332.356E-06
            5151            5288     351.468E-06     339.564E-06
            5152            5288     351.468E-06     339.564E-06
            5134            5288     351.468E-06     339.564E-06
            5133            5288     351.468E-06     339.564E-06
            5135            5289     354.888E-06     342.629E-06
            5152            5289     354.888E-06     342.629E-06
            5134            5289     354.888E-06     342.629E-06
            5153            5289     354.888E-06     342.629E-06
            5135            5290     341.078E-06     330.262E-06
            5136            5290     341.078E-06     330.262E-06
            5154            5290     341.078E-06     330.262E-06
            5153            5290     341.078E-06     330.262E-06
            5137            5291     272.832E-06     273.619E-06
            5155            5291     272.832E-06     273.619E-06
            5154            5291     272.832E-06     273.619E-06
            5136            5291     272.832E-06     273.619E-06
            5155            5292     185.757E-06     183.206E-06
            5156            5292     185.757E-06     183.206E-06
            5138            5292     185.757E-06     183.206E-06
            5137            5292     185.757E-06     183.206E-06
            5157            5293     291.565E-06     309.545E-06
            5140            5293     291.565E-06     309.545E-06
            5158            5293     291.565E-06     309.545E-06
            5139            5293     291.565E-06     309.545E-06
            5141            5294     297.064E-06     302.078E-06
            5159            5294     297.064E-06     302.078E-06
            5140            5294     297.064E-06     302.078E-06
            5158            5294     297.064E-06     302.078E-06
            5159            5295     304.102E-06     297.506E-06
            5142            5295     304.102E-06     297.506E-06
            5141            5295     304.102E-06     297.506E-06
            5160            5295     304.102E-06     297.506E-06
            5142            5296     308.847E-06     298.188E-06
            5161            5296     308.847E-06     298.188E-06
            5160            5296     308.847E-06     298.188E-06
            5143            5296     308.847E-06     298.188E-06
            5143            5297     312.969E-06     299.821E-06
            5162            5297     312.969E-06     299.821E-06
            5161            5297     312.969E-06     299.821E-06
            5144            5297     312.969E-06     299.821E-06
            5144            5298     317.731E-06     301.917E-06
            5145            5298     317.731E-06     301.917E-06
            5162            5298     317.731E-06     301.917E-06
            5163            5298     317.731E-06     301.917E-06
            5145            5299     322.694E-06     304.719E-06
            5164            5299     322.694E-06     304.719E-06
            5146            5299     322.694E-06     304.719E-06
            5163            5299     322.694E-06     304.719E-06
            5164            5300     328.064E-06     307.948E-06
            5146            5300     328.064E-06     307.948E-06
            5165            5300     328.064E-06     307.948E-06
            5147            5300     328.064E-06     307.948E-06
            5166            5301     333.599E-06     311.573E-06
            5147            5301     333.599E-06     311.573E-06
            5148            5301     333.599E-06     311.573E-06
            5165            5301     333.599E-06     311.573E-06
            5149            5302     339.164E-06     315.375E-06
            5148            5302     339.164E-06     315.375E-06
            5167            5302     339.164E-06     315.375E-06
            5166            5302     339.164E-06     315.375E-06
            5168            5303     344.441E-06     318.798E-06
            5149            5303     344.441E-06     318.798E-06
            5150            5303     344.441E-06     318.798E-06
            5167            5303     344.441E-06     318.798E-06
            5151            5304     348.164E-06     321.136E-06
            5168            5304     348.164E-06     321.136E-06
            5150            5304     348.164E-06     321.136E-06
            5169            5304     348.164E-06     321.136E-06
            5170            5305     349.052E-06     319.671E-06
            5152            5305     349.052E-06     319.671E-06
            5151            5305     349.052E-06     319.671E-06
            5169            5305     349.052E-06     319.671E-06
            5152            5306     340.411E-06     310.197E-06
            5171            5306     340.411E-06     310.197E-06
            5170            5306     340.411E-06     310.197E-06
            5153            5306     340.411E-06     310.197E-06
            5172            5307     313.461E-06     280.364E-06
            5171            5307     313.461E-06     280.364E-06
            5153            5307     313.461E-06     280.364E-06
            5154            5307     313.461E-06     280.364E-06
            5154            5308     251.428E-06     216.487E-06
            5173            5308     251.428E-06     216.487E-06
            5172            5308     251.428E-06     216.487E-06
            5155            5308     251.428E-06     216.487E-06
            5156            5309     152.193E-06     162.930E-06
            5174            5309     152.193E-06     162.930E-06
            5173            5309     152.193E-06     162.930E-06
            5155            5309     152.193E-06     162.930E-06
            5865            5862     25.7164E-03     27.7666E-03
            5866            5862     25.7164E-03     27.7666E-03
            5848            5862     25.7164E-03     27.7666E-03
            5847            5862     25.7164E-03     27.7666E-03
            5848            5863     30.5965E-03     33.2146E-03
            5867            5863     30.5965E-03     33.2146E-03
            5866            5863     30.5965E-03     33.2146E-03
            5849            5863     30.5965E-03     33.2146E-03
            5849            5864     36.6636E-03     39.6130E-03
            5868            5864     36.6636E-03     39.6130E-03
            5850            5864     36.6636E-03     39.6130E-03
            5867            5864     36.6636E-03     39.6130E-03
            5868            5865     43.1450E-03     46.3002E-03
            5851            5865     43.1450E-03     46.3002E-03
            5850            5865     43.1450E-03     46.3002E-03
            5869            5865     43.1450E-03     46.3002E-03
            5870            5866     49.8531E-03     53.1323E-03
            5852            5866     49.8531E-03     53.1323E-03
            5851            5866     49.8531E-03     53.1323E-03
            5869            5866     49.8531E-03     53.1323E-03
            5870            5867     56.6792E-03     60.0239E-03
            5852            5867     56.6792E-03     60.0239E-03
            5853            5867     56.6792E-03     60.0239E-03
            5871            5867     56.6792E-03     60.0239E-03
            5853            5868     63.5880E-03     66.9444E-03
            5872            5868     63.5880E-03     66.9444E-03
            5871            5868     63.5880E-03     66.9444E-03
            5854            5868     63.5880E-03     66.9444E-03
            5854            5869     70.5360E-03     73.8749E-03
            5872            5869     70.5360E-03     73.8749E-03
            5855            5869     70.5360E-03     73.8749E-03
            5873            5869     70.5360E-03     73.8749E-03
            5874            5870     77.5400E-03     80.8095E-03
            5855            5870     77.5400E-03     80.8095E-03
            5873            5870     77.5400E-03     80.8095E-03
            5856            5870     77.5400E-03     80.8095E-03
            5874            5871     84.5777E-03     87.7667E-03
            5875            5871     84.5777E-03     87.7667E-03
            5857            5871     84.5777E-03     87.7667E-03
            5856            5871     84.5777E-03     87.7667E-03
            5876            5872     91.7230E-03     94.7617E-03
            5875            5872     91.7230E-03     94.7617E-03
            5857            5872     91.7230E-03     94.7617E-03
            5858            5872     91.7230E-03     94.7617E-03
            5858            5873     98.9614E-03     101.871E-03
            5877            5873     98.9614E-03     101.871E-03
            5876            5873     98.9614E-03     101.871E-03
            5859            5873     98.9614E-03     101.871E-03
            5878            5874     106.485E-03     109.176E-03
            5860            5874     106.485E-03     109.176E-03
            5877            5874     106.485E-03     109.176E-03
            5859            5874     106.485E-03     109.176E-03
            5861            5875     114.281E-03     116.883E-03
            5878            5875     114.281E-03     116.883E-03
            5879            5875     114.281E-03     116.883E-03
            5860            5875     114.281E-03     116.883E-03
            5879            5876     122.901E-03     125.392E-03
            5880            5876     122.901E-03     125.392E-03
            5861            5876     122.901E-03     125.392E-03
            5862            5876     122.901E-03     125.392E-03
            5880            5877     132.361E-03     135.230E-03
            5862            5877     132.361E-03     135.230E-03
            5863            5877     132.361E-03     135.230E-03
            5881            5877     132.361E-03     135.230E-03
            5863            5878     146.131E-03     151.032E-03
            5881            5878     146.131E-03     151.032E-03
            5864            5878     146.131E-03     151.032E-03
            5882            5878     146.131E-03     151.032E-03
            5865            5879     26.3326E-03     29.4148E-03
            5883            5879     26.3326E-03     29.4148E-03
            5866            5879     26.3326E-03     29.4148E-03
            5884            5879     26.3326E-03     29.4148E-03
            5884            5880     30.2842E-03     33.3941E-03
            5866            5880     30.2842E-03     33.3941E-03
            5867            5880     30.2842E-03     33.3941E-03
            5885            5880     30.2842E-03     33.3941E-03
            5868            5881     34.9671E-03     38.5100E-03
            5867            5881     34.9671E-03     38.5100E-03
            5885            5881     34.9671E-03     38.5100E-03
            5886            5881     34.9671E-03     38.5100E-03
            5868            5882     40.6237E-03     44.4630E-03
            5886            5882     40.6237E-03     44.4630E-03
            5869            5882     40.6237E-03     44.4630E-03
            5887            5882     40.6237E-03     44.4630E-03
            5888            5883     46.5706E-03     50.6144E-03
            5869            5883     46.5706E-03     50.6144E-03
            5887            5883     46.5706E-03     50.6144E-03
            5870            5883     46.5706E-03     50.6144E-03
            5888            5884     52.7988E-03     56.9432E-03
            5870            5884     52.7988E-03     56.9432E-03
            5871            5884     52.7988E-03     56.9432E-03
            5889            5884     52.7988E-03     56.9432E-03
            5872            5885     59.1290E-03     63.3094E-03
            5889            5885     59.1290E-03     63.3094E-03
            5890            5885     59.1290E-03     63.3094E-03
            5871            5885     59.1290E-03     63.3094E-03
            5891            5886     65.5743E-03     69.7205E-03
            5873            5886     65.5743E-03     69.7205E-03
            5872            5886     65.5743E-03     69.7205E-03
            5890            5886     65.5743E-03     69.7205E-03
            5873            5887     72.0793E-03     76.1441E-03
            5874            5887     72.0793E-03     76.1441E-03
            5891            5887     72.0793E-03     76.1441E-03
            5892            5887     72.0793E-03     76.1441E-03
            5893            5888     78.7115E-03     82.6372E-03
            5874            5888     78.7115E-03     82.6372E-03
            5875            5888     78.7115E-03     82.6372E-03
            5892            5888     78.7115E-03     82.6372E-03
            5876            5889     85.4776E-03     89.2270E-03
            5875            5889     85.4776E-03     89.2270E-03
            5894            5889     85.4776E-03     89.2270E-03
            5893            5889     85.4776E-03     89.2270E-03
            5895            5890     92.5702E-03     96.0962E-03
            5876            5890     92.5702E-03     96.0962E-03
            5894            5890     92.5702E-03     96.0962E-03
            5877            5890     92.5702E-03     96.0962E-03
            5878            5891     100.065E-03     103.375E-03
            5877            5891     100.065E-03     103.375E-03
            5896            5891     100.065E-03     103.375E-03
            5895            5891     100.065E-03     103.375E-03
            5879            5892     108.522E-03     111.629E-03
            5897            5892     108.522E-03     111.629E-03
            5878            5892     108.522E-03     111.629E-03
            5896            5892     108.522E-03     111.629E-03
            5879            5893     118.176E-03     121.260E-03
            5898            5893     118.176E-03     121.260E-03
            5897            5893     118.176E-03     121.260E-03
            5880            5893     118.176E-03     121.260E-03
            5881            5894     131.230E-03     134.541E-03
            5899            5894     131.230E-03     134.541E-03
            5880            5894     131.230E-03     134.541E-03
            5898            5894     131.230E-03     134.541E-03
            5900            5895     150.977E-03     153.397E-03
            5899            5895     150.977E-03     153.397E-03
            5882            5895     150.977E-03     153.397E-03
            5881            5895     150.977E-03     153.397E-03
            5902            5896     23.3609E-03     27.3417E-03
            5883            5896     23.3609E-03     27.3417E-03
            5901            5896     23.3609E-03     27.3417E-03
            5884            5896     23.3609E-03     27.3417E-03
            5903            5897     29.5344E-03     33.0166E-03
            5884            5897     29.5344E-03     33.0166E-03
            5902            5897     29.5344E-03     33.0166E-03
            5885            5897     29.5344E-03     33.0166E-03
            5903            5898     35.0234E-03     38.4168E-03
            5885            5898     35.0234E-03     38.4168E-03
            5904            5898     35.0234E-03     38.4168E-03
            5886            5898     35.0234E-03     38.4168E-03
            5886            5899     41.0436E-03     44.5550E-03
            5904            5899     41.0436E-03     44.5550E-03
            5905            5899     41.0436E-03     44.5550E-03
            5887            5899     41.0436E-03     44.5550E-03
            5905            5900     47.3614E-03     50.9567E-03
            5888            5900     47.3614E-03     50.9567E-03
            5887            5900     47.3614E-03     50.9567E-03
            5906            5900     47.3614E-03     50.9567E-03
            5888            5901     53.8426E-03     57.5059E-03
            5906            5901     53.8426E-03     57.5059E-03
            5889            5901     53.8426E-03     57.5059E-03
            5907            5901     53.8426E-03     57.5059E-03
            5907            5902     60.4533E-03     64.1385E-03
            5890            5902     60.4533E-03     64.1385E-03
            5908            5902     60.4533E-03     64.1385E-03
            5889            5902     60.4533E-03     64.1385E-03
            5908            5903     67.1286E-03     70.8207E-03
            5890            5903     67.1286E-03     70.8207E-03
            5891            5903     67.1286E-03     70.8207E-03
            5909            5903     67.1286E-03     70.8207E-03
            5909            5904     73.8996E-03     77.5650E-03
            5892            5904     73.8996E-03     77.5650E-03
            5910            5904     73.8996E-03     77.5650E-03
            5891            5904     73.8996E-03     77.5650E-03
            5893            5905     80.7560E-03     84.3968E-03
            5910            5905     80.7560E-03     84.3968E-03
            5911            5905     80.7560E-03     84.3968E-03
            5892            5905     80.7560E-03     84.3968E-03
            5911            5906     87.8166E-03     91.3991E-03
            5893            5906     87.8166E-03     91.3991E-03
            5912            5906     87.8166E-03     91.3991E-03
            5894            5906     87.8166E-03     91.3991E-03
            5912            5907     95.1438E-03     98.6985E-03
            5913            5907     95.1438E-03     98.6985E-03
            5894            5907     95.1438E-03     98.6985E-03
            5895            5907     95.1438E-03     98.6985E-03
            5913            5908     103.048E-03     106.526E-03
            5896            5908     103.048E-03     106.526E-03
            5895            5908     103.048E-03     106.526E-03
            5914            5908     103.048E-03     106.526E-03
            5914            5909     111.836E-03     115.282E-03
            5915            5909     111.836E-03     115.282E-03
            5897            5909     111.836E-03     115.282E-03
            5896            5909     111.836E-03     115.282E-03
            5898            5910     122.205E-03     125.512E-03
            5897            5910     122.205E-03     125.512E-03
            5915            5910     122.205E-03     125.512E-03
            5916            5910     122.205E-03     125.512E-03
            5917            5911     136.390E-03     138.685E-03
            5916            5911     136.390E-03     138.685E-03
            5898            5911     136.390E-03     138.685E-03
            5899            5911     136.390E-03     138.685E-03
            5918            5912     151.389E-03     152.144E-03
            5917            5912     151.389E-03     152.144E-03
            5900            5912     151.389E-03     152.144E-03
            5899            5912     151.389E-03     152.144E-03
            5901            5913     22.1754E-03     25.5939E-03
            5919            5913     22.1754E-03     25.5939E-03
            5920            5913     22.1754E-03     25.5939E-03
            5902            5913     22.1754E-03     25.5939E-03
            5902            5914     28.8783E-03     32.3805E-03
            5903            5914     28.8783E-03     32.3805E-03
            5920            5914     28.8783E-03     32.3805E-03
            5921            5914     28.8783E-03     32.3805E-03
            5904            5915     35.2963E-03     38.6063E-03
            5903            5915     35.2963E-03     38.6063E-03
            5921            5915     35.2963E-03     38.6063E-03
            5922            5915     35.2963E-03     38.6063E-03
            5923            5916     41.6750E-03     44.9061E-03
            5922            5916     41.6750E-03     44.9061E-03
            5904            5916     41.6750E-03     44.9061E-03
            5905            5916     41.6750E-03     44.9061E-03
            5906            5917     48.2844E-03     51.5260E-03
            5905            5917     48.2844E-03     51.5260E-03
            5923            5917     48.2844E-03     51.5260E-03
            5924            5917     48.2844E-03     51.5260E-03
            5907            5918     55.0053E-03     58.2459E-03
            5906            5918     55.0053E-03     58.2459E-03
            5924            5918     55.0053E-03     58.2459E-03
            5925            5918     55.0053E-03     58.2459E-03
            5926            5919     61.8178E-03     65.0803E-03
            5925            5919     61.8178E-03     65.0803E-03
            5907            5919     61.8178E-03     65.0803E-03
            5908            5919     61.8178E-03     65.0803E-03
            5927            5920     68.7076E-03     71.9858E-03
            5908            5920     68.7076E-03     71.9858E-03
            5926            5920     68.7076E-03     71.9858E-03
            5909            5920     68.7076E-03     71.9858E-03
            5909            5921     75.6671E-03     78.9849E-03
            5927            5921     75.6671E-03     78.9849E-03
            5928            5921     75.6671E-03     78.9849E-03
            5910            5921     75.6671E-03     78.9849E-03
            5911            5922     82.7493E-03     86.1016E-03
            5910            5922     82.7493E-03     86.1016E-03
            5928            5922     82.7493E-03     86.1016E-03
            5929            5922     82.7493E-03     86.1016E-03
            5912            5923     89.9973E-03     93.4187E-03
            5930            5923     89.9973E-03     93.4187E-03
            5929            5923     89.9973E-03     93.4187E-03
            5911            5923     89.9973E-03     93.4187E-03
            5912            5924     97.5542E-03     101.020E-03
            5930            5924     97.5542E-03     101.020E-03
            5931            5924     97.5542E-03     101.020E-03
            5913            5924     97.5542E-03     101.020E-03
            5914            5925     105.641E-03     109.140E-03
            5932            5925     105.641E-03     109.140E-03
            5913            5925     105.641E-03     109.140E-03
            5931            5925     105.641E-03     109.140E-03
            5914            5926     114.470E-03     117.945E-03
            5932            5926     114.470E-03     117.945E-03
            5933            5926     114.470E-03     117.945E-03
            5915            5926     114.470E-03     117.945E-03
            5934            5927     125.043E-03     128.010E-03
            5916            5927     125.043E-03     128.010E-03
            5933            5927     125.043E-03     128.010E-03
            5915            5927     125.043E-03     128.010E-03
            5917            5928     136.515E-03     139.011E-03
            5934            5928     136.515E-03     139.011E-03
            5935            5928     136.515E-03     139.011E-03
            5916            5928     136.515E-03     139.011E-03
            5936            5929     146.964E-03     149.662E-03
            5918            5929     146.964E-03     149.662E-03
            5917            5929     146.964E-03     149.662E-03
            5935            5929     146.964E-03     149.662E-03
            5938            5930     22.1682E-03     25.2851E-03
            5920            5930     22.1682E-03     25.2851E-03
            5937            5930     22.1682E-03     25.2851E-03
            5919            5930     22.1682E-03     25.2851E-03
            5939            5931     28.8727E-03     32.0353E-03
            5921            5931     28.8727E-03     32.0353E-03
            5938            5931     28.8727E-03     32.0353E-03
            5920            5931     28.8727E-03     32.0353E-03
            5921            5932     35.6509E-03     38.7652E-03
            5940            5932     35.6509E-03     38.7652E-03
            5922            5932     35.6509E-03     38.7652E-03
            5939            5932     35.6509E-03     38.7652E-03
            5940            5933     42.4117E-03     45.4093E-03
            5922            5933     42.4117E-03     45.4093E-03
            5923            5933     42.4117E-03     45.4093E-03
            5941            5933     42.4117E-03     45.4093E-03
            5923            5934     49.2198E-03     52.1175E-03
            5941            5934     49.2198E-03     52.1175E-03
            5924            5934     49.2198E-03     52.1175E-03
            5942            5934     49.2198E-03     52.1175E-03
            5942            5935     56.1263E-03     58.9885E-03
            5925            5935     56.1263E-03     58.9885E-03
            5943            5935     56.1263E-03     58.9885E-03
            5924            5935     56.1263E-03     58.9885E-03
            5944            5936     63.0872E-03     65.9357E-03
            5926            5936     63.0872E-03     65.9357E-03
            5943            5936     63.0872E-03     65.9357E-03
            5925            5936     63.0872E-03     65.9357E-03
            5927            5937     70.1165E-03     72.9968E-03
            5944            5937     70.1165E-03     72.9968E-03
            5945            5937     70.1165E-03     72.9968E-03
            5926            5937     70.1165E-03     72.9968E-03
            5927            5938     77.2195E-03     80.1591E-03
            5945            5938     77.2195E-03     80.1591E-03
            5928            5938     77.2195E-03     80.1591E-03
            5946            5938     77.2195E-03     80.1591E-03
            5947            5939     84.4264E-03     87.4685E-03
            5929            5939     84.4264E-03     87.4685E-03
            5946            5939     84.4264E-03     87.4685E-03
            5928            5939     84.4264E-03     87.4685E-03
            5947            5940     91.7852E-03     94.9448E-03
            5929            5940     91.7852E-03     94.9448E-03
            5930            5940     91.7852E-03     94.9448E-03
            5948            5940     91.7852E-03     94.9448E-03
            5948            5941     99.4118E-03     102.693E-03
            5931            5941     99.4118E-03     102.693E-03
            5949            5941     99.4118E-03     102.693E-03
            5930            5941     99.4118E-03     102.693E-03
            5950            5942     107.352E-03     110.744E-03
            5932            5942     107.352E-03     110.744E-03
            5949            5942     107.352E-03     110.744E-03
            5931            5942     107.352E-03     110.744E-03
            5951            5943     116.010E-03     119.263E-03
            5933            5943     116.010E-03     119.263E-03
            5950            5943     116.010E-03     119.263E-03
            5932            5943     116.010E-03     119.263E-03
            5951            5944     125.097E-03     128.192E-03
            5933            5944     125.097E-03     128.192E-03
            5952            5944     125.097E-03     128.192E-03
            5934            5944     125.097E-03     128.192E-03
            5935            5945     134.154E-03     136.998E-03
            5952            5945     134.154E-03     136.998E-03
            5934            5945     134.154E-03     136.998E-03
            5953            5945     134.154E-03     136.998E-03
            5936            5946     142.996E-03     144.840E-03
            5935            5946     142.996E-03     144.840E-03
            5953            5946     142.996E-03     144.840E-03
            5954            5946     142.996E-03     144.840E-03
            5956            5947     22.8883E-03     25.6632E-03
            5938            5947     22.8883E-03     25.6632E-03
            5937            5947     22.8883E-03     25.6632E-03
            5955            5947     22.8883E-03     25.6632E-03
            5939            5948     29.4060E-03     32.2950E-03
            5957            5948     29.4060E-03     32.2950E-03
            5938            5948     29.4060E-03     32.2950E-03
            5956            5948     29.4060E-03     32.2950E-03
            5957            5949     36.2121E-03     39.0743E-03
            5958            5949     36.2121E-03     39.0743E-03
            5939            5949     36.2121E-03     39.0743E-03
            5940            5949     36.2121E-03     39.0743E-03
            5958            5950     43.1442E-03     45.8450E-03
            5959            5950     43.1442E-03     45.8450E-03
            5940            5950     43.1442E-03     45.8450E-03
            5941            5950     43.1442E-03     45.8450E-03
            5960            5951     50.1004E-03     52.6612E-03
            5959            5951     50.1004E-03     52.6612E-03
            5941            5951     50.1004E-03     52.6612E-03
            5942            5951     50.1004E-03     52.6612E-03
            5960            5952     57.0863E-03     59.5419E-03
            5961            5952     57.0863E-03     59.5419E-03
            5943            5952     57.0863E-03     59.5419E-03
            5942            5952     57.0863E-03     59.5419E-03
            5962            5953     64.1283E-03     66.5448E-03
            5943            5953     64.1283E-03     66.5448E-03
            5961            5953     64.1283E-03     66.5448E-03
            5944            5953     64.1283E-03     66.5448E-03
            5962            5954     71.2118E-03     73.6518E-03
            5945            5954     71.2118E-03     73.6518E-03
            5963            5954     71.2118E-03     73.6518E-03
            5944            5954     71.2118E-03     73.6518E-03
            5963            5955     78.3676E-03     80.8847E-03
            5946            5955     78.3676E-03     80.8847E-03
            5964            5955     78.3676E-03     80.8847E-03
            5945            5955     78.3676E-03     80.8847E-03
            5964            5956     85.5974E-03     88.2389E-03
            5946            5956     85.5974E-03     88.2389E-03
            5947            5956     85.5974E-03     88.2389E-03
            5965            5956     85.5974E-03     88.2389E-03
            5947            5957     92.9530E-03     95.7519E-03
            5948            5957     92.9530E-03     95.7519E-03
            5966            5957     92.9530E-03     95.7519E-03
            5965            5957     92.9530E-03     95.7519E-03
            5949            5958     100.417E-03     103.405E-03
            5966            5958     100.417E-03     103.405E-03
            5967            5958     100.417E-03     103.405E-03
            5948            5958     100.417E-03     103.405E-03
            5968            5959     108.112E-03     111.212E-03
            5949            5959     108.112E-03     111.212E-03
            5950            5959     108.112E-03     111.212E-03
            5967            5959     108.112E-03     111.212E-03
            5969            5960     115.898E-03     119.077E-03
            5951            5960     115.898E-03     119.077E-03
            5968            5960     115.898E-03     119.077E-03
            5950            5960     115.898E-03     119.077E-03
            5969            5961     123.655E-03     126.704E-03
            5970            5961     123.655E-03     126.704E-03
            5952            5961     123.655E-03     126.704E-03
            5951            5961     123.655E-03     126.704E-03
            5971            5962     131.248E-03     133.762E-03
            5952            5962     131.248E-03     133.762E-03
            5953            5962     131.248E-03     133.762E-03
            5970            5962     131.248E-03     133.762E-03
            5953            5963     138.296E-03     140.297E-03
            5972            5963     138.296E-03     140.297E-03
            5971            5963     138.296E-03     140.297E-03
            5954            5963     138.296E-03     140.297E-03
            5973            5964     24.2270E-03     26.6038E-03
            5955            5964     24.2270E-03     26.6038E-03
            5974            5964     24.2270E-03     26.6038E-03
            5956            5964     24.2270E-03     26.6038E-03
            5974            5965     30.2771E-03     32.9985E-03
            5956            5965     30.2771E-03     32.9985E-03
            5975            5965     30.2771E-03     32.9985E-03
            5957            5965     30.2771E-03     32.9985E-03
            5957            5966     37.0108E-03     39.5756E-03
            5975            5966     37.0108E-03     39.5756E-03
            5958            5966     37.0108E-03     39.5756E-03
            5976            5966     37.0108E-03     39.5756E-03
            5977            5967     43.9044E-03     46.2889E-03
            5959            5967     43.9044E-03     46.2889E-03
            5958            5967     43.9044E-03     46.2889E-03
            5976            5967     43.9044E-03     46.2889E-03
            5959            5968     50.8597E-03     53.0131E-03
            5960            5968     50.8597E-03     53.0131E-03
            5977            5968     50.8597E-03     53.0131E-03
            5978            5968     50.8597E-03     53.0131E-03
            5979            5969     57.8403E-03     59.8276E-03
            5960            5969     57.8403E-03     59.8276E-03
            5978            5969     57.8403E-03     59.8276E-03
            5961            5969     57.8403E-03     59.8276E-03
            5961            5970     64.8377E-03     66.7695E-03
            5980            5970     64.8377E-03     66.7695E-03
            5979            5970     64.8377E-03     66.7695E-03
            5962            5970     64.8377E-03     66.7695E-03
            5962            5971     71.8856E-03     73.8260E-03
            5980            5971     71.8856E-03     73.8260E-03
            5981            5971     71.8856E-03     73.8260E-03
            5963            5971     71.8856E-03     73.8260E-03
            5981            5972     78.9742E-03     80.9923E-03
            5982            5972     78.9742E-03     80.9923E-03
            5964            5972     78.9742E-03     80.9923E-03
            5963            5972     78.9742E-03     80.9923E-03
            5964            5973     86.1308E-03     88.2709E-03
            5982            5973     86.1308E-03     88.2709E-03
            5983            5973     86.1308E-03     88.2709E-03
            5965            5973     86.1308E-03     88.2709E-03
            5965            5974     93.3151E-03     95.6396E-03
            5966            5974     93.3151E-03     95.6396E-03
            5984            5974     93.3151E-03     95.6396E-03
            5983            5974     93.3151E-03     95.6396E-03
            5967            5975     100.547E-03     103.069E-03
            5985            5975     100.547E-03     103.069E-03
            5966            5975     100.547E-03     103.069E-03
            5984            5975     100.547E-03     103.069E-03
            5967            5976     107.712E-03     110.461E-03
            5986            5976     107.712E-03     110.461E-03
            5985            5976     107.712E-03     110.461E-03
            5968            5976     107.712E-03     110.461E-03
            5986            5977     114.687E-03     117.604E-03
            5968            5977     114.687E-03     117.604E-03
            5969            5977     114.687E-03     117.604E-03
            5987            5977     114.687E-03     117.604E-03
            5987            5978     121.371E-03     124.208E-03
            5988            5978     121.371E-03     124.208E-03
            5969            5978     121.371E-03     124.208E-03
            5970            5978     121.371E-03     124.208E-03
            5989            5979     127.569E-03     130.075E-03
            5988            5979     127.569E-03     130.075E-03
            5971            5979     127.569E-03     130.075E-03
            5970            5979     127.569E-03     130.075E-03
            5972            5980     133.573E-03     135.296E-03
            5990            5980     133.573E-03     135.296E-03
            5989            5980     133.573E-03     135.296E-03
            5971            5980     133.573E-03     135.296E-03
            5974            5981     25.8751E-03     28.2617E-03
            5973            5981     25.8751E-03     28.2617E-03
            5992            5981     25.8751E-03     28.2617E-03
            5991            5981     25.8751E-03     28.2617E-03
            5993            5982     31.5935E-03     34.0102E-03
            5975            5982     31.5935E-03     34.0102E-03
            5974            5982     31.5935E-03     34.0102E-03
            5992            5982     31.5935E-03     34.0102E-03
            5993            5983     38.0139E-03     40.3853E-03
            5994            5983     38.0139E-03     40.3853E-03
            5976            5983     38.0139E-03     40.3853E-03
            5975            5983     38.0139E-03     40.3853E-03
            5977            5984     44.7378E-03     46.7114E-03
            5994            5984     44.7378E-03     46.7114E-03
            5995            5984     44.7378E-03     46.7114E-03
            5976            5984     44.7378E-03     46.7114E-03
            5977            5985     51.5389E-03     53.1553E-03
            5978            5985     51.5389E-03     53.1553E-03
            5995            5985     51.5389E-03     53.1553E-03
            5996            5985     51.5389E-03     53.1553E-03
            5978            5986     58.3495E-03     59.8053E-03
            5996            5986     58.3495E-03     59.8053E-03
            5997            5986     58.3495E-03     59.8053E-03
            5979            5986     58.3495E-03     59.8053E-03
            5979            5987     65.1911E-03     66.5697E-03
            5980            5987     65.1911E-03     66.5697E-03
            5998            5987     65.1911E-03     66.5697E-03
            5997            5987     65.1911E-03     66.5697E-03
            5998            5988     72.0654E-03     73.4517E-03
            5981            5988     72.0654E-03     73.4517E-03
            5999            5988     72.0654E-03     73.4517E-03
            5980            5988     72.0654E-03     73.4517E-03
            6000            5989     78.9882E-03     80.4249E-03
            5999            5989     78.9882E-03     80.4249E-03
            5981            5989     78.9882E-03     80.4249E-03
            5982            5989     78.9882E-03     80.4249E-03
            5983            5990     85.9213E-03     87.4710E-03
            5982            5990     85.9213E-03     87.4710E-03
            6001            5990     85.9213E-03     87.4710E-03
            6000            5990     85.9213E-03     87.4710E-03
            6001            5991     92.8609E-03     94.5542E-03
            5983            5991     92.8609E-03     94.5542E-03
            6002            5991     92.8609E-03     94.5542E-03
            5984            5991     92.8609E-03     94.5542E-03
            5985            5992     99.7047E-03     101.615E-03
            5984            5992     99.7047E-03     101.615E-03
            6002            5992     99.7047E-03     101.615E-03
            6003            5992     99.7047E-03     101.615E-03
            6003            5993     106.342E-03     108.512E-03
            5985            5993     106.342E-03     108.512E-03
            5986            5993     106.342E-03     108.512E-03
            6004            5993     106.342E-03     108.512E-03
            5987            5994     112.629E-03     115.029E-03
            6004            5994     112.629E-03     115.029E-03
            5986            5994     112.629E-03     115.029E-03
            6005            5994     112.629E-03     115.029E-03
            6005            5995     118.278E-03     120.882E-03
            5988            5995     118.278E-03     120.882E-03
            6006            5995     118.278E-03     120.882E-03
            5987            5995     118.278E-03     120.882E-03
            6006            5996     123.460E-03     125.809E-03
            5988            5996     123.460E-03     125.809E-03
            5989            5996     123.460E-03     125.809E-03
            6007            5996     123.460E-03     125.809E-03
            6008            5997     128.406E-03     129.921E-03
            6007            5997     128.406E-03     129.921E-03
            5989            5997     128.406E-03     129.921E-03
            5990            5997     128.406E-03     129.921E-03
            6010            5998     28.1694E-03     30.1920E-03
            5991            5998     28.1694E-03     30.1920E-03
            5992            5998     28.1694E-03     30.1920E-03
            6009            5998     28.1694E-03     30.1920E-03
            6011            5999     33.2824E-03     35.8848E-03
            6010            5999     33.2824E-03     35.8848E-03
            5992            5999     33.2824E-03     35.8848E-03
            5993            5999     33.2824E-03     35.8848E-03
            6012            6000     39.3523E-03     41.3757E-03
            6011            6000     39.3523E-03     41.3757E-03
            5993            6000     39.3523E-03     41.3757E-03
            5994            6000     39.3523E-03     41.3757E-03
            6013            6001     45.7369E-03     47.0470E-03
            6012            6001     45.7369E-03     47.0470E-03
            5994            6001     45.7369E-03     47.0470E-03
            5995            6001     45.7369E-03     47.0470E-03
            5995            6002     52.1756E-03     53.1797E-03
            6014            6002     52.1756E-03     53.1797E-03
            5996            6002     52.1756E-03     53.1797E-03
            6013            6002     52.1756E-03     53.1797E-03
            5996            6003     58.6583E-03     59.5110E-03
            6014            6003     58.6583E-03     59.5110E-03
            6015            6003     58.6583E-03     59.5110E-03
            5997            6003     58.6583E-03     59.5110E-03
            5998            6004     65.1953E-03     65.9961E-03
            6016            6004     65.1953E-03     65.9961E-03
            5997            6004     65.1953E-03     65.9961E-03
            6015            6004     65.1953E-03     65.9961E-03
            6017            6005     71.7823E-03     72.5717E-03
            6016            6005     71.7823E-03     72.5717E-03
            5998            6005     71.7823E-03     72.5717E-03
            5999            6005     71.7823E-03     72.5717E-03
            6017            6006     78.3904E-03     79.2090E-03
            5999            6006     78.3904E-03     79.2090E-03
            6000            6006     78.3904E-03     79.2090E-03
            6018            6006     78.3904E-03     79.2090E-03
            6019            6007     85.0100E-03     85.8698E-03
            6000            6007     85.0100E-03     85.8698E-03
            6018            6007     85.0100E-03     85.8698E-03
            6001            6007     85.0100E-03     85.8698E-03
            6020            6008     91.5581E-03     92.5154E-03
            6019            6008     91.5581E-03     92.5154E-03
            6002            6008     91.5581E-03     92.5154E-03
            6001            6008     91.5581E-03     92.5154E-03
            6020            6009     97.9700E-03     99.0561E-03
            6002            6009     97.9700E-03     99.0561E-03
            6021            6009     97.9700E-03     99.0561E-03
            6003            6009     97.9700E-03     99.0561E-03
            6021            6010     104.094E-03     105.389E-03
            6022            6010     104.094E-03     105.389E-03
            6003            6010     104.094E-03     105.389E-03
            6004            6010     104.094E-03     105.389E-03
            6004            6011     109.701E-03     111.311E-03
            6022            6011     109.701E-03     111.311E-03
            6023            6011     109.701E-03     111.311E-03
            6005            6011     109.701E-03     111.311E-03
            6024            6012     114.666E-03     116.520E-03
            6023            6012     114.666E-03     116.520E-03
            6006            6012     114.666E-03     116.520E-03
            6005            6012     114.666E-03     116.520E-03
            6024            6013     118.726E-03     120.738E-03
            6025            6013     118.726E-03     120.738E-03
            6006            6013     118.726E-03     120.738E-03
            6007            6013     118.726E-03     120.738E-03
            6025            6014     122.645E-03     124.164E-03
            6008            6014     122.645E-03     124.164E-03
            6026            6014     122.645E-03     124.164E-03
            6007            6014     122.645E-03     124.164E-03
            6009            6015     30.8984E-03     34.0802E-03
            6027            6015     30.8984E-03     34.0802E-03
            6028            6015     30.8984E-03     34.0802E-03
            6010            6015     30.8984E-03     34.0802E-03
            6010            6016     35.6341E-03     38.1190E-03
            6029            6016     35.6341E-03     38.1190E-03
            6028            6016     35.6341E-03     38.1190E-03
            6011            6016     35.6341E-03     38.1190E-03
            6029            6017     41.2268E-03     42.2810E-03
            6030            6017     41.2268E-03     42.2810E-03
            6012            6017     41.2268E-03     42.2810E-03
            6011            6017     41.2268E-03     42.2810E-03
            6012            6018     46.9655E-03     47.4774E-03
            6030            6018     46.9655E-03     47.4774E-03
            6031            6018     46.9655E-03     47.4774E-03
            6013            6018     46.9655E-03     47.4774E-03
            6032            6019     52.8400E-03     53.1737E-03
            6031            6019     52.8400E-03     53.1737E-03
            6014            6019     52.8400E-03     53.1737E-03
            6013            6019     52.8400E-03     53.1737E-03
            6014            6020     58.8479E-03     59.1137E-03
            6032            6020     58.8479E-03     59.1137E-03
            6033            6020     58.8479E-03     59.1137E-03
            6015            6020     58.8479E-03     59.1137E-03
            6015            6021     64.9552E-03     65.1949E-03
            6033            6021     64.9552E-03     65.1949E-03
            6034            6021     64.9552E-03     65.1949E-03
            6016            6021     64.9552E-03     65.1949E-03
            6017            6022     71.1164E-03     71.3380E-03
            6016            6022     71.1164E-03     71.3380E-03
            6035            6022     71.1164E-03     71.3380E-03
            6034            6022     71.1164E-03     71.3380E-03
            6035            6023     77.3088E-03     77.4957E-03
            6036            6023     77.3088E-03     77.4957E-03
            6017            6023     77.3088E-03     77.4957E-03
            6018            6023     77.3088E-03     77.4957E-03
            6019            6024     83.4616E-03     83.6221E-03
            6018            6024     83.4616E-03     83.6221E-03
            6037            6024     83.4616E-03     83.6221E-03
            6036            6024     83.4616E-03     83.6221E-03
            6020            6025     89.5358E-03     89.6526E-03
            6019            6025     89.5358E-03     89.6526E-03
            6037            6025     89.5358E-03     89.6526E-03
            6038            6025     89.5358E-03     89.6526E-03
            6021            6026     95.4126E-03     95.5234E-03
            6020            6026     95.4126E-03     95.5234E-03
            6039            6026     95.4126E-03     95.5234E-03
            6038            6026     95.4126E-03     95.5234E-03
            6040            6027     100.980E-03     101.116E-03
            6021            6027     100.980E-03     101.116E-03
            6022            6027     100.980E-03     101.116E-03
            6039            6027     100.980E-03     101.116E-03
            6041            6028     106.039E-03     106.302E-03
            6040            6028     106.039E-03     106.302E-03
            6023            6028     106.039E-03     106.302E-03
            6022            6028     106.039E-03     106.302E-03
            6041            6029     110.320E-03     110.869E-03
            6024            6029     110.320E-03     110.869E-03
            6023            6029     110.320E-03     110.869E-03
            6042            6029     110.320E-03     110.869E-03
            6043            6030     113.624E-03     114.412E-03
            6042            6030     113.624E-03     114.412E-03
            6024            6030     113.624E-03     114.412E-03
            6025            6030     113.624E-03     114.412E-03
            6026            6031     116.296E-03     116.778E-03
            6025            6031     116.296E-03     116.778E-03
            6044            6031     116.296E-03     116.778E-03
            6043            6031     116.296E-03     116.778E-03
            6046            6032     34.9191E-03     37.7239E-03
            6045            6032     34.9191E-03     37.7239E-03
            6028            6032     34.9191E-03     37.7239E-03
            6027            6032     34.9191E-03     37.7239E-03
            6047            6033     39.1950E-03     39.6970E-03
            6028            6033     39.1950E-03     39.6970E-03
            6029            6033     39.1950E-03     39.6970E-03
            6046            6033     39.1950E-03     39.6970E-03
            6047            6034     43.5766E-03     43.3477E-03
            6048            6034     43.5766E-03     43.3477E-03
            6030            6034     43.5766E-03     43.3477E-03
            6029            6034     43.5766E-03     43.3477E-03
            6048            6035     48.4518E-03     48.1583E-03
            6049            6035     48.4518E-03     48.1583E-03
            6031            6035     48.4518E-03     48.1583E-03
            6030            6035     48.4518E-03     48.1583E-03
            6050            6036     53.6193E-03     53.3697E-03
            6049            6036     53.6193E-03     53.3697E-03
            6032            6036     53.6193E-03     53.3697E-03
            6031            6036     53.6193E-03     53.3697E-03
            6033            6037     59.0640E-03     58.8427E-03
            6051            6037     59.0640E-03     58.8427E-03
            6050            6037     59.0640E-03     58.8427E-03
            6032            6037     59.0640E-03     58.8427E-03
            6051            6038     64.6337E-03     64.4156E-03
            6033            6038     64.6337E-03     64.4156E-03
            6034            6038     64.6337E-03     64.4156E-03
            6052            6038     64.6337E-03     64.4156E-03
            6053            6039     70.2888E-03     70.0169E-03
            6052            6039     70.2888E-03     70.0169E-03
            6034            6039     70.2888E-03     70.0169E-03
            6035            6039     70.2888E-03     70.0169E-03
            6053            6040     75.9330E-03     75.5754E-03
            6036            6040     75.9330E-03     75.5754E-03
            6054            6040     75.9330E-03     75.5754E-03
            6035            6040     75.9330E-03     75.5754E-03
            6054            6041     81.5277E-03     81.0230E-03
            6036            6041     81.5277E-03     81.0230E-03
            6055            6041     81.5277E-03     81.0230E-03
            6037            6041     81.5277E-03     81.0230E-03
            6055            6042     86.9808E-03     86.2915E-03
            6056            6042     86.9808E-03     86.2915E-03
            6037            6042     86.9808E-03     86.2915E-03
            6038            6042     86.9808E-03     86.2915E-03
            6039            6043     92.2280E-03     91.2968E-03
            6057            6043     92.2280E-03     91.2968E-03
            6056            6043     92.2280E-03     91.2968E-03
            6038            6043     92.2280E-03     91.2968E-03
            6057            6044     97.1458E-03     95.9331E-03
            6058            6044     97.1458E-03     95.9331E-03
            6039            6044     97.1458E-03     95.9331E-03
            6040            6044     97.1458E-03     95.9331E-03
            6059            6045     101.611E-03     100.112E-03
            6040            6045     101.611E-03     100.112E-03
            6058            6045     101.611E-03     100.112E-03
            6041            6045     101.611E-03     100.112E-03
            6059            6046     105.375E-03     103.627E-03
            6042            6046     105.375E-03     103.627E-03
            6060            6046     105.375E-03     103.627E-03
            6041            6046     105.375E-03     103.627E-03
            6060            6047     108.139E-03     106.371E-03
            6061            6047     108.139E-03     106.371E-03
            6043            6047     108.139E-03     106.371E-03
            6042            6047     108.139E-03     106.371E-03
            6061            6048     109.436E-03     107.311E-03
            6062            6048     109.436E-03     107.311E-03
            6044            6048     109.436E-03     107.311E-03
            6043            6048     109.436E-03     107.311E-03
            6063            6049     28.0153E-03     29.5350E-03
            6045            6049     28.0153E-03     29.5350E-03
            6046            6049     28.0153E-03     29.5350E-03
            6064            6049     28.0153E-03     29.5350E-03
            6065            6050     30.2515E-03     31.1986E-03
            6046            6050     30.2515E-03     31.1986E-03
            6064            6050     30.2515E-03     31.1986E-03
            6047            6050     30.2515E-03     31.1986E-03
            6065            6051     33.5034E-03     34.5910E-03
            6066            6051     33.5034E-03     34.5910E-03
            6047            6051     33.5034E-03     34.5910E-03
            6048            6051     33.5034E-03     34.5910E-03
            6049            6052     37.3925E-03     38.7124E-03
            6067            6052     37.3925E-03     38.7124E-03
            6066            6052     37.3925E-03     38.7124E-03
            6048            6052     37.3925E-03     38.7124E-03
            6068            6053     41.6656E-03     43.1191E-03
            6067            6053     41.6656E-03     43.1191E-03
            6049            6053     41.6656E-03     43.1191E-03
            6050            6053     41.6656E-03     43.1191E-03
            6068            6054     46.1798E-03     47.7086E-03
            6051            6054     46.1798E-03     47.7086E-03
            6050            6054     46.1798E-03     47.7086E-03
            6069            6054     46.1798E-03     47.7086E-03
            6051            6055     50.8450E-03     52.3741E-03
            6069            6055     50.8450E-03     52.3741E-03
            6070            6055     50.8450E-03     52.3741E-03
            6052            6055     50.8450E-03     52.3741E-03
            6070            6056     55.5891E-03     57.0727E-03
            6071            6056     55.5891E-03     57.0727E-03
            6052            6056     55.5891E-03     57.0727E-03
            6053            6056     55.5891E-03     57.0727E-03
            6071            6057     60.3917E-03     61.7577E-03
            6054            6057     60.3917E-03     61.7577E-03
            6072            6057     60.3917E-03     61.7577E-03
            6053            6057     60.3917E-03     61.7577E-03
            6055            6058     65.2045E-03     66.4252E-03
            6073            6058     65.2045E-03     66.4252E-03
            6054            6058     65.2045E-03     66.4252E-03
            6072            6058     65.2045E-03     66.4252E-03
            6056            6059     70.0630E-03     71.0413E-03
            6055            6059     70.0630E-03     71.0413E-03
            6073            6059     70.0630E-03     71.0413E-03
            6074            6059     70.0630E-03     71.0413E-03
            6074            6060     74.9203E-03     75.6571E-03
            6056            6060     74.9203E-03     75.6571E-03
            6075            6060     74.9203E-03     75.6571E-03
            6057            6060     74.9203E-03     75.6571E-03
            6075            6061     79.9061E-03     80.2743E-03
            6076            6061     79.9061E-03     80.2743E-03
            6057            6061     79.9061E-03     80.2743E-03
            6058            6061     79.9061E-03     80.2743E-03
            6058            6062     84.9537E-03     85.0484E-03
            6077            6062     84.9537E-03     85.0484E-03
            6059            6062     84.9537E-03     85.0484E-03
            6076            6062     84.9537E-03     85.0484E-03
            6060            6063     90.4677E-03     90.2325E-03
            6077            6063     90.4677E-03     90.2325E-03
            6059            6063     90.4677E-03     90.2325E-03
            6078            6063     90.4677E-03     90.2325E-03
            6079            6064     96.3066E-03     96.1874E-03
            6061            6064     96.3066E-03     96.1874E-03
            6078            6064     96.3066E-03     96.1874E-03
            6060            6064     96.3066E-03     96.1874E-03
            6061            6065     104.810E-03     106.565E-03
            6079            6065     104.810E-03     106.565E-03
            6080            6065     104.810E-03     106.565E-03
            6062            6065     104.810E-03     106.565E-03
            6081            6066     17.6442E-03     20.0391E-03
            6082            6066     17.6442E-03     20.0391E-03
            6064            6066     17.6442E-03     20.0391E-03
            6063            6066     17.6442E-03     20.0391E-03
            6082            6067     19.4525E-03     22.0994E-03
            6064            6067     19.4525E-03     22.0994E-03
            6083            6067     19.4525E-03     22.0994E-03
            6065            6067     19.4525E-03     22.0994E-03
            6083            6068     22.2663E-03     25.1908E-03
            6065            6068     22.2663E-03     25.1908E-03
            6084            6068     22.2663E-03     25.1908E-03
            6066            6068     22.2663E-03     25.1908E-03
            6084            6069     25.8097E-03     28.8973E-03
            6066            6069     25.8097E-03     28.8973E-03
            6067            6069     25.8097E-03     28.8973E-03
            6085            6069     25.8097E-03     28.8973E-03
            6086            6070     29.5838E-03     32.7845E-03
            6067            6070     29.5838E-03     32.7845E-03
            6068            6070     29.5838E-03     32.7845E-03
            6085            6070     29.5838E-03     32.7845E-03
            6086            6071     33.5691E-03     36.8257E-03
            6087            6071     33.5691E-03     36.8257E-03
            6068            6071     33.5691E-03     36.8257E-03
            6069            6071     33.5691E-03     36.8257E-03
            6088            6072     37.6547E-03     40.9243E-03
            6069            6072     37.6547E-03     40.9243E-03
            6070            6072     37.6547E-03     40.9243E-03
            6087            6072     37.6547E-03     40.9243E-03
            6089            6073     41.8525E-03     45.0953E-03
            6088            6073     41.8525E-03     45.0953E-03
            6071            6073     41.8525E-03     45.0953E-03
            6070            6073     41.8525E-03     45.0953E-03
            6071            6074     46.1374E-03     49.3197E-03
            6072            6074     46.1374E-03     49.3197E-03
            6089            6074     46.1374E-03     49.3197E-03
            6090            6074     46.1374E-03     49.3197E-03
            6091            6075     50.5735E-03     53.6624E-03
            6072            6075     50.5735E-03     53.6624E-03
            6073            6075     50.5735E-03     53.6624E-03
            6090            6075     50.5735E-03     53.6624E-03
            6092            6076     55.1849E-03     58.1603E-03
            6073            6076     55.1849E-03     58.1603E-03
            6074            6076     55.1849E-03     58.1603E-03
            6091            6076     55.1849E-03     58.1603E-03
            6093            6077     60.1456E-03     62.9862E-03
            6075            6077     60.1456E-03     62.9862E-03
            6092            6077     60.1456E-03     62.9862E-03
            6074            6077     60.1456E-03     62.9862E-03
            6076            6078     65.5431E-03     68.2741E-03
            6075            6078     65.5431E-03     68.2741E-03
            6093            6078     65.5431E-03     68.2741E-03
            6094            6078     65.5431E-03     68.2741E-03
            6095            6079     71.8583E-03     74.5040E-03
            6077            6079     71.8583E-03     74.5040E-03
            6076            6079     71.8583E-03     74.5040E-03
            6094            6079     71.8583E-03     74.5040E-03
            6077            6080     79.3353E-03     82.0559E-03
            6096            6080     79.3353E-03     82.0559E-03
            6078            6080     79.3353E-03     82.0559E-03
            6095            6080     79.3353E-03     82.0559E-03
            6096            6081     89.8068E-03     92.7884E-03
            6097            6081     89.8068E-03     92.7884E-03
            6078            6081     89.8068E-03     92.7884E-03
            6079            6081     89.8068E-03     92.7884E-03
            6079            6082     106.308E-03     108.657E-03
            6097            6082     106.308E-03     108.657E-03
            6080            6082     106.308E-03     108.657E-03
            6098            6082     106.308E-03     108.657E-03
            6081            6083     16.4482E-03     18.7991E-03
            6082            6083     16.4482E-03     18.7991E-03
            6100            6083     16.4482E-03     18.7991E-03
            6099            6083     16.4482E-03     18.7991E-03
            6083            6084     19.6483E-03     22.0786E-03
            6100            6084     19.6483E-03     22.0786E-03
            6101            6084     19.6483E-03     22.0786E-03
            6082            6084     19.6483E-03     22.0786E-03
            6102            6085     22.7158E-03     25.2978E-03
            6083            6085     22.7158E-03     25.2978E-03
            6084            6085     22.7158E-03     25.2978E-03
            6101            6085     22.7158E-03     25.2978E-03
            6085            6086     26.3874E-03     29.0981E-03
            6102            6086     26.3874E-03     29.0981E-03
            6103            6086     26.3874E-03     29.0981E-03
            6084            6086     26.3874E-03     29.0981E-03
            6104            6087     30.3225E-03     33.1174E-03
            6086            6087     30.3225E-03     33.1174E-03
            6103            6087     30.3225E-03     33.1174E-03
            6085            6087     30.3225E-03     33.1174E-03
            6105            6088     34.4241E-03     37.2702E-03
            6087            6088     34.4241E-03     37.2702E-03
            6086            6088     34.4241E-03     37.2702E-03
            6104            6088     34.4241E-03     37.2702E-03
            6105            6089     38.6475E-03     41.5164E-03
            6087            6089     38.6475E-03     41.5164E-03
            6088            6089     38.6475E-03     41.5164E-03
            6106            6089     38.6475E-03     41.5164E-03
            6088            6090     42.9537E-03     45.8257E-03
            6089            6090     42.9537E-03     45.8257E-03
            6107            6090     42.9537E-03     45.8257E-03
            6106            6090     42.9537E-03     45.8257E-03
            6089            6091     47.3690E-03     50.2225E-03
            6108            6091     47.3690E-03     50.2225E-03
            6090            6091     47.3690E-03     50.2225E-03
            6107            6091     47.3690E-03     50.2225E-03
            6091            6092     51.9014E-03     54.7328E-03
            6108            6092     51.9014E-03     54.7328E-03
            6109            6092     51.9014E-03     54.7328E-03
            6090            6092     51.9014E-03     54.7328E-03
            6092            6093     56.6594E-03     59.4448E-03
            6091            6093     56.6594E-03     59.4448E-03
            6110            6093     56.6594E-03     59.4448E-03
            6109            6093     56.6594E-03     59.4448E-03
            6110            6094     61.7203E-03     64.4787E-03
            6093            6094     61.7203E-03     64.4787E-03
            6111            6094     61.7203E-03     64.4787E-03
            6092            6094     61.7203E-03     64.4787E-03
            6111            6095     67.3625E-03     70.0522E-03
            6094            6095     67.3625E-03     70.0522E-03
            6093            6095     67.3625E-03     70.0522E-03
            6112            6095     67.3625E-03     70.0522E-03
            6094            6096     73.8704E-03     76.5257E-03
            6112            6096     73.8704E-03     76.5257E-03
            6113            6096     73.8704E-03     76.5257E-03
            6095            6096     73.8704E-03     76.5257E-03
            6113            6097     81.8652E-03     84.3860E-03
            6096            6097     81.8652E-03     84.3860E-03
            6095            6097     81.8652E-03     84.3860E-03
            6114            6097     81.8652E-03     84.3860E-03
            6096            6098     93.2561E-03     94.9532E-03
            6115            6098     93.2561E-03     94.9532E-03
            6097            6098     93.2561E-03     94.9532E-03
            6114            6098     93.2561E-03     94.9532E-03
            6115            6099     105.824E-03     106.301E-03
            6098            6099     105.824E-03     106.301E-03
            6116            6099     105.824E-03     106.301E-03
            6097            6099     105.824E-03     106.301E-03
            6099            6100     16.0012E-03     18.0145E-03
            6117            6100     16.0012E-03     18.0145E-03
            6118            6100     16.0012E-03     18.0145E-03
            6100            6100     16.0012E-03     18.0145E-03
            6119            6101     19.6596E-03     21.8662E-03
            6118            6101     19.6596E-03     21.8662E-03
            6100            6101     19.6596E-03     21.8662E-03
            6101            6101     19.6596E-03     21.8662E-03
            6102            6102     23.3017E-03     25.5935E-03
            6119            6102     23.3017E-03     25.5935E-03
            6120            6102     23.3017E-03     25.5935E-03
            6101            6102     23.3017E-03     25.5935E-03
            6102            6103     27.0879E-03     29.4701E-03
            6120            6103     27.0879E-03     29.4701E-03
            6121            6103     27.0879E-03     29.4701E-03
            6103            6103     27.0879E-03     29.4701E-03
            6103            6104     31.1716E-03     33.6113E-03
            6122            6104     31.1716E-03     33.6113E-03
            6121            6104     31.1716E-03     33.6113E-03
            6104            6104     31.1716E-03     33.6113E-03
            6123            6105     35.3871E-03     37.8696E-03
            6104            6105     35.3871E-03     37.8696E-03
            6105            6105     35.3871E-03     37.8696E-03
            6122            6105     35.3871E-03     37.8696E-03
            6106            6106     39.7171E-03     42.2279E-03
            6123            6106     39.7171E-03     42.2279E-03
            6105            6106     39.7171E-03     42.2279E-03
            6124            6106     39.7171E-03     42.2279E-03
            6106            6107     44.1373E-03     46.6680E-03
            6124            6107     44.1373E-03     46.6680E-03
            6107            6107     44.1373E-03     46.6680E-03
            6125            6107     44.1373E-03     46.6680E-03
            6108            6108     48.6473E-03     51.2016E-03
            6125            6108     48.6473E-03     51.2016E-03
            6107            6108     48.6473E-03     51.2016E-03
            6126            6108     48.6473E-03     51.2016E-03
            6108            6109     53.2937E-03     55.8616E-03
            6126            6109     53.2937E-03     55.8616E-03
            6109            6109     53.2937E-03     55.8616E-03
            6127            6109     53.2937E-03     55.8616E-03
            6109            6110     58.1316E-03     60.7246E-03
            6127            6110     58.1316E-03     60.7246E-03
            6110            6110     58.1316E-03     60.7246E-03
            6128            6110     58.1316E-03     60.7246E-03
            6110            6111     63.2952E-03     65.8840E-03
            6128            6111     63.2952E-03     65.8840E-03
            6111            6111     63.2952E-03     65.8840E-03
            6129            6111     63.2952E-03     65.8840E-03
            6111            6112     68.9971E-03     71.5600E-03
            6112            6112     68.9971E-03     71.5600E-03
            6129            6112     68.9971E-03     71.5600E-03
            6130            6112     68.9971E-03     71.5600E-03
            6130            6113     75.4577E-03     77.9342E-03
            6131            6113     75.4577E-03     77.9342E-03
            6112            6113     75.4577E-03     77.9342E-03
            6113            6113     75.4577E-03     77.9342E-03
            6113            6114     83.5344E-03     85.5659E-03
            6132            6114     83.5344E-03     85.5659E-03
            6131            6114     83.5344E-03     85.5659E-03
            6114            6114     83.5344E-03     85.5659E-03
            6114            6115     92.6787E-03     94.3132E-03
            6133            6115     92.6787E-03     94.3132E-03
            6115            6115     92.6787E-03     94.3132E-03
            6132            6115     92.6787E-03     94.3132E-03
            6134            6116     101.413E-03     103.321E-03
            6133            6116     101.413E-03     103.321E-03
            6115            6116     101.413E-03     103.321E-03
            6116            6116     101.413E-03     103.321E-03
            6118            6117     16.2942E-03     17.9742E-03
            6117            6117     16.2942E-03     17.9742E-03
            6136            6117     16.2942E-03     17.9742E-03
            6135            6117     16.2942E-03     17.9742E-03
            6136            6118     19.9225E-03     21.8374E-03
            6118            6118     19.9225E-03     21.8374E-03
            6119            6118     19.9225E-03     21.8374E-03
            6137            6118     19.9225E-03     21.8374E-03
            6120            6119     23.8075E-03     25.8528E-03
            6119            6119     23.8075E-03     25.8528E-03
            6138            6119     23.8075E-03     25.8528E-03
            6137            6119     23.8075E-03     25.8528E-03
            6139            6120     27.8469E-03     29.9351E-03
            6138            6120     27.8469E-03     29.9351E-03
            6120            6120     27.8469E-03     29.9351E-03
            6121            6120     27.8469E-03     29.9351E-03
            6140            6121     32.0228E-03     34.1517E-03
            6121            6121     32.0228E-03     34.1517E-03
            6122            6121     32.0228E-03     34.1517E-03
            6139            6121     32.0228E-03     34.1517E-03
            6122            6122     36.3559E-03     38.5033E-03
            6141            6122     36.3559E-03     38.5033E-03
            6140            6122     36.3559E-03     38.5033E-03
            6123            6122     36.3559E-03     38.5033E-03
            6141            6123     40.7736E-03     42.9440E-03
            6123            6123     40.7736E-03     42.9440E-03
            6142            6123     40.7736E-03     42.9440E-03
            6124            6123     40.7736E-03     42.9440E-03
            6125            6124     45.2773E-03     47.4792E-03
            6142            6124     45.2773E-03     47.4792E-03
            6124            6124     45.2773E-03     47.4792E-03
            6143            6124     45.2773E-03     47.4792E-03
            6144            6125     49.8650E-03     52.1056E-03
            6126            6125     49.8650E-03     52.1056E-03
            6143            6125     49.8650E-03     52.1056E-03
            6125            6125     49.8650E-03     52.1056E-03
            6145            6126     54.5680E-03     56.8622E-03
            6127            6126     54.5680E-03     56.8622E-03
            6126            6126     54.5680E-03     56.8622E-03
            6144            6126     54.5680E-03     56.8622E-03
            6127            6127     59.4295E-03     61.7761E-03
            6145            6127     59.4295E-03     61.7761E-03
            6128            6127     59.4295E-03     61.7761E-03
            6146            6127     59.4295E-03     61.7761E-03
            6128            6128     64.5737E-03     66.9504E-03
            6146            6128     64.5737E-03     66.9504E-03
            6129            6128     64.5737E-03     66.9504E-03
            6147            6128     64.5737E-03     66.9504E-03
            6148            6129     70.0635E-03     72.4483E-03
            6130            6129     70.0635E-03     72.4483E-03
            6129            6129     70.0635E-03     72.4483E-03
            6147            6129     70.0635E-03     72.4483E-03
            6148            6130     76.2779E-03     78.4747E-03
            6130            6130     76.2779E-03     78.4747E-03
            6131            6130     76.2779E-03     78.4747E-03
            6149            6130     76.2779E-03     78.4747E-03
            6149            6131     83.0686E-03     85.0762E-03
            6150            6131     83.0686E-03     85.0762E-03
            6131            6131     83.0686E-03     85.0762E-03
            6132            6131     83.0686E-03     85.0762E-03
            6133            6132     90.1269E-03     91.9892E-03
            6132            6132     90.1269E-03     91.9892E-03
            6150            6132     90.1269E-03     91.9892E-03
            6151            6132     90.1269E-03     91.9892E-03
            6151            6133     97.4561E-03     98.6644E-03
            6152            6133     97.4561E-03     98.6644E-03
            6134            6133     97.4561E-03     98.6644E-03
            6133            6133     97.4561E-03     98.6644E-03
            6136            6134     16.9462E-03     18.3283E-03
            6153            6134     16.9462E-03     18.3283E-03
            6135            6134     16.9462E-03     18.3283E-03
            6154            6134     16.9462E-03     18.3283E-03
            6136            6135     20.4279E-03     22.1084E-03
            6154            6135     20.4279E-03     22.1084E-03
            6137            6135     20.4279E-03     22.1084E-03
            6155            6135     20.4279E-03     22.1084E-03
            6138            6136     24.3643E-03     26.1537E-03
            6156            6136     24.3643E-03     26.1537E-03
            6155            6136     24.3643E-03     26.1537E-03
            6137            6136     24.3643E-03     26.1537E-03
            6139            6137     28.5259E-03     30.3691E-03
            6157            6137     28.5259E-03     30.3691E-03
            6138            6137     28.5259E-03     30.3691E-03
            6156            6137     28.5259E-03     30.3691E-03
            6140            6138     32.8310E-03     34.6589E-03
            6158            6138     32.8310E-03     34.6589E-03
            6157            6138     32.8310E-03     34.6589E-03
            6139            6138     32.8310E-03     34.6589E-03
            6140            6139     37.2301E-03     39.0542E-03
            6158            6139     37.2301E-03     39.0542E-03
            6159            6139     37.2301E-03     39.0542E-03
            6141            6139     37.2301E-03     39.0542E-03
            6159            6140     41.7177E-03     43.5453E-03
            6160            6140     41.7177E-03     43.5453E-03
            6141            6140     41.7177E-03     43.5453E-03
            6142            6140     41.7177E-03     43.5453E-03
            6160            6141     46.2649E-03     48.1178E-03
            6142            6141     46.2649E-03     48.1178E-03
            6161            6141     46.2649E-03     48.1178E-03
            6143            6141     46.2649E-03     48.1178E-03
            6143            6142     50.8863E-03     52.7900E-03
            6144            6142     50.8863E-03     52.7900E-03
            6162            6142     50.8863E-03     52.7900E-03
            6161            6142     50.8863E-03     52.7900E-03
            6145            6143     55.5769E-03     57.5534E-03
            6144            6143     55.5769E-03     57.5534E-03
            6162            6143     55.5769E-03     57.5534E-03
            6163            6143     55.5769E-03     57.5534E-03
            6145            6144     60.3936E-03     62.4443E-03
            6146            6144     60.3936E-03     62.4443E-03
            6163            6144     60.3936E-03     62.4443E-03
            6164            6144     60.3936E-03     62.4443E-03
            6165            6145     65.3232E-03     67.4609E-03
            6164            6145     65.3232E-03     67.4609E-03
            6147            6145     65.3232E-03     67.4609E-03
            6146            6145     65.3232E-03     67.4609E-03
            6147            6146     70.5203E-03     72.6484E-03
            6165            6146     70.5203E-03     72.6484E-03
            6148            6146     70.5203E-03     72.6484E-03
            6166            6146     70.5203E-03     72.6484E-03
            6148            6147     75.9083E-03     78.0046E-03
            6167            6147     75.9083E-03     78.0046E-03
            6149            6147     75.9083E-03     78.0046E-03
            6166            6147     75.9083E-03     78.0046E-03
            6149            6148     81.4858E-03     83.4311E-03
            6167            6148     81.4858E-03     83.4311E-03
            6150            6148     81.4858E-03     83.4311E-03
            6168            6148     81.4858E-03     83.4311E-03
            6151            6149     87.2736E-03     88.8041E-03
            6150            6149     87.2736E-03     88.8041E-03
            6168            6149     87.2736E-03     88.8041E-03
            6169            6149     87.2736E-03     88.8041E-03
            6169            6150     92.9972E-03     94.3164E-03
            6170            6150     92.9972E-03     94.3164E-03
            6151            6150     92.9972E-03     94.3164E-03
            6152            6150     92.9972E-03     94.3164E-03
            6171            6151     17.7896E-03     18.9577E-03
            6153            6151     17.7896E-03     18.9577E-03
            6154            6151     17.7896E-03     18.9577E-03
            6172            6151     17.7896E-03     18.9577E-03
            6154            6152     21.0810E-03     22.5356E-03
            6172            6152     21.0810E-03     22.5356E-03
            6155            6152     21.0810E-03     22.5356E-03
            6173            6152     21.0810E-03     22.5356E-03
            6174            6153     24.9600E-03     26.5692E-03
            6155            6153     24.9600E-03     26.5692E-03
            6156            6153     24.9600E-03     26.5692E-03
            6173            6153     24.9600E-03     26.5692E-03
            6175            6154     29.1634E-03     30.7447E-03
            6174            6154     29.1634E-03     30.7447E-03
            6157            6154     29.1634E-03     30.7447E-03
            6156            6154     29.1634E-03     30.7447E-03
            6158            6155     33.5196E-03     35.0577E-03
            6175            6155     33.5196E-03     35.0577E-03
            6157            6155     33.5196E-03     35.0577E-03
            6176            6155     33.5196E-03     35.0577E-03
            6159            6156     37.9617E-03     39.4429E-03
            6158            6156     37.9617E-03     39.4429E-03
            6177            6156     37.9617E-03     39.4429E-03
            6176            6156     37.9617E-03     39.4429E-03
            6159            6157     42.4590E-03     43.9150E-03
            6160            6157     42.4590E-03     43.9150E-03
            6177            6157     42.4590E-03     43.9150E-03
            6178            6157     42.4590E-03     43.9150E-03
            6178            6158     47.0088E-03     48.4795E-03
            6161            6158     47.0088E-03     48.4795E-03
            6179            6158     47.0088E-03     48.4795E-03
            6160            6158     47.0088E-03     48.4795E-03
            6161            6159     51.5905E-03     53.1132E-03
            6179            6159     51.5905E-03     53.1132E-03
            6180            6159     51.5905E-03     53.1132E-03
            6162            6159     51.5905E-03     53.1132E-03
            6162            6160     56.2253E-03     57.8239E-03
            6180            6160     56.2253E-03     57.8239E-03
            6181            6160     56.2253E-03     57.8239E-03
            6163            6160     56.2253E-03     57.8239E-03
            6163            6161     60.8687E-03     62.5818E-03
            6182            6161     60.8687E-03     62.5818E-03
            6181            6161     60.8687E-03     62.5818E-03
            6164            6161     60.8687E-03     62.5818E-03
            6164            6162     65.5611E-03     67.3659E-03
            6182            6162     65.5611E-03     67.3659E-03
            6183            6162     65.5611E-03     67.3659E-03
            6165            6162     65.5611E-03     67.3659E-03
            6166            6163     70.2067E-03     72.1206E-03
            6183            6163     70.2067E-03     72.1206E-03
            6184            6163     70.2067E-03     72.1206E-03
            6165            6163     70.2067E-03     72.1206E-03
            6185            6164     74.8147E-03     76.7386E-03
            6166            6164     74.8147E-03     76.7386E-03
            6184            6164     74.8147E-03     76.7386E-03
            6167            6164     74.8147E-03     76.7386E-03
            6185            6165     79.3747E-03     81.1369E-03
            6186            6165     79.3747E-03     81.1369E-03
            6167            6165     79.3747E-03     81.1369E-03
            6168            6165     79.3747E-03     81.1369E-03
            6169            6166     83.8624E-03     85.4007E-03
            6187            6166     83.8624E-03     85.4007E-03
            6168            6166     83.8624E-03     85.4007E-03
            6186            6166     83.8624E-03     85.4007E-03
            6169            6167     88.6826E-03     89.6932E-03
            6188            6167     88.6826E-03     89.6932E-03
            6187            6167     88.6826E-03     89.6932E-03
            6170            6167     88.6826E-03     89.6932E-03
            6189            6168     18.8458E-03     19.8093E-03
            6172            6168     18.8458E-03     19.8093E-03
            6171            6168     18.8458E-03     19.8093E-03
            6190            6168     18.8458E-03     19.8093E-03
            6173            6169     21.8195E-03     23.1942E-03
            6190            6169     21.8195E-03     23.1942E-03
            6191            6169     21.8195E-03     23.1942E-03
            6172            6169     21.8195E-03     23.1942E-03
            6174            6170     25.6073E-03     27.0083E-03
            6173            6170     25.6073E-03     27.0083E-03
            6191            6170     25.6073E-03     27.0083E-03
            6192            6170     25.6073E-03     27.0083E-03
            6193            6171     29.7669E-03     31.1164E-03
            6174            6171     29.7669E-03     31.1164E-03
            6192            6171     29.7669E-03     31.1164E-03
            6175            6171     29.7669E-03     31.1164E-03
            6194            6172     34.0973E-03     35.3052E-03
            6176            6172     34.0973E-03     35.3052E-03
            6193            6172     34.0973E-03     35.3052E-03
            6175            6172     34.0973E-03     35.3052E-03
            6194            6173     38.5078E-03     39.6004E-03
            6177            6173     38.5078E-03     39.6004E-03
            6195            6173     38.5078E-03     39.6004E-03
            6176            6173     38.5078E-03     39.6004E-03
            6178            6174     42.9555E-03     43.9985E-03
            6195            6174     42.9555E-03     43.9985E-03
            6196            6174     42.9555E-03     43.9985E-03
            6177            6174     42.9555E-03     43.9985E-03
            6196            6175     47.4245E-03     48.4678E-03
            6179            6175     47.4245E-03     48.4678E-03
            6178            6175     47.4245E-03     48.4678E-03
            6197            6175     47.4245E-03     48.4678E-03
            6179            6176     51.9214E-03     53.0040E-03
            6180            6176     51.9214E-03     53.0040E-03
            6198            6176     51.9214E-03     53.0040E-03
            6197            6176     51.9214E-03     53.0040E-03
            6180            6177     56.4007E-03     57.5699E-03
            6181            6177     56.4007E-03     57.5699E-03
            6198            6177     56.4007E-03     57.5699E-03
            6199            6177     56.4007E-03     57.5699E-03
            6181            6178     60.8588E-03     62.1324E-03
            6200            6178     60.8588E-03     62.1324E-03
            6199            6178     60.8588E-03     62.1324E-03
            6182            6178     60.8588E-03     62.1324E-03
            6183            6179     65.1942E-03     66.6233E-03
            6200            6179     65.1942E-03     66.6233E-03
            6201            6179     65.1942E-03     66.6233E-03
            6182            6179     65.1942E-03     66.6233E-03
            6202            6180     69.3464E-03     70.9199E-03
            6183            6180     69.3464E-03     70.9199E-03
            6201            6180     69.3464E-03     70.9199E-03
            6184            6180     69.3464E-03     70.9199E-03
            6185            6181     73.2056E-03     74.8910E-03
            6203            6181     73.2056E-03     74.8910E-03
            6202            6181     73.2056E-03     74.8910E-03
            6184            6181     73.2056E-03     74.8910E-03
            6203            6182     76.7638E-03     78.4430E-03
            6204            6182     76.7638E-03     78.4430E-03
            6186            6182     76.7638E-03     78.4430E-03
            6185            6182     76.7638E-03     78.4430E-03
            6186            6183     80.2745E-03     81.6256E-03
            6205            6183     80.2745E-03     81.6256E-03
            6204            6183     80.2745E-03     81.6256E-03
            6187            6183     80.2745E-03     81.6256E-03
            6187            6184     83.9998E-03     84.9453E-03
            6206            6184     83.9998E-03     84.9453E-03
            6205            6184     83.9998E-03     84.9453E-03
            6188            6184     83.9998E-03     84.9453E-03
            6190            6185     19.9699E-03     21.0172E-03
            6208            6185     19.9699E-03     21.0172E-03
            6189            6185     19.9699E-03     21.0172E-03
            6207            6185     19.9699E-03     21.0172E-03
            6209            6186     22.7306E-03     23.9627E-03
            6191            6186     22.7306E-03     23.9627E-03
            6190            6186     22.7306E-03     23.9627E-03
            6208            6186     22.7306E-03     23.9627E-03
            6192            6187     26.3307E-03     27.6351E-03
            6191            6187     26.3307E-03     27.6351E-03
            6209            6187     26.3307E-03     27.6351E-03
            6210            6187     26.3307E-03     27.6351E-03
            6193            6188     30.3711E-03     31.4339E-03
            6192            6188     30.3711E-03     31.4339E-03
            6210            6188     30.3711E-03     31.4339E-03
            6211            6188     30.3711E-03     31.4339E-03
            6212            6189     34.6000E-03     35.3933E-03
            6211            6189     34.6000E-03     35.3933E-03
            6193            6189     34.6000E-03     35.3933E-03
            6194            6189     34.6000E-03     35.3933E-03
            6194            6190     38.8745E-03     39.5270E-03
            6195            6190     38.8745E-03     39.5270E-03
            6212            6190     38.8745E-03     39.5270E-03
            6213            6190     38.8745E-03     39.5270E-03
            6196            6191     43.1738E-03     43.7580E-03
            6213            6191     43.1738E-03     43.7580E-03
            6214            6191     43.1738E-03     43.7580E-03
            6195            6191     43.1738E-03     43.7580E-03
            6197            6192     47.4976E-03     48.0661E-03
            6214            6192     47.4976E-03     48.0661E-03
            6196            6192     47.4976E-03     48.0661E-03
            6215            6192     47.4976E-03     48.0661E-03
            6215            6193     51.8110E-03     52.4113E-03
            6216            6193     51.8110E-03     52.4113E-03
            6197            6193     51.8110E-03     52.4113E-03
            6198            6193     51.8110E-03     52.4113E-03
            6217            6194     56.1026E-03     56.7607E-03
            6199            6194     56.1026E-03     56.7607E-03
            6198            6194     56.1026E-03     56.7607E-03
            6216            6194     56.1026E-03     56.7607E-03
            6200            6195     60.2906E-03     61.0571E-03
            6217            6195     60.2906E-03     61.0571E-03
            6218            6195     60.2906E-03     61.0571E-03
            6199            6195     60.2906E-03     61.0571E-03
            6201            6196     64.3023E-03     65.2084E-03
            6218            6196     64.3023E-03     65.2084E-03
            6200            6196     64.3023E-03     65.2084E-03
            6219            6196     64.3023E-03     65.2084E-03
            6202            6197     67.9937E-03     69.0928E-03
            6220            6197     67.9937E-03     69.0928E-03
            6201            6197     67.9937E-03     69.0928E-03
            6219            6197     67.9937E-03     69.0928E-03
            6221            6198     71.1948E-03     72.5131E-03
            6220            6198     71.1948E-03     72.5131E-03
            6203            6198     71.1948E-03     72.5131E-03
            6202            6198     71.1948E-03     72.5131E-03
            6222            6199     73.8725E-03     75.3127E-03
            6221            6199     73.8725E-03     75.3127E-03
            6203            6199     73.8725E-03     75.3127E-03
            6204            6199     73.8725E-03     75.3127E-03
            6222            6200     76.2939E-03     77.6129E-03
            6204            6200     76.2939E-03     77.6129E-03
            6205            6200     76.2939E-03     77.6129E-03
            6223            6200     76.2939E-03     77.6129E-03
            6224            6201     79.1594E-03     79.8824E-03
            6206            6201     79.1594E-03     79.8824E-03
            6223            6201     79.1594E-03     79.8824E-03
            6205            6201     79.1594E-03     79.8824E-03
            6207            6202     21.4102E-03     22.3115E-03
            6208            6202     21.4102E-03     22.3115E-03
            6226            6202     21.4102E-03     22.3115E-03
            6225            6202     21.4102E-03     22.3115E-03
            6226            6203     23.8145E-03     25.2729E-03
            6208            6203     23.8145E-03     25.2729E-03
            6227            6203     23.8145E-03     25.2729E-03
            6209            6203     23.8145E-03     25.2729E-03
            6209            6204     27.2129E-03     28.3655E-03
            6227            6204     27.2129E-03     28.3655E-03
            6228            6204     27.2129E-03     28.3655E-03
            6210            6204     27.2129E-03     28.3655E-03
            6228            6205     31.0930E-03     31.6818E-03
            6210            6205     31.0930E-03     31.6818E-03
            6211            6205     31.0930E-03     31.6818E-03
            6229            6205     31.0930E-03     31.6818E-03
            6211            6206     35.0679E-03     35.3755E-03
            6212            6206     35.0679E-03     35.3755E-03
            6230            6206     35.0679E-03     35.3755E-03
            6229            6206     35.0679E-03     35.3755E-03
            6212            6207     39.0861E-03     39.2524E-03
            6231            6207     39.0861E-03     39.2524E-03
            6213            6207     39.0861E-03     39.2524E-03
            6230            6207     39.0861E-03     39.2524E-03
            6213            6208     43.1472E-03     43.2441E-03
            6231            6208     43.1472E-03     43.2441E-03
            6214            6208     43.1472E-03     43.2441E-03
            6232            6208     43.1472E-03     43.2441E-03
            6215            6209     47.2186E-03     47.2969E-03
            6232            6209     47.2186E-03     47.2969E-03
            6233            6209     47.2186E-03     47.2969E-03
            6214            6209     47.2186E-03     47.2969E-03
            6234            6210     51.2891E-03     51.3660E-03
            6233            6210     51.2891E-03     51.3660E-03
            6215            6210     51.2891E-03     51.3660E-03
            6216            6210     51.2891E-03     51.3660E-03
            6216            6211     55.3007E-03     55.4075E-03
            6235            6211     55.3007E-03     55.4075E-03
            6217            6211     55.3007E-03     55.4075E-03
            6234            6211     55.3007E-03     55.4075E-03
            6218            6212     59.1976E-03     59.3557E-03
            6217            6212     59.1976E-03     59.3557E-03
            6235            6212     59.1976E-03     59.3557E-03
            6236            6212     59.1976E-03     59.3557E-03
            6219            6213     62.8696E-03     63.1248E-03
            6236            6213     62.8696E-03     63.1248E-03
            6218            6213     62.8696E-03     63.1248E-03
            6237            6213     62.8696E-03     63.1248E-03
            6219            6214     66.1598E-03     66.5778E-03
            6237            6214     66.1598E-03     66.5778E-03
            6220            6214     66.1598E-03     66.5778E-03
            6238            6214     66.1598E-03     66.5778E-03
            6238            6215     68.8917E-03     69.5402E-03
            6220            6215     68.8917E-03     69.5402E-03
            6221            6215     68.8917E-03     69.5402E-03
            6239            6215     68.8917E-03     69.5402E-03
            6221            6216     70.7824E-03     71.7389E-03
            6239            6216     70.7824E-03     71.7389E-03
            6240            6216     70.7824E-03     71.7389E-03
            6222            6216     70.7824E-03     71.7389E-03
            6241            6217     72.0497E-03     73.1302E-03
            6222            6217     72.0497E-03     73.1302E-03
            6240            6217     72.0497E-03     73.1302E-03
            6223            6217     72.0497E-03     73.1302E-03
            6242            6218     73.9153E-03     74.5651E-03
            6223            6218     73.9153E-03     74.5651E-03
            6224            6218     73.9153E-03     74.5651E-03
            6241            6218     73.9153E-03     74.5651E-03
            6244            6219     23.0450E-03     24.9270E-03
            6226            6219     23.0450E-03     24.9270E-03
            6243            6219     23.0450E-03     24.9270E-03
            6225            6219     23.0450E-03     24.9270E-03
            6227            6220     25.2129E-03     26.8561E-03
            6226            6220     25.2129E-03     26.8561E-03
            6244            6220     25.2129E-03     26.8561E-03
            6245            6220     25.2129E-03     26.8561E-03
            6245            6221     28.5137E-03     29.0214E-03
            6228            6221     28.5137E-03     29.0214E-03
            6227            6221     28.5137E-03     29.0214E-03
            6246            6221     28.5137E-03     29.0214E-03
            6229            6222     31.9947E-03     31.9732E-03
            6247            6222     31.9947E-03     31.9732E-03
            6228            6222     31.9947E-03     31.9732E-03
            6246            6222     31.9947E-03     31.9732E-03
            6248            6223     35.5577E-03     35.3366E-03
            6229            6223     35.5577E-03     35.3366E-03
            6247            6223     35.5577E-03     35.3366E-03
            6230            6223     35.5577E-03     35.3366E-03
            6249            6224     39.2160E-03     38.8939E-03
            6230            6224     39.2160E-03     38.8939E-03
            6231            6224     39.2160E-03     38.8939E-03
            6248            6224     39.2160E-03     38.8939E-03
            6231            6225     42.9295E-03     42.5658E-03
            6232            6225     42.9295E-03     42.5658E-03
            6250            6225     42.9295E-03     42.5658E-03
            6249            6225     42.9295E-03     42.5658E-03
            6250            6226     46.6737E-03     46.2716E-03
            6251            6226     46.6737E-03     46.2716E-03
            6232            6226     46.6737E-03     46.2716E-03
            6233            6226     46.6737E-03     46.2716E-03
            6251            6227     50.4029E-03     49.9709E-03
            6252            6227     50.4029E-03     49.9709E-03
            6233            6227     50.4029E-03     49.9709E-03
            6234            6227     50.4029E-03     49.9709E-03
            6234            6228     54.0707E-03     53.6017E-03
            6235            6228     54.0707E-03     53.6017E-03
            6253            6228     54.0707E-03     53.6017E-03
            6252            6228     54.0707E-03     53.6017E-03
            6253            6229     57.6053E-03     57.1064E-03
            6236            6229     57.6053E-03     57.1064E-03
            6235            6229     57.6053E-03     57.1064E-03
            6254            6229     57.6053E-03     57.1064E-03
            6237            6230     60.9049E-03     60.3949E-03
            6254            6230     60.9049E-03     60.3949E-03
            6255            6230     60.9049E-03     60.3949E-03
            6236            6230     60.9049E-03     60.3949E-03
            6255            6231     63.8412E-03     63.3499E-03
            6237            6231     63.8412E-03     63.3499E-03
            6238            6231     63.8412E-03     63.3499E-03
            6256            6231     63.8412E-03     63.3499E-03
            6238            6232     66.1835E-03     65.8130E-03
            6256            6232     66.1835E-03     65.8130E-03
            6239            6232     66.1835E-03     65.8130E-03
            6257            6232     66.1835E-03     65.8130E-03
            6257            6233     67.6845E-03     67.5388E-03
            6258            6233     67.6845E-03     67.5388E-03
            6240            6233     67.6845E-03     67.5388E-03
            6239            6233     67.6845E-03     67.5388E-03
            6258            6234     67.8749E-03     68.1083E-03
            6241            6234     67.8749E-03     68.1083E-03
            6259            6234     67.8749E-03     68.1083E-03
            6240            6234     67.8749E-03     68.1083E-03
            6242            6235     68.1539E-03     68.2846E-03
            6260            6235     68.1539E-03     68.2846E-03
            6241            6235     68.1539E-03     68.2846E-03
            6259            6235     68.1539E-03     68.2846E-03
            6261            6236     25.2288E-03     27.4814E-03
            6262            6236     25.2288E-03     27.4814E-03
            6244            6236     25.2288E-03     27.4814E-03
            6243            6236     25.2288E-03     27.4814E-03
            6244            6237     27.6141E-03     27.9451E-03
            6245            6237     27.6141E-03     27.9451E-03
            6262            6237     27.6141E-03     27.9451E-03
            6263            6237     27.6141E-03     27.9451E-03
            6245            6238     30.2438E-03     29.7659E-03
            6246            6238     30.2438E-03     29.7659E-03
            6263            6238     30.2438E-03     29.7659E-03
            6264            6238     30.2438E-03     29.7659E-03
            6247            6239     33.1006E-03     32.4427E-03
            6246            6239     33.1006E-03     32.4427E-03
            6264            6239     33.1006E-03     32.4427E-03
            6265            6239     33.1006E-03     32.4427E-03
            6265            6240     36.1414E-03     35.4386E-03
            6266            6240     36.1414E-03     35.4386E-03
            6247            6240     36.1414E-03     35.4386E-03
            6248            6240     36.1414E-03     35.4386E-03
            6266            6241     39.3589E-03     38.6343E-03
            6249            6241     39.3589E-03     38.6343E-03
            6267            6241     39.3589E-03     38.6343E-03
            6248            6241     39.3589E-03     38.6343E-03
            6250            6242     42.6579E-03     41.9044E-03
            6267            6242     42.6579E-03     41.9044E-03
            6249            6242     42.6579E-03     41.9044E-03
            6268            6242     42.6579E-03     41.9044E-03
            6251            6243     45.9992E-03     45.1927E-03
            6268            6243     45.9992E-03     45.1927E-03
            6250            6243     45.9992E-03     45.1927E-03
            6269            6243     45.9992E-03     45.1927E-03
            6252            6244     49.3145E-03     48.4264E-03
            6251            6244     49.3145E-03     48.4264E-03
            6270            6244     49.3145E-03     48.4264E-03
            6269            6244     49.3145E-03     48.4264E-03
            6271            6245     52.5531E-03     51.5555E-03
            6253            6245     52.5531E-03     51.5555E-03
            6270            6245     52.5531E-03     51.5555E-03
            6252            6245     52.5531E-03     51.5555E-03
            6272            6246     55.6403E-03     54.5004E-03
            6254            6246     55.6403E-03     54.5004E-03
            6271            6246     55.6403E-03     54.5004E-03
            6253            6246     55.6403E-03     54.5004E-03
            6273            6247     58.5018E-03     57.1868E-03
            6255            6247     58.5018E-03     57.1868E-03
            6254            6247     58.5018E-03     57.1868E-03
            6272            6247     58.5018E-03     57.1868E-03
            6256            6248     61.0160E-03     59.5055E-03
            6274            6248     61.0160E-03     59.5055E-03
            6273            6248     61.0160E-03     59.5055E-03
            6255            6248     61.0160E-03     59.5055E-03
            6256            6249     63.0363E-03     61.3116E-03
            6275            6249     63.0363E-03     61.3116E-03
            6257            6249     63.0363E-03     61.3116E-03
            6274            6249     63.0363E-03     61.3116E-03
            6276            6250     64.3210E-03     62.4277E-03
            6275            6250     64.3210E-03     62.4277E-03
            6258            6250     64.3210E-03     62.4277E-03
            6257            6250     64.3210E-03     62.4277E-03
            6277            6251     64.3272E-03     62.4039E-03
            6258            6251     64.3272E-03     62.4039E-03
            6259            6251     64.3272E-03     62.4039E-03
            6276            6251     64.3272E-03     62.4039E-03
            6259            6252     62.7329E-03     60.7120E-03
            6260            6252     62.7329E-03     60.7120E-03
            6278            6252     62.7329E-03     60.7120E-03
            6277            6252     62.7329E-03     60.7120E-03
            6279            6253     17.8380E-03     20.2359E-03
            6261            6253     17.8380E-03     20.2359E-03
            6262            6253     17.8380E-03     20.2359E-03
            6280            6253     17.8380E-03     20.2359E-03
            6281            6254     19.0042E-03     20.1132E-03
            6262            6254     19.0042E-03     20.1132E-03
            6280            6254     19.0042E-03     20.1132E-03
            6263            6254     19.0042E-03     20.1132E-03
            6264            6255     20.7047E-03     21.5972E-03
            6282            6255     20.7047E-03     21.5972E-03
            6263            6255     20.7047E-03     21.5972E-03
            6281            6255     20.7047E-03     21.5972E-03
            6264            6256     22.7037E-03     23.6386E-03
            6283            6256     22.7037E-03     23.6386E-03
            6265            6256     22.7037E-03     23.6386E-03
            6282            6256     22.7037E-03     23.6386E-03
            6283            6257     24.9597E-03     25.9094E-03
            6284            6257     24.9597E-03     25.9094E-03
            6265            6257     24.9597E-03     25.9094E-03
            6266            6257     24.9597E-03     25.9094E-03
            6285            6258     27.3565E-03     28.3298E-03
            6284            6258     27.3565E-03     28.3298E-03
            6266            6258     27.3565E-03     28.3298E-03
            6267            6258     27.3565E-03     28.3298E-03
            6286            6259     29.8583E-03     30.8124E-03
            6285            6259     29.8583E-03     30.8124E-03
            6267            6259     29.8583E-03     30.8124E-03
            6268            6259     29.8583E-03     30.8124E-03
            6286            6260     32.4011E-03     33.3172E-03
            6268            6260     32.4011E-03     33.3172E-03
            6269            6260     32.4011E-03     33.3172E-03
            6287            6260     32.4011E-03     33.3172E-03
            6269            6261     34.9760E-03     35.8139E-03
            6287            6261     34.9760E-03     35.8139E-03
            6270            6261     34.9760E-03     35.8139E-03
            6288            6261     34.9760E-03     35.8139E-03
            6270            6262     37.5375E-03     38.2794E-03
            6289            6262     37.5375E-03     38.2794E-03
            6271            6262     37.5375E-03     38.2794E-03
            6288            6262     37.5375E-03     38.2794E-03
            6272            6263     40.1174E-03     40.7099E-03
            6271            6263     40.1174E-03     40.7099E-03
            6290            6263     40.1174E-03     40.7099E-03
            6289            6263     40.1174E-03     40.7099E-03
            6272            6264     42.6707E-03     43.1116E-03
            6290            6264     42.6707E-03     43.1116E-03
            6273            6264     42.6707E-03     43.1116E-03
            6291            6264     42.6707E-03     43.1116E-03
            6273            6265     45.3068E-03     45.5202E-03
            6291            6265     45.3068E-03     45.5202E-03
            6292            6265     45.3068E-03     45.5202E-03
            6274            6265     45.3068E-03     45.5202E-03
            6274            6266     47.9645E-03     48.0183E-03
            6292            6266     47.9645E-03     48.0183E-03
            6275            6266     47.9645E-03     48.0183E-03
            6293            6266     47.9645E-03     48.0183E-03
            6276            6267     50.9514E-03     50.8016E-03
            6275            6267     50.9514E-03     50.8016E-03
            6293            6267     50.9514E-03     50.8016E-03
            6294            6267     50.9514E-03     50.8016E-03
            6295            6268     54.1290E-03     54.1023E-03
            6277            6268     54.1290E-03     54.1023E-03
            6276            6268     54.1290E-03     54.1023E-03
            6294            6268     54.1290E-03     54.1023E-03
            6277            6269     59.2110E-03     60.3614E-03
            6278            6269     59.2110E-03     60.3614E-03
            6296            6269     59.2110E-03     60.3614E-03
            6295            6269     59.2110E-03     60.3614E-03
            6298            6270     9.76022E-03     12.0002E-03
            6279            6270     9.76022E-03     12.0002E-03
            6297            6270     9.76022E-03     12.0002E-03
            6280            6270     9.76022E-03     12.0002E-03
            6280            6271     9.43499E-03     11.9665E-03
            6281            6271     9.43499E-03     11.9665E-03
            6298            6271     9.43499E-03     11.9665E-03
            6299            6271     9.43499E-03     11.9665E-03
            6281            6272     10.5232E-03     13.0385E-03
            6299            6272     10.5232E-03     13.0385E-03
            6300            6272     10.5232E-03     13.0385E-03
            6282            6272     10.5232E-03     13.0385E-03
            6300            6273     12.0496E-03     14.5918E-03
            6283            6273     12.0496E-03     14.5918E-03
            6282            6273     12.0496E-03     14.5918E-03
            6301            6273     12.0496E-03     14.5918E-03
            6301            6274     13.7545E-03     16.3263E-03
            6283            6274     13.7545E-03     16.3263E-03
            6284            6274     13.7545E-03     16.3263E-03
            6302            6274     13.7545E-03     16.3263E-03
            6284            6275     15.6001E-03     18.1883E-03
            6285            6275     15.6001E-03     18.1883E-03
            6303            6275     15.6001E-03     18.1883E-03
            6302            6275     15.6001E-03     18.1883E-03
            6303            6276     17.5138E-03     20.1081E-03
            6304            6276     17.5138E-03     20.1081E-03
            6286            6276     17.5138E-03     20.1081E-03
            6285            6276     17.5138E-03     20.1081E-03
            6305            6277     19.5004E-03     22.0835E-03
            6304            6277     19.5004E-03     22.0835E-03
            6287            6277     19.5004E-03     22.0835E-03
            6286            6277     19.5004E-03     22.0835E-03
            6287            6278     21.5432E-03     24.1014E-03
            6288            6278     21.5432E-03     24.1014E-03
            6305            6278     21.5432E-03     24.1014E-03
            6306            6278     21.5432E-03     24.1014E-03
            6307            6279     23.6874E-03     26.2065E-03
            6289            6279     23.6874E-03     26.2065E-03
            6288            6279     23.6874E-03     26.2065E-03
            6306            6279     23.6874E-03     26.2065E-03
            6290            6280     25.9611E-03     28.4315E-03
            6289            6280     25.9611E-03     28.4315E-03
            6308            6280     25.9611E-03     28.4315E-03
            6307            6280     25.9611E-03     28.4315E-03
            6290            6281     28.5023E-03     30.9146E-03
            6291            6281     28.5023E-03     30.9146E-03
            6308            6281     28.5023E-03     30.9146E-03
            6309            6281     28.5023E-03     30.9146E-03
            6309            6282     31.4068E-03     33.7788E-03
            6310            6282     31.4068E-03     33.7788E-03
            6291            6282     31.4068E-03     33.7788E-03
            6292            6282     31.4068E-03     33.7788E-03
            6311            6283     35.0625E-03     37.4146E-03
            6292            6283     35.0625E-03     37.4146E-03
            6293            6283     35.0625E-03     37.4146E-03
            6310            6283     35.0625E-03     37.4146E-03
            6294            6284     39.7354E-03     42.1770E-03
            6293            6284     39.7354E-03     42.1770E-03
            6312            6284     39.7354E-03     42.1770E-03
            6311            6284     39.7354E-03     42.1770E-03
            6313            6285     46.8676E-03     49.5351E-03
            6294            6285     46.8676E-03     49.5351E-03
            6295            6285     46.8676E-03     49.5351E-03
            6312            6285     46.8676E-03     49.5351E-03
            6314            6286     59.3212E-03     61.5620E-03
            6295            6286     59.3212E-03     61.5620E-03
            6313            6286     59.3212E-03     61.5620E-03
            6296            6286     59.3212E-03     61.5620E-03
            6297            6287     10.5986E-03     11.3830E-03
            6316            6287     10.5986E-03     11.3830E-03
            6315            6287     10.5986E-03     11.3830E-03
            6298            6287     10.5986E-03     11.3830E-03
            6298            6288     10.5588E-03     12.1113E-03
            6316            6288     10.5588E-03     12.1113E-03
            6299            6288     10.5588E-03     12.1113E-03
            6317            6288     10.5588E-03     12.1113E-03
            6317            6289     11.2909E-03     13.1890E-03
            6299            6289     11.2909E-03     13.1890E-03
            6318            6289     11.2909E-03     13.1890E-03
            6300            6289     11.2909E-03     13.1890E-03
            6318            6290     12.7451E-03     14.7471E-03
            6319            6290     12.7451E-03     14.7471E-03
            6301            6290     12.7451E-03     14.7471E-03
            6300            6290     12.7451E-03     14.7471E-03
            6301            6291     14.4380E-03     16.5081E-03
            6319            6291     14.4380E-03     16.5081E-03
            6320            6291     14.4380E-03     16.5081E-03
            6302            6291     14.4380E-03     16.5081E-03
            6303            6292     16.2852E-03     18.3936E-03
            6302            6292     16.2852E-03     18.3936E-03
            6320            6292     16.2852E-03     18.3936E-03
            6321            6292     16.2852E-03     18.3936E-03
            6322            6293     18.2265E-03     20.3528E-03
            6321            6293     18.2265E-03     20.3528E-03
            6303            6293     18.2265E-03     20.3528E-03
            6304            6293     18.2265E-03     20.3528E-03
            6322            6294     20.2261E-03     22.3615E-03
            6304            6294     20.2261E-03     22.3615E-03
            6323            6294     20.2261E-03     22.3615E-03
            6305            6294     20.2261E-03     22.3615E-03
            6323            6295     22.2930E-03     24.4258E-03
            6324            6295     22.2930E-03     24.4258E-03
            6306            6295     22.2930E-03     24.4258E-03
            6305            6295     22.2930E-03     24.4258E-03
            6325            6296     24.4323E-03     26.5612E-03
            6307            6296     24.4323E-03     26.5612E-03
            6306            6296     24.4323E-03     26.5612E-03
            6324            6296     24.4323E-03     26.5612E-03
            6308            6297     26.7210E-03     28.8328E-03
            6326            6297     26.7210E-03     28.8328E-03
            6325            6297     26.7210E-03     28.8328E-03
            6307            6297     26.7210E-03     28.8328E-03
            6327            6298     29.2267E-03     31.3279E-03
            6308            6298     29.2267E-03     31.3279E-03
            6326            6298     29.2267E-03     31.3279E-03
            6309            6298     29.2267E-03     31.3279E-03
            6327            6299     32.1736E-03     34.2293E-03
            6310            6299     32.1736E-03     34.2293E-03
            6328            6299     32.1736E-03     34.2293E-03
            6309            6299     32.1736E-03     34.2293E-03
            6310            6300     35.8137E-03     37.8248E-03
            6328            6300     35.8137E-03     37.8248E-03
            6311            6300     35.8137E-03     37.8248E-03
            6329            6300     35.8137E-03     37.8248E-03
            6312            6301     40.6885E-03     42.5559E-03
            6311            6301     40.6885E-03     42.5559E-03
            6330            6301     40.6885E-03     42.5559E-03
            6329            6301     40.6885E-03     42.5559E-03
            6331            6302     48.4157E-03     49.5890E-03
            6330            6302     48.4157E-03     49.5890E-03
            6312            6302     48.4157E-03     49.5890E-03
            6313            6302     48.4157E-03     49.5890E-03
            6331            6303     57.8245E-03     58.0148E-03
            6313            6303     57.8245E-03     58.0148E-03
            6314            6303     57.8245E-03     58.0148E-03
            6332            6303     57.8245E-03     58.0148E-03
            6316            6304     10.8652E-03     11.3355E-03
            6334            6304     10.8652E-03     11.3355E-03
            6315            6304     10.8652E-03     11.3355E-03
            6333            6304     10.8652E-03     11.3355E-03
            6316            6305     11.3484E-03     12.2009E-03
            6334            6305     11.3484E-03     12.2009E-03
            6317            6305     11.3484E-03     12.2009E-03
            6335            6305     11.3484E-03     12.2009E-03
            6317            6306     12.1694E-03     13.4498E-03
            6318            6306     12.1694E-03     13.4498E-03
            6335            6306     12.1694E-03     13.4498E-03
            6336            6306     12.1694E-03     13.4498E-03
            6337            6307     13.4907E-03     14.9886E-03
            6318            6307     13.4907E-03     14.9886E-03
            6319            6307     13.4907E-03     14.9886E-03
            6336            6307     13.4907E-03     14.9886E-03
            6319            6308     15.1817E-03     16.7777E-03
            6338            6308     15.1817E-03     16.7777E-03
            6320            6308     15.1817E-03     16.7777E-03
            6337            6308     15.1817E-03     16.7777E-03
            6321            6309     17.0304E-03     18.6820E-03
            6339            6309     17.0304E-03     18.6820E-03
            6338            6309     17.0304E-03     18.6820E-03
            6320            6309     17.0304E-03     18.6820E-03
            6322            6310     18.9913E-03     20.6742E-03
            6340            6310     18.9913E-03     20.6742E-03
            6339            6310     18.9913E-03     20.6742E-03
            6321            6310     18.9913E-03     20.6742E-03
            6341            6311     21.0195E-03     22.7221E-03
            6340            6311     21.0195E-03     22.7221E-03
            6323            6311     21.0195E-03     22.7221E-03
            6322            6311     21.0195E-03     22.7221E-03
            6342            6312     23.1046E-03     24.8269E-03
            6341            6312     23.1046E-03     24.8269E-03
            6323            6312     23.1046E-03     24.8269E-03
            6324            6312     23.1046E-03     24.8269E-03
            6324            6313     25.2676E-03     27.0036E-03
            6325            6313     25.2676E-03     27.0036E-03
            6343            6313     25.2676E-03     27.0036E-03
            6342            6313     25.2676E-03     27.0036E-03
            6325            6314     27.5420E-03     29.2977E-03
            6326            6314     27.5420E-03     29.2977E-03
            6343            6314     27.5420E-03     29.2977E-03
            6344            6314     27.5420E-03     29.2977E-03
            6345            6315     30.0282E-03     31.7790E-03
            6326            6315     30.0282E-03     31.7790E-03
            6327            6315     30.0282E-03     31.7790E-03
            6344            6315     30.0282E-03     31.7790E-03
            6345            6316     32.8872E-03     34.6095E-03
            6346            6316     32.8872E-03     34.6095E-03
            6328            6316     32.8872E-03     34.6095E-03
            6327            6316     32.8872E-03     34.6095E-03
            6329            6317     36.3359E-03     37.9612E-03
            6328            6317     36.3359E-03     37.9612E-03
            6347            6317     36.3359E-03     37.9612E-03
            6346            6317     36.3359E-03     37.9612E-03
            6348            6318     41.1058E-03     42.3482E-03
            6347            6318     41.1058E-03     42.3482E-03
            6329            6318     41.1058E-03     42.3482E-03
            6330            6318     41.1058E-03     42.3482E-03
            6331            6319     47.0559E-03     47.9204E-03
            6348            6319     47.0559E-03     47.9204E-03
            6349            6319     47.0559E-03     47.9204E-03
            6330            6319     47.0559E-03     47.9204E-03
            6350            6320     53.4245E-03     54.4720E-03
            6349            6320     53.4245E-03     54.4720E-03
            6332            6320     53.4245E-03     54.4720E-03
            6331            6320     53.4245E-03     54.4720E-03
            6351            6321     11.4260E-03     11.5706E-03
            6333            6321     11.4260E-03     11.5706E-03
            6334            6321     11.4260E-03     11.5706E-03
            6352            6321     11.4260E-03     11.5706E-03
            6352            6322     11.8726E-03     12.4243E-03
            6353            6322     11.8726E-03     12.4243E-03
            6334            6322     11.8726E-03     12.4243E-03
            6335            6322     11.8726E-03     12.4243E-03
            6335            6323     12.8805E-03     13.7062E-03
            6353            6323     12.8805E-03     13.7062E-03
            6336            6323     12.8805E-03     13.7062E-03
            6354            6323     12.8805E-03     13.7062E-03
            6336            6324     14.2407E-03     15.2994E-03
            6355            6324     14.2407E-03     15.2994E-03
            6354            6324     14.2407E-03     15.2994E-03
            6337            6324     14.2407E-03     15.2994E-03
            6356            6325     15.9090E-03     17.0784E-03
            6355            6325     15.9090E-03     17.0784E-03
            6338            6325     15.9090E-03     17.0784E-03
            6337            6325     15.9090E-03     17.0784E-03
            6356            6326     17.7843E-03     19.0072E-03
            6338            6326     17.7843E-03     19.0072E-03
            6339            6326     17.7843E-03     19.0072E-03
            6357            6326     17.7843E-03     19.0072E-03
            6339            6327     19.7589E-03     21.0141E-03
            6340            6327     19.7589E-03     21.0141E-03
            6358            6327     19.7589E-03     21.0141E-03
            6357            6327     19.7589E-03     21.0141E-03
            6358            6328     21.8108E-03     23.0907E-03
            6340            6328     21.8108E-03     23.0907E-03
            6359            6328     21.8108E-03     23.0907E-03
            6341            6328     21.8108E-03     23.0907E-03
            6341            6329     23.9129E-03     25.2202E-03
            6342            6329     23.9129E-03     25.2202E-03
            6360            6329     23.9129E-03     25.2202E-03
            6359            6329     23.9129E-03     25.2202E-03
            6361            6330     26.0752E-03     27.4172E-03
            6342            6330     26.0752E-03     27.4172E-03
            6343            6330     26.0752E-03     27.4172E-03
            6360            6330     26.0752E-03     27.4172E-03
            6362            6331     28.3128E-03     29.6895E-03
            6344            6331     28.3128E-03     29.6895E-03
            6361            6331     28.3128E-03     29.6895E-03
            6343            6331     28.3128E-03     29.6895E-03
            6345            6332     30.6976E-03     32.0973E-03
            6363            6332     30.6976E-03     32.0973E-03
            6362            6332     30.6976E-03     32.0973E-03
            6344            6332     30.6976E-03     32.0973E-03
            6363            6333     33.2842E-03     34.6860E-03
            6364            6333     33.2842E-03     34.6860E-03
            6346            6333     33.2842E-03     34.6860E-03
            6345            6333     33.2842E-03     34.6860E-03
            6346            6334     36.3800E-03     37.6408E-03
            6365            6334     36.3800E-03     37.6408E-03
            6364            6334     36.3800E-03     37.6408E-03
            6347            6334     36.3800E-03     37.6408E-03
            6347            6335     40.0230E-03     41.1159E-03
            6365            6335     40.0230E-03     41.1159E-03
            6348            6335     40.0230E-03     41.1159E-03
            6366            6335     40.0230E-03     41.1159E-03
            6348            6336     44.2578E-03     45.2127E-03
            6349            6336     44.2578E-03     45.2127E-03
            6367            6336     44.2578E-03     45.2127E-03
            6366            6336     44.2578E-03     45.2127E-03
            6367            6337     49.4558E-03     49.9892E-03
            6349            6337     49.4558E-03     49.9892E-03
            6350            6337     49.4558E-03     49.9892E-03
            6368            6337     49.4558E-03     49.9892E-03
            6370            6338     11.9905E-03     11.9398E-03
            6351            6338     11.9905E-03     11.9398E-03
            6369            6338     11.9905E-03     11.9398E-03
            6352            6338     11.9905E-03     11.9398E-03
            6353            6339     12.4511E-03     12.7271E-03
            6370            6339     12.4511E-03     12.7271E-03
            6352            6339     12.4511E-03     12.7271E-03
            6371            6339     12.4511E-03     12.7271E-03
            6371            6340     13.4408E-03     14.0153E-03
            6353            6340     13.4408E-03     14.0153E-03
            6354            6340     13.4408E-03     14.0153E-03
            6372            6340     13.4408E-03     14.0153E-03
            6355            6341     14.8862E-03     15.5950E-03
            6372            6341     14.8862E-03     15.5950E-03
            6373            6341     14.8862E-03     15.5950E-03
            6354            6341     14.8862E-03     15.5950E-03
            6355            6342     16.5957E-03     17.3878E-03
            6374            6342     16.5957E-03     17.3878E-03
            6373            6342     16.5957E-03     17.3878E-03
            6356            6342     16.5957E-03     17.3878E-03
            6374            6343     18.4769E-03     19.2992E-03
            6375            6343     18.4769E-03     19.2992E-03
            6356            6343     18.4769E-03     19.2992E-03
            6357            6343     18.4769E-03     19.2992E-03
            6375            6344     20.4736E-03     21.3081E-03
            6357            6344     20.4736E-03     21.3081E-03
            6376            6344     20.4736E-03     21.3081E-03
            6358            6344     20.4736E-03     21.3081E-03
            6377            6345     22.5243E-03     23.3804E-03
            6358            6345     22.5243E-03     23.3804E-03
            6359            6345     22.5243E-03     23.3804E-03
            6376            6345     22.5243E-03     23.3804E-03
            6377            6346     24.6260E-03     25.5110E-03
            6378            6346     24.6260E-03     25.5110E-03
            6360            6346     24.6260E-03     25.5110E-03
            6359            6346     24.6260E-03     25.5110E-03
            6379            6347     26.7511E-03     27.6798E-03
            6360            6347     26.7511E-03     27.6798E-03
            6378            6347     26.7511E-03     27.6798E-03
            6361            6347     26.7511E-03     27.6798E-03
            6362            6348     28.9180E-03     29.8955E-03
            6380            6348     28.9180E-03     29.8955E-03
            6379            6348     28.9180E-03     29.8955E-03
            6361            6348     28.9180E-03     29.8955E-03
            6363            6349     31.0872E-03     32.1320E-03
            6380            6349     31.0872E-03     32.1320E-03
            6362            6349     31.0872E-03     32.1320E-03
            6381            6349     31.0872E-03     32.1320E-03
            6381            6350     33.3444E-03     34.4072E-03
            6364            6350     33.3444E-03     34.4072E-03
            6382            6350     33.3444E-03     34.4072E-03
            6363            6350     33.3444E-03     34.4072E-03
            6382            6351     35.6693E-03     36.7398E-03
            6383            6351     35.6693E-03     36.7398E-03
            6364            6351     35.6693E-03     36.7398E-03
            6365            6351     35.6693E-03     36.7398E-03
            6366            6352     38.2002E-03     39.1855E-03
            6384            6352     38.2002E-03     39.1855E-03
            6365            6352     38.2002E-03     39.1855E-03
            6383            6352     38.2002E-03     39.1855E-03
            6367            6353     41.3004E-03     41.9903E-03
            6384            6353     41.3004E-03     41.9903E-03
            6366            6353     41.3004E-03     41.9903E-03
            6385            6353     41.3004E-03     41.9903E-03
            6367            6354     45.2088E-03     45.7621E-03
            6386            6354     45.2088E-03     45.7621E-03
            6368            6354     45.2088E-03     45.7621E-03
            6385            6354     45.2088E-03     45.7621E-03
            6369            6355     12.6137E-03     12.4286E-03
            6387            6355     12.6137E-03     12.4286E-03
            6388            6355     12.6137E-03     12.4286E-03
            6370            6355     12.6137E-03     12.4286E-03
            6371            6356     12.9487E-03     13.1354E-03
            6389            6356     12.9487E-03     13.1354E-03
            6370            6356     12.9487E-03     13.1354E-03
            6388            6356     12.9487E-03     13.1354E-03
            6372            6357     13.9731E-03     14.3368E-03
            6390            6357     13.9731E-03     14.3368E-03
            6389            6357     13.9731E-03     14.3368E-03
            6371            6357     13.9731E-03     14.3368E-03
            6390            6358     15.4426E-03     15.9030E-03
            6372            6358     15.4426E-03     15.9030E-03
            6391            6358     15.4426E-03     15.9030E-03
            6373            6358     15.4426E-03     15.9030E-03
            6391            6359     17.1905E-03     17.6445E-03
            6373            6359     17.1905E-03     17.6445E-03
            6392            6359     17.1905E-03     17.6445E-03
            6374            6359     17.1905E-03     17.6445E-03
            6393            6360     19.0914E-03     19.5169E-03
            6392            6360     19.0914E-03     19.5169E-03
            6374            6360     19.0914E-03     19.5169E-03
            6375            6360     19.0914E-03     19.5169E-03
            6393            6361     21.0668E-03     21.4845E-03
            6375            6361     21.0668E-03     21.4845E-03
            6376            6361     21.0668E-03     21.4845E-03
            6394            6361     21.0668E-03     21.4845E-03
            6377            6362     23.0994E-03     23.5214E-03
            6394            6362     23.0994E-03     23.5214E-03
            6395            6362     23.0994E-03     23.5214E-03
            6376            6362     23.0994E-03     23.5214E-03
            6395            6363     25.1515E-03     25.5998E-03
            6377            6363     25.1515E-03     25.5998E-03
            6396            6363     25.1515E-03     25.5998E-03
            6378            6363     25.1515E-03     25.5998E-03
            6396            6364     27.2204E-03     27.7071E-03
            6397            6364     27.2204E-03     27.7071E-03
            6378            6364     27.2204E-03     27.7071E-03
            6379            6364     27.2204E-03     27.7071E-03
            6379            6365     29.2416E-03     29.7983E-03
            6380            6365     29.2416E-03     29.7983E-03
            6398            6365     29.2416E-03     29.7983E-03
            6397            6365     29.2416E-03     29.7983E-03
            6399            6366     31.2090E-03     31.8359E-03
            6380            6366     31.2090E-03     31.8359E-03
            6398            6366     31.2090E-03     31.8359E-03
            6381            6366     31.2090E-03     31.8359E-03
            6382            6367     32.9893E-03     33.7357E-03
            6381            6367     32.9893E-03     33.7357E-03
            6400            6367     32.9893E-03     33.7357E-03
            6399            6367     32.9893E-03     33.7357E-03
            6383            6368     34.5720E-03     35.4048E-03
            6401            6368     34.5720E-03     35.4048E-03
            6400            6368     34.5720E-03     35.4048E-03
            6382            6368     34.5720E-03     35.4048E-03
            6383            6369     36.1146E-03     36.9053E-03
            6401            6369     36.1146E-03     36.9053E-03
            6384            6369     36.1146E-03     36.9053E-03
            6402            6369     36.1146E-03     36.9053E-03
            6384            6370     37.9727E-03     38.6447E-03
            6403            6370     37.9727E-03     38.6447E-03
            6385            6370     37.9727E-03     38.6447E-03
            6402            6370     37.9727E-03     38.6447E-03
            6385            6371     41.0825E-03     41.3769E-03
            6403            6371     41.0825E-03     41.3769E-03
            6404            6371     41.0825E-03     41.3769E-03
            6386            6371     41.0825E-03     41.3769E-03
            6405            6372     13.2013E-03     13.0993E-03
            6406            6372     13.2013E-03     13.0993E-03
            6388            6372     13.2013E-03     13.0993E-03
            6387            6372     13.2013E-03     13.0993E-03
            6388            6373     13.4598E-03     13.5854E-03
            6389            6373     13.4598E-03     13.5854E-03
            6407            6373     13.4598E-03     13.5854E-03
            6406            6373     13.4598E-03     13.5854E-03
            6389            6374     14.4619E-03     14.7559E-03
            6407            6374     14.4619E-03     14.7559E-03
            6408            6374     14.4619E-03     14.7559E-03
            6390            6374     14.4619E-03     14.7559E-03
            6409            6375     15.9615E-03     16.2006E-03
            6391            6375     15.9615E-03     16.2006E-03
            6390            6375     15.9615E-03     16.2006E-03
            6408            6375     15.9615E-03     16.2006E-03
            6409            6376     17.7291E-03     17.8339E-03
            6392            6376     17.7291E-03     17.8339E-03
            6410            6376     17.7291E-03     17.8339E-03
            6391            6376     17.7291E-03     17.8339E-03
            6410            6377     19.5949E-03     19.6240E-03
            6393            6377     19.5949E-03     19.6240E-03
            6392            6377     19.5949E-03     19.6240E-03
            6411            6377     19.5949E-03     19.6240E-03
            6411            6378     21.5172E-03     21.5069E-03
            6394            6378     21.5172E-03     21.5069E-03
            6412            6378     21.5172E-03     21.5069E-03
            6393            6378     21.5172E-03     21.5069E-03
            6412            6379     23.4711E-03     23.4518E-03
            6394            6379     23.4711E-03     23.4518E-03
            6395            6379     23.4711E-03     23.4518E-03
            6413            6379     23.4711E-03     23.4518E-03
            6396            6380     25.4444E-03     25.4339E-03
            6413            6380     25.4444E-03     25.4339E-03
            6395            6380     25.4444E-03     25.4339E-03
            6414            6380     25.4444E-03     25.4339E-03
            6397            6381     27.3884E-03     27.4128E-03
            6415            6381     27.3884E-03     27.4128E-03
            6414            6381     27.3884E-03     27.4128E-03
            6396            6381     27.3884E-03     27.4128E-03
            6416            6382     29.2738E-03     29.3467E-03
            6415            6382     29.2738E-03     29.3467E-03
            6398            6382     29.2738E-03     29.3467E-03
            6397            6382     29.2738E-03     29.3467E-03
            6399            6383     30.9730E-03     31.1454E-03
            6398            6383     30.9730E-03     31.1454E-03
            6417            6383     30.9730E-03     31.1454E-03
            6416            6383     30.9730E-03     31.1454E-03
            6417            6384     32.3916E-03     32.6907E-03
            6418            6384     32.3916E-03     32.6907E-03
            6400            6384     32.3916E-03     32.6907E-03
            6399            6384     32.3916E-03     32.6907E-03
            6419            6385     33.3221E-03     33.8074E-03
            6401            6385     33.3221E-03     33.8074E-03
            6418            6385     33.3221E-03     33.8074E-03
            6400            6385     33.3221E-03     33.8074E-03
            6420            6386     33.8007E-03     34.4423E-03
            6402            6386     33.8007E-03     34.4423E-03
            6401            6386     33.8007E-03     34.4423E-03
            6419            6386     33.8007E-03     34.4423E-03
            6402            6387     34.5744E-03     35.0556E-03
            6421            6387     34.5744E-03     35.0556E-03
            6420            6387     34.5744E-03     35.0556E-03
            6403            6387     34.5744E-03     35.0556E-03
            6403            6388     36.7196E-03     36.9053E-03
            6421            6388     36.7196E-03     36.9053E-03
            6404            6388     36.7196E-03     36.9053E-03
            6422            6388     36.7196E-03     36.9053E-03
            6406            6389     13.8663E-03     13.7636E-03
            6424            6389     13.8663E-03     13.7636E-03
            6423            6389     13.8663E-03     13.7636E-03
            6405            6389     13.8663E-03     13.7636E-03
            6425            6390     13.9772E-03     14.3148E-03
            6407            6390     13.9772E-03     14.3148E-03
            6424            6390     13.9772E-03     14.3148E-03
            6406            6390     13.9772E-03     14.3148E-03
            6408            6391     14.9671E-03     15.2575E-03
            6426            6391     14.9671E-03     15.2575E-03
            6407            6391     14.9671E-03     15.2575E-03
            6425            6391     14.9671E-03     15.2575E-03
            6408            6392     16.5346E-03     16.4713E-03
            6409            6392     16.5346E-03     16.4713E-03
            6427            6392     16.5346E-03     16.4713E-03
            6426            6392     16.5346E-03     16.4713E-03
            6427            6393     18.2439E-03     17.9719E-03
            6428            6393     18.2439E-03     17.9719E-03
            6409            6393     18.2439E-03     17.9719E-03
            6410            6393     18.2439E-03     17.9719E-03
            6428            6394     20.0032E-03     19.6222E-03
            6429            6394     20.0032E-03     19.6222E-03
            6411            6394     20.0032E-03     19.6222E-03
            6410            6394     20.0032E-03     19.6222E-03
            6411            6395     21.8068E-03     21.3664E-03
            6430            6395     21.8068E-03     21.3664E-03
            6429            6395     21.8068E-03     21.3664E-03
            6412            6395     21.8068E-03     21.3664E-03
            6430            6396     23.6317E-03     23.1647E-03
            6412            6396     23.6317E-03     23.1647E-03
            6413            6396     23.6317E-03     23.1647E-03
            6431            6396     23.6317E-03     23.1647E-03
            6414            6397     25.4554E-03     24.9807E-03
            6432            6397     25.4554E-03     24.9807E-03
            6431            6397     25.4554E-03     24.9807E-03
            6413            6397     25.4554E-03     24.9807E-03
            6415            6398     27.2482E-03     26.7767E-03
            6414            6398     27.2482E-03     26.7767E-03
            6432            6398     27.2482E-03     26.7767E-03
            6433            6398     27.2482E-03     26.7767E-03
            6416            6399     28.9313E-03     28.4898E-03
            6433            6399     28.9313E-03     28.4898E-03
            6415            6399     28.9313E-03     28.4898E-03
            6434            6399     28.9313E-03     28.4898E-03
            6417            6400     30.4170E-03     30.0299E-03
            6434            6400     30.4170E-03     30.0299E-03
            6435            6400     30.4170E-03     30.0299E-03
            6416            6400     30.4170E-03     30.0299E-03
            6435            6401     31.5166E-03     31.2453E-03
            6418            6401     31.5166E-03     31.2453E-03
            6436            6401     31.5166E-03     31.2453E-03
            6417            6401     31.5166E-03     31.2453E-03
            6436            6402     32.0328E-03     31.9578E-03
            6419            6402     32.0328E-03     31.9578E-03
            6437            6402     32.0328E-03     31.9578E-03
            6418            6402     32.0328E-03     31.9578E-03
            6438            6403     31.6485E-03     31.8692E-03
            6420            6403     31.6485E-03     31.8692E-03
            6437            6403     31.6485E-03     31.8692E-03
            6419            6403     31.6485E-03     31.8692E-03
            6439            6404     30.9372E-03     31.3240E-03
            6420            6404     30.9372E-03     31.3240E-03
            6438            6404     30.9372E-03     31.3240E-03
            6421            6404     30.9372E-03     31.3240E-03
            6440            6405     32.2113E-03     32.1305E-03
            6439            6405     32.2113E-03     32.1305E-03
            6421            6405     32.2113E-03     32.1305E-03
            6422            6405     32.2113E-03     32.1305E-03
            6442            6406     14.5227E-03     15.1489E-03
            6423            6406     14.5227E-03     15.1489E-03
            6424            6406     14.5227E-03     15.1489E-03
            6441            6406     14.5227E-03     15.1489E-03
            6442            6407     14.4791E-03     15.2414E-03
            6443            6407     14.4791E-03     15.2414E-03
            6425            6407     14.4791E-03     15.2414E-03
            6424            6407     14.4791E-03     15.2414E-03
            6425            6408     15.7369E-03     15.7364E-03
            6426            6408     15.7369E-03     15.7364E-03
            6444            6408     15.7369E-03     15.7364E-03
            6443            6408     15.7369E-03     15.7364E-03
            6445            6409     17.2349E-03     16.7713E-03
            6426            6409     17.2349E-03     16.7713E-03
            6444            6409     17.2349E-03     16.7713E-03
            6427            6409     17.2349E-03     16.7713E-03
            6445            6410     18.7618E-03     18.0930E-03
            6428            6410     18.7618E-03     18.0930E-03
            6427            6410     18.7618E-03     18.0930E-03
            6446            6410     18.7618E-03     18.0930E-03
            6429            6411     20.3497E-03     19.5602E-03
            6428            6411     20.3497E-03     19.5602E-03
            6446            6411     20.3497E-03     19.5602E-03
            6447            6411     20.3497E-03     19.5602E-03
            6430            6412     21.9640E-03     21.1110E-03
            6429            6412     21.9640E-03     21.1110E-03
            6447            6412     21.9640E-03     21.1110E-03
            6448            6412     21.9640E-03     21.1110E-03
            6448            6413     23.5969E-03     22.6987E-03
            6431            6413     23.5969E-03     22.6987E-03
            6449            6413     23.5969E-03     22.6987E-03
            6430            6413     23.5969E-03     22.6987E-03
            6431            6414     25.2192E-03     24.2834E-03
            6449            6414     25.2192E-03     24.2834E-03
            6450            6414     25.2192E-03     24.2834E-03
            6432            6414     25.2192E-03     24.2834E-03
            6433            6415     26.7872E-03     25.8213E-03
            6450            6415     26.7872E-03     25.8213E-03
            6451            6415     26.7872E-03     25.8213E-03
            6432            6415     26.7872E-03     25.8213E-03
            6433            6416     28.2384E-03     27.2458E-03
            6451            6416     28.2384E-03     27.2458E-03
            6452            6416     28.2384E-03     27.2458E-03
            6434            6416     28.2384E-03     27.2458E-03
            6434            6417     29.4736E-03     28.4686E-03
            6435            6417     29.4736E-03     28.4686E-03
            6453            6417     29.4736E-03     28.4686E-03
            6452            6417     29.4736E-03     28.4686E-03
            6453            6418     30.3295E-03     29.3507E-03
            6436            6418     30.3295E-03     29.3507E-03
            6454            6418     30.3295E-03     29.3507E-03
            6435            6418     30.3295E-03     29.3507E-03
            6454            6419     30.5813E-03     29.6837E-03
            6436            6419     30.5813E-03     29.6837E-03
            6455            6419     30.5813E-03     29.6837E-03
            6437            6419     30.5813E-03     29.6837E-03
            6437            6420     29.8791E-03     29.2193E-03
            6438            6420     29.8791E-03     29.2193E-03
            6456            6420     29.8791E-03     29.2193E-03
            6455            6420     29.8791E-03     29.2193E-03
            6457            6421     27.7353E-03     27.5214E-03
            6439            6421     27.7353E-03     27.5214E-03
            6456            6421     27.7353E-03     27.5214E-03
            6438            6421     27.7353E-03     27.5214E-03
            6457            6422     27.3200E-03     27.0809E-03
            6458            6422     27.3200E-03     27.0809E-03
            6439            6422     27.3200E-03     27.0809E-03
            6440            6422     27.3200E-03     27.0809E-03
            6460            6423     14.9782E-03     16.6801E-03
            6459            6423     14.9782E-03     16.6801E-03
            6442            6423     14.9782E-03     16.6801E-03
            6441            6423     14.9782E-03     16.6801E-03
            6460            6424     15.6793E-03     15.9116E-03
            6442            6424     15.6793E-03     15.9116E-03
            6461            6424     15.6793E-03     15.9116E-03
            6443            6424     15.6793E-03     15.9116E-03
            6461            6425     16.8592E-03     16.2644E-03
            6443            6425     16.8592E-03     16.2644E-03
            6444            6425     16.8592E-03     16.2644E-03
            6462            6425     16.8592E-03     16.2644E-03
            6445            6426     18.0485E-03     17.1563E-03
            6463            6426     18.0485E-03     17.1563E-03
            6462            6426     18.0485E-03     17.1563E-03
            6444            6426     18.0485E-03     17.1563E-03
            6445            6427     19.3250E-03     18.2786E-03
            6446            6427     19.3250E-03     18.2786E-03
            6463            6427     19.3250E-03     18.2786E-03
            6464            6427     19.3250E-03     18.2786E-03
            6465            6428     20.6727E-03     19.5271E-03
            6464            6428     20.6727E-03     19.5271E-03
            6446            6428     20.6727E-03     19.5271E-03
            6447            6428     20.6727E-03     19.5271E-03
            6466            6429     22.0588E-03     20.8418E-03
            6465            6429     22.0588E-03     20.8418E-03
            6448            6429     22.0588E-03     20.8418E-03
            6447            6429     22.0588E-03     20.8418E-03
            6448            6430     23.4550E-03     22.1666E-03
            6466            6430     23.4550E-03     22.1666E-03
            6467            6430     23.4550E-03     22.1666E-03
            6449            6430     23.4550E-03     22.1666E-03
            6468            6431     24.8190E-03     23.4631E-03
            6449            6431     24.8190E-03     23.4631E-03
            6450            6431     24.8190E-03     23.4631E-03
            6467            6431     24.8190E-03     23.4631E-03
            6451            6432     26.1049E-03     24.6685E-03
            6468            6432     26.1049E-03     24.6685E-03
            6450            6432     26.1049E-03     24.6685E-03
            6469            6432     26.1049E-03     24.6685E-03
            6470            6433     27.2544E-03     25.7296E-03
            6452            6433     27.2544E-03     25.7296E-03
            6469            6433     27.2544E-03     25.7296E-03
            6451            6433     27.2544E-03     25.7296E-03
            6453            6434     28.1703E-03     26.5415E-03
            6452            6434     28.1703E-03     26.5415E-03
            6470            6434     28.1703E-03     26.5415E-03
            6471            6434     28.1703E-03     26.5415E-03
            6453            6435     28.7639E-03     27.0087E-03
            6471            6435     28.7639E-03     27.0087E-03
            6454            6435     28.7639E-03     27.0087E-03
            6472            6435     28.7639E-03     27.0087E-03
            6473            6436     28.7947E-03     26.9247E-03
            6455            6436     28.7947E-03     26.9247E-03
            6472            6436     28.7947E-03     26.9247E-03
            6454            6436     28.7947E-03     26.9247E-03
            6455            6437     28.1054E-03     26.1175E-03
            6474            6437     28.1054E-03     26.1175E-03
            6473            6437     28.1054E-03     26.1175E-03
            6456            6437     28.1054E-03     26.1175E-03
            6474            6438     25.8799E-03     24.0000E-03
            6475            6438     25.8799E-03     24.0000E-03
            6456            6438     25.8799E-03     24.0000E-03
            6457            6438     25.8799E-03     24.0000E-03
            6458            6439     23.2926E-03     22.0015E-03
            6457            6439     23.2926E-03     22.0015E-03
            6475            6439     23.2926E-03     22.0015E-03
            6476            6439     23.2926E-03     22.0015E-03
            6460            6440     10.0891E-03     12.5123E-03
            6459            6440     10.0891E-03     12.5123E-03
            6478            6440     10.0891E-03     12.5123E-03
            6477            6440     10.0891E-03     12.5123E-03
            6478            6441     10.5414E-03     11.2782E-03
            6479            6441     10.5414E-03     11.2782E-03
            6460            6441     10.5414E-03     11.2782E-03
            6461            6441     10.5414E-03     11.2782E-03
            6461            6442     10.9571E-03     11.3903E-03
            6462            6442     10.9571E-03     11.3903E-03
            6479            6442     10.9571E-03     11.3903E-03
            6480            6442     10.9571E-03     11.3903E-03
            6480            6443     11.4400E-03     11.9408E-03
            6463            6443     11.4400E-03     11.9408E-03
            6481            6443     11.4400E-03     11.9408E-03
            6462            6443     11.4400E-03     11.9408E-03
            6464            6444     12.0632E-03     12.6186E-03
            6463            6444     12.0632E-03     12.6186E-03
            6481            6444     12.0632E-03     12.6186E-03
            6482            6444     12.0632E-03     12.6186E-03
            6465            6445     12.7848E-03     13.3934E-03
            6464            6445     12.7848E-03     13.3934E-03
            6483            6445     12.7848E-03     13.3934E-03
            6482            6445     12.7848E-03     13.3934E-03
            6465            6446     13.5526E-03     14.1935E-03
            6466            6446     13.5526E-03     14.1935E-03
            6483            6446     13.5526E-03     14.1935E-03
            6484            6446     13.5526E-03     14.1935E-03
            6466            6447     14.3417E-03     15.0063E-03
            6467            6447     14.3417E-03     15.0063E-03
            6484            6447     14.3417E-03     15.0063E-03
            6485            6447     14.3417E-03     15.0063E-03
            6485            6448     15.1215E-03     15.7889E-03
            6486            6448     15.1215E-03     15.7889E-03
            6468            6448     15.1215E-03     15.7889E-03
            6467            6448     15.1215E-03     15.7889E-03
            6468            6449     15.8699E-03     16.5292E-03
            6487            6449     15.8699E-03     16.5292E-03
            6469            6449     15.8699E-03     16.5292E-03
            6486            6449     15.8699E-03     16.5292E-03
            6469            6450     16.5433E-03     17.1675E-03
            6487            6450     16.5433E-03     17.1675E-03
            6470            6450     16.5433E-03     17.1675E-03
            6488            6450     16.5433E-03     17.1675E-03
            6471            6451     17.1093E-03     17.6848E-03
            6489            6451     17.1093E-03     17.6848E-03
            6470            6451     17.1093E-03     17.6848E-03
            6488            6451     17.1093E-03     17.6848E-03
            6489            6452     17.4917E-03     17.9844E-03
            6490            6452     17.4917E-03     17.9844E-03
            6471            6452     17.4917E-03     17.9844E-03
            6472            6452     17.4917E-03     17.9844E-03
            6473            6453     17.6315E-03     18.0463E-03
            6491            6453     17.6315E-03     18.0463E-03
            6490            6453     17.6315E-03     18.0463E-03
            6472            6453     17.6315E-03     18.0463E-03
            6473            6454     17.5836E-03     17.8673E-03
            6492            6454     17.5836E-03     17.8673E-03
            6474            6454     17.5836E-03     17.8673E-03
            6491            6454     17.5836E-03     17.8673E-03
            6493            6455     17.4704E-03     17.8298E-03
            6475            6455     17.4704E-03     17.8298E-03
            6492            6455     17.4704E-03     17.8298E-03
            6474            6455     17.4704E-03     17.8298E-03
            6494            6456     19.3443E-03     20.6010E-03
            6493            6456     19.3443E-03     20.6010E-03
            6476            6456     19.3443E-03     20.6010E-03
            6475            6456     19.3443E-03     20.6010E-03
            6477            6457     5.89201E-03     7.43371E-03
            6496            6457     5.89201E-03     7.43371E-03
            6478            6457     5.89201E-03     7.43371E-03
            6495            6457     5.89201E-03     7.43371E-03
            6479            6458     4.73969E-03     6.08827E-03
            6497            6458     4.73969E-03     6.08827E-03
            6478            6458     4.73969E-03     6.08827E-03
            6496            6458     4.73969E-03     6.08827E-03
            6480            6459     4.62215E-03     6.01249E-03
            6479            6459     4.62215E-03     6.01249E-03
            6498            6459     4.62215E-03     6.01249E-03
            6497            6459     4.62215E-03     6.01249E-03
            6480            6460     4.65138E-03     6.25093E-03
            6499            6460     4.65138E-03     6.25093E-03
            6498            6460     4.65138E-03     6.25093E-03
            6481            6460     4.65138E-03     6.25093E-03
            6500            6461     4.84273E-03     6.60648E-03
            6481            6461     4.84273E-03     6.60648E-03
            6482            6461     4.84273E-03     6.60648E-03
            6499            6461     4.84273E-03     6.60648E-03
            6500            6462     5.09940E-03     7.00616E-03
            6482            6462     5.09940E-03     7.00616E-03
            6501            6462     5.09940E-03     7.00616E-03
            6483            6462     5.09940E-03     7.00616E-03
            6502            6463     5.39492E-03     7.41213E-03
            6501            6463     5.39492E-03     7.41213E-03
            6484            6463     5.39492E-03     7.41213E-03
            6483            6463     5.39492E-03     7.41213E-03
            6485            6464     5.71730E-03     7.83293E-03
            6484            6464     5.71730E-03     7.83293E-03
            6502            6464     5.71730E-03     7.83293E-03
            6503            6464     5.71730E-03     7.83293E-03
            6503            6465     6.06794E-03     8.25535E-03
            6485            6465     6.06794E-03     8.25535E-03
            6486            6465     6.06794E-03     8.25535E-03
            6504            6465     6.06794E-03     8.25535E-03
            6504            6466     6.43718E-03     8.69207E-03
            6487            6466     6.43718E-03     8.69207E-03
            6505            6466     6.43718E-03     8.69207E-03
            6486            6466     6.43718E-03     8.69207E-03
            6488            6467     6.82905E-03     9.12533E-03
            6487            6467     6.82905E-03     9.12533E-03
            6505            6467     6.82905E-03     9.12533E-03
            6506            6467     6.82905E-03     9.12533E-03
            6506            6468     7.22908E-03     9.56596E-03
            6488            6468     7.22908E-03     9.56596E-03
            6489            6468     7.22908E-03     9.56596E-03
            6507            6468     7.22908E-03     9.56596E-03
            6490            6469     7.61184E-03     9.97926E-03
            6489            6469     7.61184E-03     9.97926E-03
            6508            6469     7.61184E-03     9.97926E-03
            6507            6469     7.61184E-03     9.97926E-03
            6508            6470     8.03665E-03     10.4520E-03
            6491            6470     8.03665E-03     10.4520E-03
            6509            6470     8.03665E-03     10.4520E-03
            6490            6470     8.03665E-03     10.4520E-03
            6509            6471     8.45257E-03     11.0165E-03
            6510            6471     8.45257E-03     11.0165E-03
            6492            6471     8.45257E-03     11.0165E-03
            6491            6471     8.45257E-03     11.0165E-03
            6493            6472     10.1784E-03     12.7927E-03
            6511            6472     10.1784E-03     12.7927E-03
            6510            6472     10.1784E-03     12.7927E-03
            6492            6472     10.1784E-03     12.7927E-03
            6494            6473     16.6421E-03     18.8161E-03
            6512            6473     16.6421E-03     18.8161E-03
            6511            6473     16.6421E-03     18.8161E-03
            6493            6473     16.6421E-03     18.8161E-03
            6514            6474     7.26593E-03     6.50733E-03
            6513            6474     7.26593E-03     6.50733E-03
            6495            6474     7.26593E-03     6.50733E-03
            6496            6474     7.26593E-03     6.50733E-03
            6496            6475     5.50240E-03     5.77747E-03
            6515            6475     5.50240E-03     5.77747E-03
            6497            6475     5.50240E-03     5.77747E-03
            6514            6475     5.50240E-03     5.77747E-03
            6515            6476     5.07311E-03     5.65111E-03
            6498            6476     5.07311E-03     5.65111E-03
            6516            6476     5.07311E-03     5.65111E-03
            6497            6476     5.07311E-03     5.65111E-03
            6516            6477     5.28109E-03     5.87469E-03
            6498            6477     5.28109E-03     5.87469E-03
            6499            6477     5.28109E-03     5.87469E-03
            6517            6477     5.28109E-03     5.87469E-03
            6518            6478     5.56233E-03     6.20630E-03
            6517            6478     5.56233E-03     6.20630E-03
            6499            6478     5.56233E-03     6.20630E-03
            6500            6478     5.56233E-03     6.20630E-03
            6519            6479     5.87025E-03     6.56554E-03
            6518            6479     5.87025E-03     6.56554E-03
            6500            6479     5.87025E-03     6.56554E-03
            6501            6479     5.87025E-03     6.56554E-03
            6520            6480     6.19801E-03     6.93794E-03
            6501            6480     6.19801E-03     6.93794E-03
            6502            6480     6.19801E-03     6.93794E-03
            6519            6480     6.19801E-03     6.93794E-03
            6503            6481     6.54329E-03     7.31539E-03
            6520            6481     6.54329E-03     7.31539E-03
            6502            6481     6.54329E-03     7.31539E-03
            6521            6481     6.54329E-03     7.31539E-03
            6521            6482     6.90655E-03     7.71071E-03
            6522            6482     6.90655E-03     7.71071E-03
            6503            6482     6.90655E-03     7.71071E-03
            6504            6482     6.90655E-03     7.71071E-03
            6522            6483     7.29154E-03     8.11562E-03
            6523            6483     7.29154E-03     8.11562E-03
            6504            6483     7.29154E-03     8.11562E-03
            6505            6483     7.29154E-03     8.11562E-03
            6523            6484     7.69979E-03     8.54620E-03
            6505            6484     7.69979E-03     8.54620E-03
            6506            6484     7.69979E-03     8.54620E-03
            6524            6484     7.69979E-03     8.54620E-03
            6524            6485     8.13704E-03     8.99428E-03
            6525            6485     8.13704E-03     8.99428E-03
            6506            6485     8.13704E-03     8.99428E-03
            6507            6485     8.13704E-03     8.99428E-03
            6507            6486     8.61474E-03     9.48475E-03
            6525            6486     8.61474E-03     9.48475E-03
            6508            6486     8.61474E-03     9.48475E-03
            6526            6486     8.61474E-03     9.48475E-03
            6526            6487     9.13178E-03     10.0154E-03
            6508            6487     9.13178E-03     10.0154E-03
            6527            6487     9.13178E-03     10.0154E-03
            6509            6487     9.13178E-03     10.0154E-03
            6528            6488     9.58924E-03     10.5351E-03
            6527            6488     9.58924E-03     10.5351E-03
            6510            6488     9.58924E-03     10.5351E-03
            6509            6488     9.58924E-03     10.5351E-03
            6528            6489     10.4879E-03     11.2712E-03
            6529            6489     10.4879E-03     11.2712E-03
            6510            6489     10.4879E-03     11.2712E-03
            6511            6489     10.4879E-03     11.2712E-03
            6529            6490     14.0866E-03     13.7748E-03
            6512            6490     14.0866E-03     13.7748E-03
            6511            6490     14.0866E-03     13.7748E-03
            6530            6490     14.0866E-03     13.7748E-03
            6514            6491     7.53240E-03     6.67131E-03
            6532            6491     7.53240E-03     6.67131E-03
            6531            6491     7.53240E-03     6.67131E-03
            6513            6491     7.53240E-03     6.67131E-03
            6514            6492     6.09934E-03     5.79327E-03
            6532            6492     6.09934E-03     5.79327E-03
            6533            6492     6.09934E-03     5.79327E-03
            6515            6492     6.09934E-03     5.79327E-03
            6516            6493     5.86549E-03     5.59175E-03
            6533            6493     5.86549E-03     5.59175E-03
            6515            6493     5.86549E-03     5.59175E-03
            6534            6493     5.86549E-03     5.59175E-03
            6534            6494     6.08884E-03     5.71895E-03
            6517            6494     6.08884E-03     5.71895E-03
            6535            6494     6.08884E-03     5.71895E-03
            6516            6494     6.08884E-03     5.71895E-03
            6535            6495     6.38316E-03     5.96675E-03
            6518            6495     6.38316E-03     5.96675E-03
            6517            6495     6.38316E-03     5.96675E-03
            6536            6495     6.38316E-03     5.96675E-03
            6537            6496     6.70187E-03     6.24826E-03
            6519            6496     6.70187E-03     6.24826E-03
            6536            6496     6.70187E-03     6.24826E-03
            6518            6496     6.70187E-03     6.24826E-03
            6520            6497     7.03731E-03     6.55293E-03
            6537            6497     7.03731E-03     6.55293E-03
            6538            6497     7.03731E-03     6.55293E-03
            6519            6497     7.03731E-03     6.55293E-03
            6520            6498     7.38788E-03     6.87594E-03
            6521            6498     7.38788E-03     6.87594E-03
            6539            6498     7.38788E-03     6.87594E-03
            6538            6498     7.38788E-03     6.87594E-03
            6521            6499     7.75483E-03     7.21652E-03
            6522            6499     7.75483E-03     7.21652E-03
            6539            6499     7.75483E-03     7.21652E-03
            6540            6499     7.75483E-03     7.21652E-03
            6522            6500     8.13910E-03     7.58023E-03
            6540            6500     8.13910E-03     7.58023E-03
            6523            6500     8.13910E-03     7.58023E-03
            6541            6500     8.13910E-03     7.58023E-03
            6541            6501     8.54679E-03     7.96588E-03
            6523            6501     8.54679E-03     7.96588E-03
            6542            6501     8.54679E-03     7.96588E-03
            6524            6501     8.54679E-03     7.96588E-03
            6525            6502     8.98935E-03     8.39482E-03
            6542            6502     8.98935E-03     8.39482E-03
            6524            6502     8.98935E-03     8.39482E-03
            6543            6502     8.98935E-03     8.39482E-03
            6526            6503     9.49340E-03     8.88838E-03
            6543            6503     9.49340E-03     8.88838E-03
            6544            6503     9.49340E-03     8.88838E-03
            6525            6503     9.49340E-03     8.88838E-03
            6545            6504     9.98231E-03     9.35231E-03
            6526            6504     9.98231E-03     9.35231E-03
            6544            6504     9.98231E-03     9.35231E-03
            6527            6504     9.98231E-03     9.35231E-03
            6545            6505     10.5073E-03     9.79931E-03
            6546            6505     10.5073E-03     9.79931E-03
            6528            6505     10.5073E-03     9.79931E-03
            6527            6505     10.5073E-03     9.79931E-03
            6546            6506     9.42871E-03     8.94178E-03
            6547            6506     9.42871E-03     8.94178E-03
            6528            6506     9.42871E-03     8.94178E-03
            6529            6506     9.42871E-03     8.94178E-03
            6530            6507     10.0305E-03     9.68821E-03
            6529            6507     10.0305E-03     9.68821E-03
            6548            6507     10.0305E-03     9.68821E-03
            6547            6507     10.0305E-03     9.68821E-03
            6531            6508     7.06288E-03     7.65438E-03
            6549            6508     7.06288E-03     7.65438E-03
            6532            6508     7.06288E-03     7.65438E-03
            6550            6508     7.06288E-03     7.65438E-03
            6551            6509     6.61027E-03     6.14638E-03
            6550            6509     6.61027E-03     6.14638E-03
            6532            6509     6.61027E-03     6.14638E-03
            6533            6509     6.61027E-03     6.14638E-03
            6534            6510     6.81507E-03     5.81474E-03
            6533            6510     6.81507E-03     5.81474E-03
            6552            6510     6.81507E-03     5.81474E-03
            6551            6510     6.81507E-03     5.81474E-03
            6535            6511     6.98123E-03     5.78514E-03
            6534            6511     6.98123E-03     5.78514E-03
            6552            6511     6.98123E-03     5.78514E-03
            6553            6511     6.98123E-03     5.78514E-03
            6536            6512     7.24924E-03     5.88597E-03
            6535            6512     7.24924E-03     5.88597E-03
            6554            6512     7.24924E-03     5.88597E-03
            6553            6512     7.24924E-03     5.88597E-03
            6537            6513     7.56065E-03     6.06540E-03
            6536            6513     7.56065E-03     6.06540E-03
            6554            6513     7.56065E-03     6.06540E-03
            6555            6513     7.56065E-03     6.06540E-03
            6538            6514     7.89302E-03     6.28078E-03
            6537            6514     7.89302E-03     6.28078E-03
            6556            6514     7.89302E-03     6.28078E-03
            6555            6514     7.89302E-03     6.28078E-03
            6556            6515     8.24588E-03     6.53347E-03
            6557            6515     8.24588E-03     6.53347E-03
            6538            6515     8.24588E-03     6.53347E-03
            6539            6515     8.24588E-03     6.53347E-03
            6557            6516     8.60921E-03     6.80793E-03
            6539            6516     8.60921E-03     6.80793E-03
            6558            6516     8.60921E-03     6.80793E-03
            6540            6516     8.60921E-03     6.80793E-03
            6541            6517     8.98422E-03     7.10304E-03
            6540            6517     8.98422E-03     7.10304E-03
            6558            6517     8.98422E-03     7.10304E-03
            6559            6517     8.98422E-03     7.10304E-03
            6560            6518     9.36609E-03     7.41593E-03
            6559            6518     9.36609E-03     7.41593E-03
            6541            6518     9.36609E-03     7.41593E-03
            6542            6518     9.36609E-03     7.41593E-03
            6543            6519     9.76242E-03     7.73598E-03
            6542            6519     9.76242E-03     7.73598E-03
            6561            6519     9.76242E-03     7.73598E-03
            6560            6519     9.76242E-03     7.73598E-03
            6544            6520     10.1322E-03     8.04847E-03
            6543            6520     10.1322E-03     8.04847E-03
            6561            6520     10.1322E-03     8.04847E-03
            6562            6520     10.1322E-03     8.04847E-03
            6545            6521     10.4301E-03     8.24851E-03
            6544            6521     10.4301E-03     8.24851E-03
            6563            6521     10.4301E-03     8.24851E-03
            6562            6521     10.4301E-03     8.24851E-03
            6546            6522     10.2431E-03     7.96610E-03
            6545            6522     10.2431E-03     7.96610E-03
            6563            6522     10.2431E-03     7.96610E-03
            6564            6522     10.2431E-03     7.96610E-03
            6547            6523     8.44070E-03     6.32708E-03
            6546            6523     8.44070E-03     6.32708E-03
            6565            6523     8.44070E-03     6.32708E-03
            6564            6523     8.44070E-03     6.32708E-03
            6547            6524     7.90898E-03     7.69384E-03
            6565            6524     7.90898E-03     7.69384E-03
            6548            6524     7.90898E-03     7.69384E-03
            6566            6524     7.90898E-03     7.69384E-03


  Minimum                            59.9919E-06     137.597E-06
      At Element                            2325            5156
            Node                              40             768

  Maximum                            189.660E-03     199.688E-03
      At Element                            4066            4066
            Node                             162               8

           Total                         378.441         387.335


Field Output reported at element nodes for region: A320-1.Region_2
   Computation algorithm: EXTRAPOLATE_COMPUTE_AVERAGE
   Averaged at nodes
   Averaging regions: ODB_REGIONS

   Element Label      Node Label         S.Mises         S.Mises
                                          @Loc 1          @Loc 2
-----------------------------------------------------------------
            2235               3     9.63456E-03     9.69289E-03
            1793               3     9.63456E-03     9.69289E-03
            2262               4     533.122E-06     532.352E-06
            3913               6     172.574E-03     164.777E-03
            2234               6     172.574E-03     164.777E-03
            3958               8     189.565E-03     179.771E-03
            3859               8     189.565E-03     179.771E-03
            3904              10     137.527E-03     130.409E-03
            5387              10     137.527E-03     130.409E-03
            5325              13     12.1995E-03     12.1958E-03
            5730              13     12.1995E-03     12.1958E-03
            5370              14     534.010E-06     537.608E-06
            5738              15     12.3888E-03     12.4360E-03
            5333              15     12.3888E-03     12.4360E-03
            1785              17     10.0620E-03     10.2242E-03
            2243              17     10.0620E-03     10.2242E-03
            2270              18     533.122E-06     532.352E-06
            2226              21     154.578E-03     148.385E-03
            3905              21     154.578E-03     148.385E-03
            3851              22     208.990E-03     176.432E-03
            3950              22     208.990E-03     176.432E-03
            3896              25     148.333E-03     143.604E-03
            5379              25     148.333E-03     143.604E-03
            5378              27     534.010E-06     537.608E-06
            2235              38     629.091E-06     623.318E-06
            2244              38     629.091E-06     623.318E-06
            2244              39     516.672E-06     522.656E-06
            2253              39     516.672E-06     522.656E-06
            2262              40     508.748E-06     511.984E-06
            2253              40     508.748E-06     511.984E-06
            2225             102     183.196E-03     176.379E-03
            2234             102     183.196E-03     176.379E-03
            2225             103     172.320E-03     171.967E-03
            2216             103     172.320E-03     171.967E-03
            2207             104     165.718E-03     163.706E-03
            2216             104     165.718E-03     163.706E-03
            2207             105     160.833E-03     158.887E-03
            2198             105     160.833E-03     158.887E-03
            2198             106     155.360E-03     153.276E-03
            2189             106     155.360E-03     153.276E-03
            2189             107     149.746E-03     148.307E-03
            2180             107     149.746E-03     148.307E-03
            2180             108     143.410E-03     142.341E-03
            2171             108     143.410E-03     142.341E-03
            2162             109     136.627E-03     137.677E-03
            2171             109     136.627E-03     137.677E-03
            2162             110     128.619E-03     124.112E-03
            2153             110     128.619E-03     124.112E-03
            2153             111     137.873E-03     125.781E-03
            2144             111     137.873E-03     125.781E-03
            2144             112     145.869E-03     140.510E-03
            2135             112     145.869E-03     140.510E-03
            2126             113     135.805E-03     135.390E-03
            2135             113     135.805E-03     135.390E-03
            2117             114     129.542E-03     127.929E-03
            2126             114     129.542E-03     127.929E-03
            2117             115     124.877E-03     123.160E-03
            2108             115     124.877E-03     123.160E-03
            2108             116     119.753E-03     118.043E-03
            2099             116     119.753E-03     118.043E-03
            2090             117     114.759E-03     113.214E-03
            2099             117     114.759E-03     113.214E-03
            2081             118     109.520E-03     108.330E-03
            2090             118     109.520E-03     108.330E-03
            2081             119     103.721E-03     103.060E-03
            2072             119     103.721E-03     103.060E-03
            2072             120     97.3673E-03     98.2705E-03
            2063             120     97.3673E-03     98.2705E-03
            2063             121     89.6166E-03     86.5677E-03
            2054             121     89.6166E-03     86.5677E-03
            2054             122     98.2522E-03     89.6958E-03
            2045             122     98.2522E-03     89.6958E-03
            2045             123     105.924E-03     102.102E-03
            2036             123     105.924E-03     102.102E-03
            2036             124     96.6907E-03     96.2972E-03
            2027             124     96.6907E-03     96.2972E-03
            2027             125     90.7384E-03     89.5633E-03
            2018             125     90.7384E-03     89.5633E-03
            2018             126     86.1749E-03     84.9710E-03
            2009             126     86.1749E-03     84.9710E-03
            2009             127     81.3237E-03     80.1673E-03
            2000             127     81.3237E-03     80.1673E-03
            1991             128     76.6234E-03     75.6260E-03
            2000             128     76.6234E-03     75.6260E-03
            1982             129     71.7307E-03     71.0263E-03
            1991             129     71.7307E-03     71.0263E-03
            1982             130     66.4544E-03     66.1971E-03
            1973             130     66.4544E-03     66.1971E-03
            1973             131     60.5889E-03     61.4654E-03
            1964             131     60.5889E-03     61.4654E-03
            1955             132     53.1558E-03     51.6620E-03
            1964             132     53.1558E-03     51.6620E-03
            1955             133     60.8916E-03     55.9166E-03
            1946             133     60.8916E-03     55.9166E-03
            1946             134     68.1029E-03     65.7799E-03
            1937             134     68.1029E-03     65.7799E-03
            1928             135     59.7749E-03     59.4489E-03
            1937             135     59.7749E-03     59.4489E-03
            1919             136     54.2241E-03     53.4929E-03
            1928             136     54.2241E-03     53.4929E-03
            1919             137     49.8754E-03     49.1741E-03
            1910             137     49.8754E-03     49.1741E-03
            1910             138     45.4279E-03     44.8037E-03
            1901             138     45.4279E-03     44.8037E-03
            1892             139     41.1872E-03     40.7155E-03
            1901             139     41.1872E-03     40.7155E-03
            1883             140     36.8850E-03     36.6469E-03
            1892             140     36.8850E-03     36.6469E-03
            1883             141     32.4477E-03     32.6048E-03
            1874             141     32.4477E-03     32.6048E-03
            1865             142     27.7373E-03     28.6373E-03
            1874             142     27.7373E-03     28.6373E-03
            1856             143     22.2542E-03     22.5931E-03
            1865             143     22.2542E-03     22.5931E-03
            1847             144     27.5726E-03     26.2217E-03
            1856             144     27.5726E-03     26.2217E-03
            1838             145     31.9281E-03     30.9773E-03
            1847             145     31.9281E-03     30.9773E-03
            1829             146     25.0110E-03     24.8397E-03
            1838             146     25.0110E-03     24.8397E-03
            1820             147     20.6801E-03     20.4318E-03
            1829             147     20.6801E-03     20.4318E-03
            1811             148     17.7557E-03     17.7393E-03
            1820             148     17.7557E-03     17.7393E-03
            1811             149     16.2115E-03     16.4883E-03
            1802             149     16.2115E-03     16.4883E-03
            1802             150     17.3748E-03     17.6283E-03
            1793             150     17.3748E-03     17.6283E-03
            3958             162     185.153E-03     183.752E-03
            3949             162     185.153E-03     183.752E-03
            3940             163     174.616E-03     177.728E-03
            3949             163     174.616E-03     177.728E-03
            3940             164     166.243E-03     169.666E-03
            3931             164     166.243E-03     169.666E-03
            3922             165     159.131E-03     153.414E-03
            3931             165     159.131E-03     153.414E-03
            3922             166     155.135E-03     146.670E-03
            3913             166     155.135E-03     146.670E-03
            3904             178     143.640E-03     138.964E-03
            3895             178     143.640E-03     138.964E-03
            3886             179     154.083E-03     156.872E-03
            3895             179     154.083E-03     156.872E-03
            3886             180     161.897E-03     162.731E-03
            3877             180     161.897E-03     162.731E-03
            3868             181     171.225E-03     172.797E-03
            3877             181     171.225E-03     172.797E-03
            3859             182     183.189E-03     178.138E-03
            3868             182     183.189E-03     178.138E-03
            5325             194     790.233E-06     775.372E-06
            5334             194     790.233E-06     775.372E-06
            5334             195     610.496E-06     612.815E-06
            5343             195     610.496E-06     612.815E-06
            5343             196     503.562E-06     509.094E-06
            5352             196     503.562E-06     509.094E-06
            5352             197     462.302E-06     473.587E-06
            5361             197     462.302E-06     473.587E-06
            5370             198     494.344E-06     503.544E-06
            5361             198     494.344E-06     503.544E-06
            5738             250     22.7275E-03     23.0509E-03
            5729             250     22.7275E-03     23.0509E-03
            5720             251     21.5559E-03     22.1888E-03
            5729             251     21.5559E-03     22.1888E-03
            5720             252     24.8545E-03     25.1595E-03
            5711             252     24.8545E-03     25.1595E-03
            5711             253     32.1121E-03     31.9104E-03
            5702             253     32.1121E-03     31.9104E-03
            5702             254     29.1966E-03     28.4619E-03
            5693             254     29.1966E-03     28.4619E-03
            5693             255     23.4597E-03     24.1762E-03
            5684             255     23.4597E-03     24.1762E-03
            5684             256     26.9820E-03     28.5811E-03
            5675             256     26.9820E-03     28.5811E-03
            5666             257     31.7043E-03     32.2533E-03
            5675             257     31.7043E-03     32.2533E-03
            5666             258     36.4657E-03     36.5894E-03
            5657             258     36.4657E-03     36.5894E-03
            5657             259     41.3514E-03     41.0823E-03
            5648             259     41.3514E-03     41.0823E-03
            5648             260     46.2176E-03     45.8146E-03
            5639             260     46.2176E-03     45.8146E-03
            5639             261     51.4865E-03     50.8994E-03
            5630             261     51.4865E-03     50.8994E-03
            5630             262     56.6054E-03     56.1487E-03
            5621             262     56.6054E-03     56.1487E-03
            5621             263     63.4361E-03     63.0946E-03
            5612             263     63.4361E-03     63.0946E-03
            5603             264     73.1071E-03     71.2876E-03
            5612             264     73.1071E-03     71.2876E-03
            5594             265     63.0790E-03     57.2535E-03
            5603             265     63.0790E-03     57.2535E-03
            5585             266     52.0665E-03     49.7853E-03
            5594             266     52.0665E-03     49.7853E-03
            5576             267     60.3279E-03     62.0956E-03
            5585             267     60.3279E-03     62.0956E-03
            5567             268     67.4988E-03     67.4644E-03
            5576             268     67.4988E-03     67.4644E-03
            5567             269     73.5522E-03     73.2060E-03
            5558             269     73.5522E-03     73.2060E-03
            5549             270     79.3230E-03     78.3518E-03
            5558             270     79.3230E-03     78.3518E-03
            5549             271     84.8283E-03     83.8266E-03
            5540             271     84.8283E-03     83.8266E-03
            5531             272     90.3120E-03     89.1280E-03
            5540             272     90.3120E-03     89.1280E-03
            5522             273     96.0525E-03     94.8845E-03
            5531             273     96.0525E-03     94.8845E-03
            5522             274     101.443E-03     100.451E-03
            5513             274     101.443E-03     100.451E-03
            5504             275     108.703E-03     108.327E-03
            5513             275     108.703E-03     108.327E-03
            5504             276     119.260E-03     115.599E-03
            5495             276     119.260E-03     115.599E-03
            5486             277     108.145E-03     97.7141E-03
            5495             277     108.145E-03     97.7141E-03
            5486             278     95.8695E-03     91.6137E-03
            5477             278     95.8695E-03     91.6137E-03
            5468             279     104.996E-03     106.853E-03
            5477             279     104.996E-03     106.853E-03
            5468             280     112.972E-03     112.542E-03
            5459             280     112.972E-03     112.542E-03
            5459             281     119.730E-03     118.854E-03
            5450             281     119.730E-03     118.854E-03
            5450             282     126.040E-03     124.584E-03
            5441             282     126.040E-03     124.584E-03
            5441             283     131.963E-03     130.375E-03
            5432             283     131.963E-03     130.375E-03
            5423             284     138.134E-03     136.462E-03
            5432             284     138.134E-03     136.462E-03
            5414             285     143.718E-03     142.309E-03
            5423             285     143.718E-03     142.309E-03
            5414             286     151.289E-03     150.973E-03
            5405             286     151.289E-03     150.973E-03
            5396             287     162.672E-03     157.189E-03
            5405             287     162.672E-03     157.189E-03
            5387             288     153.129E-03     147.189E-03
            5396             288     153.129E-03     147.189E-03
            2243             306     629.091E-06     623.318E-06
            2252             306     629.091E-06     623.318E-06
            2252             307     516.672E-06     522.656E-06
            2261             307     516.672E-06     522.656E-06
            2261             308     508.748E-06     511.984E-06
            2270             308     508.748E-06     511.984E-06
            1786             424     11.2243E-03     11.2202E-03
            2242             424     11.2243E-03     11.2202E-03
            2243             424     11.2243E-03     11.2202E-03
            1785             424     11.2243E-03     11.2202E-03
            1787             425     12.7042E-03     12.5702E-03
            2242             425     12.7042E-03     12.5702E-03
            2241             425     12.7042E-03     12.5702E-03
            1786             425     12.7042E-03     12.5702E-03
            2241             426     13.4449E-03     13.3441E-03
            2240             426     13.4449E-03     13.3441E-03
            1787             426     13.4449E-03     13.3441E-03
            1788             426     13.4449E-03     13.3441E-03
            2239             427     13.9184E-03     13.8377E-03
            2240             427     13.9184E-03     13.8377E-03
            1789             427     13.9184E-03     13.8377E-03
            1788             427     13.9184E-03     13.8377E-03
            2238             428     13.8889E-03     13.8352E-03
            1790             428     13.8889E-03     13.8352E-03
            2239             428     13.8889E-03     13.8352E-03
            1789             428     13.8889E-03     13.8352E-03
            1790             429     13.3675E-03     13.3125E-03
            2238             429     13.3675E-03     13.3125E-03
            2237             429     13.3675E-03     13.3125E-03
            1791             429     13.3675E-03     13.3125E-03
            1791             430     12.5125E-03     12.5048E-03
            1792             430     12.5125E-03     12.5048E-03
            2237             430     12.5125E-03     12.5048E-03
            2236             430     12.5125E-03     12.5048E-03
            1793             431     10.8668E-03     10.9185E-03
            2235             431     10.8668E-03     10.9185E-03
            2236             431     10.8668E-03     10.9185E-03
            1792             431     10.8668E-03     10.9185E-03
            2233             432     147.961E-03     141.107E-03
            3913             432     147.961E-03     141.107E-03
            3912             432     147.961E-03     141.107E-03
            2234             432     147.961E-03     141.107E-03
            2233             433     103.662E-03     98.7252E-03
            2232             433     103.662E-03     98.7252E-03
            3912             433     103.662E-03     98.7252E-03
            3911             433     103.662E-03     98.7252E-03
            3910             434     65.5987E-03     62.8300E-03
            3911             434     65.5987E-03     62.8300E-03
            2232             434     65.5987E-03     62.8300E-03
            2231             434     65.5987E-03     62.8300E-03
            3910             435     30.9950E-03     30.5429E-03
            2231             435     30.9950E-03     30.5429E-03
            3909             435     30.9950E-03     30.5429E-03
            2230             435     30.9950E-03     30.5429E-03
            2229             436     23.5128E-03     23.7361E-03
            2230             436     23.5128E-03     23.7361E-03
            3908             436     23.5128E-03     23.7361E-03
            3909             436     23.5128E-03     23.7361E-03
            2229             437     50.0833E-03     48.5693E-03
            3908             437     50.0833E-03     48.5693E-03
            2228             437     50.0833E-03     48.5693E-03
            3907             437     50.0833E-03     48.5693E-03
            2228             438     87.3660E-03     83.6464E-03
            2227             438     87.3660E-03     83.6464E-03
            3906             438     87.3660E-03     83.6464E-03
            3907             438     87.3660E-03     83.6464E-03
            2226             439     130.700E-03     125.286E-03
            2227             439     130.700E-03     125.286E-03
            3906             439     130.700E-03     125.286E-03
            3905             439     130.700E-03     125.286E-03
            2217             440     163.215E-03     157.698E-03
            2226             440     163.215E-03     157.698E-03
            2208             441     153.585E-03     153.564E-03
            2217             441     153.585E-03     153.564E-03
            2199             442     147.231E-03     145.849E-03
            2208             442     147.231E-03     145.849E-03
            2190             443     142.483E-03     141.077E-03
            2199             443     142.483E-03     141.077E-03
            2190             444     137.158E-03     135.613E-03
            2181             444     137.158E-03     135.613E-03
            2172             445     131.687E-03     130.873E-03
            2181             445     131.687E-03     130.873E-03
            2163             446     125.709E-03     125.055E-03
            2172             446     125.709E-03     125.055E-03
            2154             447     118.690E-03     120.576E-03
            2163             447     118.690E-03     120.576E-03
            2145             448     110.842E-03     106.015E-03
            2154             448     110.842E-03     106.015E-03
            2145             449     121.069E-03     109.138E-03
            2136             449     121.069E-03     109.138E-03
            2127             450     130.332E-03     126.127E-03
            2136             450     130.332E-03     126.127E-03
            2118             451     121.327E-03     121.136E-03
            2127             451     121.327E-03     121.136E-03
            2118             452     115.254E-03     114.170E-03
            2109             452     115.254E-03     114.170E-03
            2100             453     110.745E-03     109.426E-03
            2109             453     110.745E-03     109.426E-03
            2091             454     105.730E-03     104.490E-03
            2100             454     105.730E-03     104.490E-03
            2082             455     100.956E-03     99.7897E-03
            2091             455     100.956E-03     99.7897E-03
            2073             456     95.8576E-03     95.1860E-03
            2082             456     95.8576E-03     95.1860E-03
            2064             457     90.4444E-03     90.0837E-03
            2073             457     90.4444E-03     90.0837E-03
            2064             458     83.9390E-03     85.5733E-03
            2055             458     83.9390E-03     85.5733E-03
            2055             459     76.5935E-03     73.0638E-03
            2046             459     76.5935E-03     73.0638E-03
            2046             460     86.3138E-03     77.7497E-03
            2037             460     86.3138E-03     77.7497E-03
            2037             461     95.1360E-03     92.3236E-03
            2028             461     95.1360E-03     92.3236E-03
            2028             462     86.7917E-03     86.5274E-03
            2019             462     86.7917E-03     86.5274E-03
            2019             463     80.9820E-03     80.2439E-03
            2010             463     80.9820E-03     80.2439E-03
            2010             464     76.6250E-03     75.7065E-03
            2001             464     76.6250E-03     75.7065E-03
            2001             465     71.9040E-03     71.1103E-03
            1992             465     71.9040E-03     71.1103E-03
            1983             466     67.4385E-03     66.7154E-03
            1992             466     67.4385E-03     66.7154E-03
            1983             467     62.7027E-03     62.4029E-03
            1974             467     62.7027E-03     62.4029E-03
            1974             468     57.7926E-03     57.7575E-03
            1965             468     57.7926E-03     57.7575E-03
            1956             469     51.8916E-03     53.4050E-03
            1965             469     51.8916E-03     53.4050E-03
            1956             470     45.1932E-03     43.1215E-03
            1947             470     45.1932E-03     43.1215E-03
            1947             471     54.0273E-03     48.9096E-03
            1938             471     54.0273E-03     48.9096E-03
            1929             472     62.1073E-03     60.6303E-03
            1938             472     62.1073E-03     60.6303E-03
            1929             473     54.4875E-03     54.2246E-03
            1920             473     54.4875E-03     54.2246E-03
            1911             474     49.0544E-03     48.6877E-03
            1920             474     49.0544E-03     48.6877E-03
            1902             475     44.9846E-03     44.4780E-03
            1911             475     44.9846E-03     44.4780E-03
            1902             476     40.7215E-03     40.3725E-03
            1893             476     40.7215E-03     40.3725E-03
            1884             477     36.7691E-03     36.4963E-03
            1893             477     36.7691E-03     36.4963E-03
            1875             478     32.7079E-03     32.7819E-03
            1884             478     32.7079E-03     32.7819E-03
            1866             479     28.6903E-03     29.0575E-03
            1875             479     28.6903E-03     29.0575E-03
            1866             480     24.3295E-03     25.7364E-03
            1857             480     24.3295E-03     25.7364E-03
            1848             481     20.4493E-03     20.5685E-03
            1857             481     20.4493E-03     20.5685E-03
            1839             482     26.2916E-03     25.0227E-03
            1848             482     26.2916E-03     25.0227E-03
            1839             483     30.2308E-03     29.9148E-03
            1830             483     30.2308E-03     29.9148E-03
            1830             484     23.7941E-03     23.8026E-03
            1821             484     23.7941E-03     23.8026E-03
            1812             485     19.5889E-03     19.8676E-03
            1821             485     19.5889E-03     19.8676E-03
            1812             486     17.0842E-03     17.4517E-03
            1803             486     17.0842E-03     17.4517E-03
            1794             487     16.0179E-03     16.6547E-03
            1803             487     16.0179E-03     16.6547E-03
            1794             488     17.8653E-03     18.3691E-03
            1785             488     17.8653E-03     18.3691E-03
            2269             489     613.643E-06     615.529E-06
            2270             489     613.643E-06     615.529E-06
            2269             490     706.635E-06     708.275E-06
            2268             490     706.635E-06     708.275E-06
            2267             491     742.442E-06     743.664E-06
            2268             491     742.442E-06     743.664E-06
            2267             492     754.300E-06     757.362E-06
            2266             492     754.300E-06     757.362E-06
            2266             493     754.300E-06     757.362E-06
            2265             493     754.300E-06     757.362E-06
            2265             494     742.442E-06     743.664E-06
            2264             494     742.442E-06     743.664E-06
            2264             495     706.635E-06     708.275E-06
            2263             495     706.635E-06     708.275E-06
            2262             496     613.643E-06     615.529E-06
            2263             496     613.643E-06     615.529E-06
            3905             520     137.050E-03     151.543E-03
            3914             520     137.050E-03     151.543E-03
            3914             521     151.614E-03     163.222E-03
            3923             521     151.614E-03     163.222E-03
            3932             522     170.221E-03     167.266E-03
            3923             522     170.221E-03     167.266E-03
            3932             523     173.710E-03     180.116E-03
            3941             523     173.710E-03     180.116E-03
            3941             524     194.135E-03     176.951E-03
            3950             524     194.135E-03     176.951E-03
            3951             609     174.150E-03     146.713E-03
            3851             609     174.150E-03     146.713E-03
            3852             609     174.150E-03     146.713E-03
            3950             609     174.150E-03     146.713E-03
            3951             610     116.247E-03     97.0418E-03
            3952             610     116.247E-03     97.0418E-03
            3853             610     116.247E-03     97.0418E-03
            3852             610     116.247E-03     97.0418E-03
            3952             611     73.1622E-03     59.9869E-03
            3854             611     73.1622E-03     59.9869E-03
            3953             611     73.1622E-03     59.9869E-03
            3853             611     73.1622E-03     59.9869E-03
            3953             612     36.3756E-03     31.7852E-03
            3855             612     36.3756E-03     31.7852E-03
            3954             612     36.3756E-03     31.7852E-03
            3854             612     36.3756E-03     31.7852E-03
            3955             613     29.0094E-03     32.9648E-03
            3855             613     29.0094E-03     32.9648E-03
            3856             613     29.0094E-03     32.9648E-03
            3954             613     29.0094E-03     32.9648E-03
            3856             614     57.8909E-03     62.2864E-03
            3955             614     57.8909E-03     62.2864E-03
            3857             614     57.8909E-03     62.2864E-03
            3956             614     57.8909E-03     62.2864E-03
            3956             615     100.070E-03     99.1545E-03
            3858             615     100.070E-03     99.1545E-03
            3857             615     100.070E-03     99.1545E-03
            3957             615     100.070E-03     99.1545E-03
            3957             616     156.164E-03     149.375E-03
            3859             616     156.164E-03     149.375E-03
            3958             616     156.164E-03     149.375E-03
            3858             616     156.164E-03     149.375E-03
            5386             617     121.390E-03     114.544E-03
            3904             617     121.390E-03     114.544E-03
            3903             617     121.390E-03     114.544E-03
            5387             617     121.390E-03     114.544E-03
            3903             618     90.5896E-03     85.5563E-03
            5385             618     90.5896E-03     85.5563E-03
            5386             618     90.5896E-03     85.5563E-03
            3902             618     90.5896E-03     85.5563E-03
            5384             619     63.0455E-03     60.3993E-03
            3901             619     63.0455E-03     60.3993E-03
            3902             619     63.0455E-03     60.3993E-03
            5385             619     63.0455E-03     60.3993E-03
            5383             620     44.7835E-03     43.5660E-03
            5384             620     44.7835E-03     43.5660E-03
            3901             620     44.7835E-03     43.5660E-03
            3900             620     44.7835E-03     43.5660E-03
            5383             621     48.3354E-03     47.4715E-03
            3900             621     48.3354E-03     47.4715E-03
            5382             621     48.3354E-03     47.4715E-03
            3899             621     48.3354E-03     47.4715E-03
            5381             622     71.2158E-03     69.4554E-03
            5382             622     71.2158E-03     69.4554E-03
            3898             622     71.2158E-03     69.4554E-03
            3899             622     71.2158E-03     69.4554E-03
            3898             623     100.082E-03     96.4038E-03
            5380             623     100.082E-03     96.4038E-03
            3897             623     100.082E-03     96.4038E-03
            5381             623     100.082E-03     96.4038E-03
            3896             624     131.667E-03     126.839E-03
            5379             624     131.667E-03     126.839E-03
            5380             624     131.667E-03     126.839E-03
            3897             624     131.667E-03     126.839E-03
            3887             625     156.607E-03     153.307E-03
            3896             625     156.607E-03     153.307E-03
            3887             626     167.783E-03     169.775E-03
            3878             626     167.783E-03     169.775E-03
            3869             627     175.374E-03     175.704E-03
            3878             627     175.374E-03     175.704E-03
            3860             628     185.055E-03     186.286E-03
            3869             628     185.055E-03     186.286E-03
            3860             629     198.621E-03     191.362E-03
            3851             629     198.621E-03     191.362E-03
            5388             636     164.078E-03     157.023E-03
            5379             636     164.078E-03     157.023E-03
            5397             637     173.524E-03     167.198E-03
            5388             637     173.524E-03     167.198E-03
            5406             638     161.377E-03     160.907E-03
            5397             638     161.377E-03     160.907E-03
            5415             639     153.671E-03     151.887E-03
            5406             639     153.671E-03     151.887E-03
            5424             640     147.969E-03     146.016E-03
            5415             640     147.969E-03     146.016E-03
            5433             641     141.718E-03     139.798E-03
            5424             641     141.718E-03     139.798E-03
            5442             642     135.640E-03     133.915E-03
            5433             642     135.640E-03     133.915E-03
            5451             643     129.231E-03     127.988E-03
            5442             643     129.231E-03     127.988E-03
            5460             644     122.204E-03     121.565E-03
            5451             644     122.204E-03     121.565E-03
            5460             645     114.343E-03     115.678E-03
            5469             645     114.343E-03     115.678E-03
            5478             646     104.904E-03     101.029E-03
            5469             646     104.904E-03     101.029E-03
            5487             647     116.352E-03     105.940E-03
            5478             647     116.352E-03     105.940E-03
            5496             648     126.613E-03     122.210E-03
            5487             648     126.613E-03     122.210E-03
            5496             649     115.421E-03     114.962E-03
            5505             649     115.421E-03     114.962E-03
            5514             650     108.065E-03     106.764E-03
            5505             650     108.065E-03     106.764E-03
            5514             651     102.516E-03     101.151E-03
            5523             651     102.516E-03     101.151E-03
            5523             652     96.6809E-03     95.2601E-03
            5532             652     96.6809E-03     95.2601E-03
            5541             653     91.0453E-03     89.8346E-03
            5532             653     91.0453E-03     89.8346E-03
            5550             654     85.3855E-03     84.2166E-03
            5541             654     85.3855E-03     84.2166E-03
            5550             655     79.4710E-03     78.8567E-03
            5559             655     79.4710E-03     78.8567E-03
            5559             656     73.1544E-03     72.9649E-03
            5568             656     73.1544E-03     72.9649E-03
            5577             657     65.9844E-03     67.2972E-03
            5568             657     65.9844E-03     67.2972E-03
            5586             658     57.1068E-03     55.2848E-03
            5577             658     57.1068E-03     55.2848E-03
            5595             659     67.3247E-03     61.6396E-03
            5586             659     67.3247E-03     61.6396E-03
            5604             660     76.7806E-03     74.3609E-03
            5595             660     76.7806E-03     74.3609E-03
            5604             661     66.6179E-03     66.2349E-03
            5613             661     66.6179E-03     66.2349E-03
            5613             662     59.7057E-03     58.9880E-03
            5622             662     59.7057E-03     58.9880E-03
            5622             663     54.3731E-03     53.6489E-03
            5631             663     54.3731E-03     53.6489E-03
            5631             664     48.9595E-03     48.3613E-03
            5640             664     48.9595E-03     48.3613E-03
            5640             665     43.8726E-03     43.4580E-03
            5649             665     43.8726E-03     43.4580E-03
            5658             666     38.7861E-03     38.6898E-03
            5649             666     38.7861E-03     38.6898E-03
            5658             667     33.6989E-03     34.0813E-03
            5667             667     33.6989E-03     34.0813E-03
            5676             668     28.6039E-03     29.8863E-03
            5667             668     28.6039E-03     29.8863E-03
            5685             669     23.8318E-03     24.6090E-03
            5676             669     23.8318E-03     24.6090E-03
            5694             670     29.4451E-03     28.5409E-03
            5685             670     29.4451E-03     28.5409E-03
            5703             671     32.9817E-03     32.2356E-03
            5694             671     32.9817E-03     32.2356E-03
            5703             672     25.4110E-03     25.4025E-03
            5712             672     25.4110E-03     25.4025E-03
            5721             673     21.9435E-03     22.0775E-03
            5712             673     21.9435E-03     22.0775E-03
            5730             674     22.6270E-03     22.6948E-03
            5721             674     22.6270E-03     22.6948E-03
            5333             765     790.233E-06     775.372E-06
            5342             765     790.233E-06     775.372E-06
            5342             766     610.496E-06     612.815E-06
            5351             766     610.496E-06     612.815E-06
            5351             767     503.562E-06     509.094E-06
            5360             767     503.562E-06     509.094E-06
            5369             768     462.302E-06     473.587E-06
            5360             768     462.302E-06     473.587E-06
            5378             769     494.344E-06     503.544E-06
            5369             769     494.344E-06     503.544E-06
            5326             792     13.9799E-03     13.9859E-03
            5325             792     13.9799E-03     13.9859E-03
            5731             792     13.9799E-03     13.9859E-03
            5730             792     13.9799E-03     13.9859E-03
            5327             793     16.3040E-03     16.2896E-03
            5731             793     16.3040E-03     16.2896E-03
            5732             793     16.3040E-03     16.2896E-03
            5326             793     16.3040E-03     16.2896E-03
            5327             794     17.2916E-03     17.2580E-03
            5328             794     17.2916E-03     17.2580E-03
            5732             794     17.2916E-03     17.2580E-03
            5733             794     17.2916E-03     17.2580E-03
            5734             795     17.8981E-03     17.8800E-03
            5328             795     17.8981E-03     17.8800E-03
            5733             795     17.8981E-03     17.8800E-03
            5329             795     17.8981E-03     17.8800E-03
            5735             796     17.9116E-03     17.8749E-03
            5330             796     17.9116E-03     17.8749E-03
            5329             796     17.9116E-03     17.8749E-03
            5734             796     17.9116E-03     17.8749E-03
            5735             797     17.3242E-03     17.2534E-03
            5331             797     17.3242E-03     17.2534E-03
            5736             797     17.3242E-03     17.2534E-03
            5330             797     17.3242E-03     17.2534E-03
            5332             798     16.3957E-03     16.2819E-03
            5331             798     16.3957E-03     16.2819E-03
            5737             798     16.3957E-03     16.2819E-03
            5736             798     16.3957E-03     16.2819E-03
            5737             799     14.1472E-03     14.0980E-03
            5738             799     14.1472E-03     14.0980E-03
            5333             799     14.1472E-03     14.0980E-03
            5332             799     14.1472E-03     14.0980E-03
            5378             800     603.521E-06     606.129E-06
            5377             800     603.521E-06     606.129E-06
            5376             801     691.570E-06     691.031E-06
            5377             801     691.570E-06     691.031E-06
            5376             802     740.568E-06     738.878E-06
            5375             802     740.568E-06     738.878E-06
            5375             803     766.204E-06     764.909E-06
            5374             803     766.204E-06     764.909E-06
            5374             804     766.204E-06     764.909E-06
            5373             804     766.204E-06     764.909E-06
            5372             805     740.568E-06     738.878E-06
            5373             805     740.568E-06     738.878E-06
            5371             806     691.570E-06     691.031E-06
            5372             806     691.570E-06     691.031E-06
            5370             807     603.521E-06     606.129E-06
            5371             807     603.521E-06     606.129E-06
            1795            2369     21.1123E-03     21.1711E-03
            1794            2369     21.1123E-03     21.1711E-03
            1785            2369     21.1123E-03     21.1711E-03
            1786            2369     21.1123E-03     21.1711E-03
            1795            2370     25.2209E-03     24.8706E-03
            1786            2370     25.2209E-03     24.8706E-03
            1796            2370     25.2209E-03     24.8706E-03
            1787            2370     25.2209E-03     24.8706E-03
            1797            2371     26.7700E-03     26.4839E-03
            1788            2371     26.7700E-03     26.4839E-03
            1787            2371     26.7700E-03     26.4839E-03
            1796            2371     26.7700E-03     26.4839E-03
            1797            2372     27.5496E-03     27.3086E-03
            1789            2372     27.5496E-03     27.3086E-03
            1798            2372     27.5496E-03     27.3086E-03
            1788            2372     27.5496E-03     27.3086E-03
            1789            2373     27.5124E-03     27.3134E-03
            1790            2373     27.5124E-03     27.3134E-03
            1798            2373     27.5124E-03     27.3134E-03
            1799            2373     27.5124E-03     27.3134E-03
            1791            2374     26.6512E-03     26.4892E-03
            1800            2374     26.6512E-03     26.4892E-03
            1790            2374     26.6512E-03     26.4892E-03
            1799            2374     26.6512E-03     26.4892E-03
            1792            2375     24.8993E-03     24.8454E-03
            1801            2375     24.8993E-03     24.8454E-03
            1800            2375     24.8993E-03     24.8454E-03
            1791            2375     24.8993E-03     24.8454E-03
            1802            2376     20.6270E-03     20.7749E-03
            1801            2376     20.6270E-03     20.7749E-03
            1792            2376     20.6270E-03     20.7749E-03
            1793            2376     20.6270E-03     20.7749E-03
            1795            2377     19.9417E-03     20.2519E-03
            1794            2377     19.9417E-03     20.2519E-03
            1803            2377     19.9417E-03     20.2519E-03
            1804            2377     19.9417E-03     20.2519E-03
            1796            2378     25.5921E-03     25.4241E-03
            1804            2378     25.5921E-03     25.4241E-03
            1795            2378     25.5921E-03     25.4241E-03
            1805            2378     25.5921E-03     25.4241E-03
            1805            2379     27.7843E-03     27.4885E-03
            1797            2379     27.7843E-03     27.4885E-03
            1806            2379     27.7843E-03     27.4885E-03
            1796            2379     27.7843E-03     27.4885E-03
            1797            2380     28.5277E-03     28.2548E-03
            1806            2380     28.5277E-03     28.2548E-03
            1798            2380     28.5277E-03     28.2548E-03
            1807            2380     28.5277E-03     28.2548E-03
            1807            2381     28.5398E-03     28.2780E-03
            1799            2381     28.5398E-03     28.2780E-03
            1798            2381     28.5398E-03     28.2780E-03
            1808            2381     28.5398E-03     28.2780E-03
            1808            2382     27.7776E-03     27.5745E-03
            1799            2382     27.7776E-03     27.5745E-03
            1809            2382     27.7776E-03     27.5745E-03
            1800            2382     27.7776E-03     27.5745E-03
            1810            2383     25.5868E-03     25.4740E-03
            1801            2383     25.5868E-03     25.4740E-03
            1809            2383     25.5868E-03     25.4740E-03
            1800            2383     25.5868E-03     25.4740E-03
            1811            2384     20.0519E-03     20.1557E-03
            1802            2384     20.0519E-03     20.1557E-03
            1801            2384     20.0519E-03     20.1557E-03
            1810            2384     20.0519E-03     20.1557E-03
            1803            2385     20.2067E-03     20.5765E-03
            1812            2385     20.2067E-03     20.5765E-03
            1813            2385     20.2067E-03     20.5765E-03
            1804            2385     20.2067E-03     20.5765E-03
            1804            2386     25.3880E-03     25.5743E-03
            1805            2386     25.3880E-03     25.5743E-03
            1814            2386     25.3880E-03     25.5743E-03
            1813            2386     25.3880E-03     25.5743E-03
            1805            2387     28.3084E-03     28.2437E-03
            1815            2387     28.3084E-03     28.2437E-03
            1806            2387     28.3084E-03     28.2437E-03
            1814            2387     28.3084E-03     28.2437E-03
            1806            2388     29.3193E-03     29.2051E-03
            1816            2388     29.3193E-03     29.2051E-03
            1807            2388     29.3193E-03     29.2051E-03
            1815            2388     29.3193E-03     29.2051E-03
            1807            2389     29.3665E-03     29.2601E-03
            1817            2389     29.3665E-03     29.2601E-03
            1816            2389     29.3665E-03     29.2601E-03
            1808            2389     29.3665E-03     29.2601E-03
            1808            2390     28.4921E-03     28.3413E-03
            1809            2390     28.4921E-03     28.3413E-03
            1818            2390     28.4921E-03     28.3413E-03
            1817            2390     28.4921E-03     28.3413E-03
            1819            2391     25.7885E-03     25.6563E-03
            1810            2391     25.7885E-03     25.6563E-03
            1818            2391     25.7885E-03     25.6563E-03
            1809            2391     25.7885E-03     25.6563E-03
            1820            2392     20.8064E-03     20.7597E-03
            1819            2392     20.8064E-03     20.7597E-03
            1810            2392     20.8064E-03     20.7597E-03
            1811            2392     20.8064E-03     20.7597E-03
            1813            2393     21.9378E-03     22.2018E-03
            1812            2393     21.9378E-03     22.2018E-03
            1822            2393     21.9378E-03     22.2018E-03
            1821            2393     21.9378E-03     22.2018E-03
            1822            2394     25.9845E-03     26.2305E-03
            1813            2394     25.9845E-03     26.2305E-03
            1823            2394     25.9845E-03     26.2305E-03
            1814            2394     25.9845E-03     26.2305E-03
            1823            2395     28.4088E-03     28.6140E-03
            1824            2395     28.4088E-03     28.6140E-03
            1815            2395     28.4088E-03     28.6140E-03
            1814            2395     28.4088E-03     28.6140E-03
            1816            2396     29.2476E-03     29.3870E-03
            1815            2396     29.2476E-03     29.3870E-03
            1824            2396     29.2476E-03     29.3870E-03
            1825            2396     29.2476E-03     29.3870E-03
            1817            2397     29.3330E-03     29.4570E-03
            1825            2397     29.3330E-03     29.4570E-03
            1826            2397     29.3330E-03     29.4570E-03
            1816            2397     29.3330E-03     29.4570E-03
            1817            2398     28.7268E-03     28.8003E-03
            1827            2398     28.7268E-03     28.8003E-03
            1826            2398     28.7268E-03     28.8003E-03
            1818            2398     28.7268E-03     28.8003E-03
            1827            2399     26.5940E-03     26.5154E-03
            1828            2399     26.5940E-03     26.5154E-03
            1819            2399     26.5940E-03     26.5154E-03
            1818            2399     26.5940E-03     26.5154E-03
            1820            2400     22.8602E-03     22.6525E-03
            1828            2400     22.8602E-03     22.6525E-03
            1829            2400     22.8602E-03     22.6525E-03
            1819            2400     22.8602E-03     22.6525E-03
            1821            2401     25.2353E-03     25.3411E-03
            1822            2401     25.2353E-03     25.3411E-03
            1830            2401     25.2353E-03     25.3411E-03
            1831            2401     25.2353E-03     25.3411E-03
            1822            2402     27.1977E-03     27.4904E-03
            1832            2402     27.1977E-03     27.4904E-03
            1823            2402     27.1977E-03     27.4904E-03
            1831            2402     27.1977E-03     27.4904E-03
            1833            2403     27.8043E-03     28.1732E-03
            1824            2403     27.8043E-03     28.1732E-03
            1832            2403     27.8043E-03     28.1732E-03
            1823            2403     27.8043E-03     28.1732E-03
            1833            2404     28.1571E-03     28.4777E-03
            1825            2404     28.1571E-03     28.4777E-03
            1834            2404     28.1571E-03     28.4777E-03
            1824            2404     28.1571E-03     28.4777E-03
            1835            2405     28.2917E-03     28.5565E-03
            1826            2405     28.2917E-03     28.5565E-03
            1834            2405     28.2917E-03     28.5565E-03
            1825            2405     28.2917E-03     28.5565E-03
            1836            2406     28.1874E-03     28.4654E-03
            1827            2406     28.1874E-03     28.4654E-03
            1826            2406     28.1874E-03     28.4654E-03
            1835            2406     28.1874E-03     28.4654E-03
            1827            2407     27.8946E-03     28.0457E-03
            1837            2407     27.8946E-03     28.0457E-03
            1828            2407     27.8946E-03     28.0457E-03
            1836            2407     27.8946E-03     28.0457E-03
            1837            2408     26.2921E-03     26.2016E-03
            1828            2408     26.2921E-03     26.2016E-03
            1838            2408     26.2921E-03     26.2016E-03
            1829            2408     26.2921E-03     26.2016E-03
            1840            2409     29.1014E-03     29.0587E-03
            1831            2409     29.1014E-03     29.0587E-03
            1839            2409     29.1014E-03     29.0587E-03
            1830            2409     29.1014E-03     29.0587E-03
            1841            2410     27.0222E-03     27.3156E-03
            1831            2410     27.0222E-03     27.3156E-03
            1840            2410     27.0222E-03     27.3156E-03
            1832            2410     27.0222E-03     27.3156E-03
            1832            2411     26.2190E-03     26.5456E-03
            1841            2411     26.2190E-03     26.5456E-03
            1842            2411     26.2190E-03     26.5456E-03
            1833            2411     26.2190E-03     26.5456E-03
            1842            2412     26.3314E-03     26.6015E-03
            1833            2412     26.3314E-03     26.6015E-03
            1843            2412     26.3314E-03     26.6015E-03
            1834            2412     26.3314E-03     26.6015E-03
            1844            2413     26.4984E-03     26.6981E-03
            1834            2413     26.4984E-03     26.6981E-03
            1843            2413     26.4984E-03     26.6981E-03
            1835            2413     26.4984E-03     26.6981E-03
            1844            2414     26.7354E-03     26.8367E-03
            1835            2414     26.7354E-03     26.8367E-03
            1845            2414     26.7354E-03     26.8367E-03
            1836            2414     26.7354E-03     26.8367E-03
            1845            2415     27.9077E-03     27.9159E-03
            1836            2415     27.9077E-03     27.9159E-03
            1846            2415     27.9077E-03     27.9159E-03
            1837            2415     27.9077E-03     27.9159E-03
            1838            2416     30.4862E-03     29.9958E-03
            1837            2416     30.4862E-03     29.9958E-03
            1847            2416     30.4862E-03     29.9958E-03
            1846            2416     30.4862E-03     29.9958E-03
            1849            2417     26.9159E-03     25.7132E-03
            1840            2417     26.9159E-03     25.7132E-03
            1848            2417     26.9159E-03     25.7132E-03
            1839            2417     26.9159E-03     25.7132E-03
            1849            2418     27.1770E-03     26.3470E-03
            1840            2418     27.1770E-03     26.3470E-03
            1850            2418     27.1770E-03     26.3470E-03
            1841            2418     27.1770E-03     26.3470E-03
            1841            2419     27.2345E-03     26.7939E-03
            1851            2419     27.2345E-03     26.7939E-03
            1842            2419     27.2345E-03     26.7939E-03
            1850            2419     27.2345E-03     26.7939E-03
            1852            2420     27.5895E-03     27.2966E-03
            1843            2420     27.5895E-03     27.2966E-03
            1851            2420     27.5895E-03     27.2966E-03
            1842            2420     27.5895E-03     27.2966E-03
            1843            2421     27.7366E-03     27.4468E-03
            1853            2421     27.7366E-03     27.4468E-03
            1844            2421     27.7366E-03     27.4468E-03
            1852            2421     27.7366E-03     27.4468E-03
            1844            2422     27.7274E-03     27.2287E-03
            1854            2422     27.7274E-03     27.2287E-03
            1845            2422     27.7274E-03     27.2287E-03
            1853            2422     27.7274E-03     27.2287E-03
            1845            2423     27.9065E-03     27.0923E-03
            1854            2423     27.9065E-03     27.0923E-03
            1846            2423     27.9065E-03     27.0923E-03
            1855            2423     27.9065E-03     27.0923E-03
            1847            2424     27.9402E-03     26.7733E-03
            1846            2424     27.9402E-03     26.7733E-03
            1856            2424     27.9402E-03     26.7733E-03
            1855            2424     27.9402E-03     26.7733E-03
            1848            2425     24.2490E-03     23.4646E-03
            1849            2425     24.2490E-03     23.4646E-03
            1857            2425     24.2490E-03     23.4646E-03
            1858            2425     24.2490E-03     23.4646E-03
            1858            2426     28.6489E-03     27.0442E-03
            1859            2426     28.6489E-03     27.0442E-03
            1850            2426     28.6489E-03     27.0442E-03
            1849            2426     28.6489E-03     27.0442E-03
            1851            2427     29.5394E-03     28.1717E-03
            1860            2427     29.5394E-03     28.1717E-03
            1859            2427     29.5394E-03     28.1717E-03
            1850            2427     29.5394E-03     28.1717E-03
            1860            2428     29.9156E-03     28.7626E-03
            1852            2428     29.9156E-03     28.7626E-03
            1851            2428     29.9156E-03     28.7626E-03
            1861            2428     29.9156E-03     28.7626E-03
            1852            2429     30.1072E-03     29.0616E-03
            1861            2429     30.1072E-03     29.0616E-03
            1853            2429     30.1072E-03     29.0616E-03
            1862            2429     30.1072E-03     29.0616E-03
            1863            2430     30.1018E-03     29.0696E-03
            1854            2430     30.1018E-03     29.0696E-03
            1853            2430     30.1018E-03     29.0696E-03
            1862            2430     30.1018E-03     29.0696E-03
            1864            2431     29.4369E-03     28.4913E-03
            1855            2431     29.4369E-03     28.4913E-03
            1854            2431     29.4369E-03     28.4913E-03
            1863            2431     29.4369E-03     28.4913E-03
            1855            2432     25.5686E-03     25.3250E-03
            1864            2432     25.5686E-03     25.3250E-03
            1856            2432     25.5686E-03     25.3250E-03
            1865            2432     25.5686E-03     25.3250E-03
            1858            2433     26.3971E-03     27.1569E-03
            1867            2433     26.3971E-03     27.1569E-03
            1857            2433     26.3971E-03     27.1569E-03
            1866            2433     26.3971E-03     27.1569E-03
            1858            2434     29.3474E-03     28.7601E-03
            1868            2434     29.3474E-03     28.7601E-03
            1867            2434     29.3474E-03     28.7601E-03
            1859            2434     29.3474E-03     28.7601E-03
            1860            2435     30.1989E-03     28.8019E-03
            1868            2435     30.1989E-03     28.8019E-03
            1859            2435     30.1989E-03     28.8019E-03
            1869            2435     30.1989E-03     28.8019E-03
            1870            2436     30.3166E-03     28.7927E-03
            1861            2436     30.3166E-03     28.7927E-03
            1869            2436     30.3166E-03     28.7927E-03
            1860            2436     30.3166E-03     28.7927E-03
            1871            2437     30.6582E-03     29.2590E-03
            1861            2437     30.6582E-03     29.2590E-03
            1862            2437     30.6582E-03     29.2590E-03
            1870            2437     30.6582E-03     29.2590E-03
            1872            2438     31.1695E-03     30.1523E-03
            1863            2438     31.1695E-03     30.1523E-03
            1871            2438     31.1695E-03     30.1523E-03
            1862            2438     31.1695E-03     30.1523E-03
            1872            2439     31.0302E-03     30.8194E-03
            1873            2439     31.0302E-03     30.8194E-03
            1864            2439     31.0302E-03     30.8194E-03
            1863            2439     31.0302E-03     30.8194E-03
            1873            2440     29.1548E-03     29.7825E-03
            1874            2440     29.1548E-03     29.7825E-03
            1865            2440     29.1548E-03     29.7825E-03
            1864            2440     29.1548E-03     29.7825E-03
            1866            2441     28.9603E-03     29.5208E-03
            1876            2441     28.9603E-03     29.5208E-03
            1875            2441     28.9603E-03     29.5208E-03
            1867            2441     28.9603E-03     29.5208E-03
            1867            2442     29.8963E-03     30.0955E-03
            1876            2442     29.8963E-03     30.0955E-03
            1877            2442     29.8963E-03     30.0955E-03
            1868            2442     29.8963E-03     30.0955E-03
            1869            2443     30.7608E-03     29.9767E-03
            1878            2443     30.7608E-03     29.9767E-03
            1877            2443     30.7608E-03     29.9767E-03
            1868            2443     30.7608E-03     29.9767E-03
            1870            2444     31.0571E-03     29.7920E-03
            1878            2444     31.0571E-03     29.7920E-03
            1879            2444     31.0571E-03     29.7920E-03
            1869            2444     31.0571E-03     29.7920E-03
            1879            2445     31.5317E-03     30.3505E-03
            1870            2445     31.5317E-03     30.3505E-03
            1871            2445     31.5317E-03     30.3505E-03
            1880            2445     31.5317E-03     30.3505E-03
            1871            2446     32.2081E-03     31.5478E-03
            1880            2446     32.2081E-03     31.5478E-03
            1872            2446     32.2081E-03     31.5478E-03
            1881            2446     32.2081E-03     31.5478E-03
            1872            2447     32.3798E-03     32.4842E-03
            1873            2447     32.3798E-03     32.4842E-03
            1882            2447     32.3798E-03     32.4842E-03
            1881            2447     32.3798E-03     32.4842E-03
            1873            2448     32.3498E-03     32.6707E-03
            1874            2448     32.3498E-03     32.6707E-03
            1883            2448     32.3498E-03     32.6707E-03
            1882            2448     32.3498E-03     32.6707E-03
            1885            2449     31.9218E-03     32.1630E-03
            1876            2449     31.9218E-03     32.1630E-03
            1884            2449     31.9218E-03     32.1630E-03
            1875            2449     31.9218E-03     32.1630E-03
            1877            2450     31.0780E-03     31.3316E-03
            1885            2450     31.0780E-03     31.3316E-03
            1876            2450     31.0780E-03     31.3316E-03
            1886            2450     31.0780E-03     31.3316E-03
            1878            2451     31.1902E-03     30.9551E-03
            1877            2451     31.1902E-03     30.9551E-03
            1887            2451     31.1902E-03     30.9551E-03
            1886            2451     31.1902E-03     30.9551E-03
            1887            2452     31.6199E-03     30.9044E-03
            1888            2452     31.6199E-03     30.9044E-03
            1878            2452     31.6199E-03     30.9044E-03
            1879            2452     31.6199E-03     30.9044E-03
            1889            2453     32.2426E-03     31.5128E-03
            1880            2453     32.2426E-03     31.5128E-03
            1888            2453     32.2426E-03     31.5128E-03
            1879            2453     32.2426E-03     31.5128E-03
            1881            2454     33.0463E-03     32.6905E-03
            1880            2454     33.0463E-03     32.6905E-03
            1890            2454     33.0463E-03     32.6905E-03
            1889            2454     33.0463E-03     32.6905E-03
            1881            2455     34.0420E-03     34.0483E-03
            1882            2455     34.0420E-03     34.0483E-03
            1891            2455     34.0420E-03     34.0483E-03
            1890            2455     34.0420E-03     34.0483E-03
            1882            2456     35.7410E-03     35.6851E-03
            1891            2456     35.7410E-03     35.6851E-03
            1883            2456     35.7410E-03     35.6851E-03
            1892            2456     35.7410E-03     35.6851E-03
            1893            2457     35.0505E-03     35.0468E-03
            1894            2457     35.0505E-03     35.0468E-03
            1885            2457     35.0505E-03     35.0468E-03
            1884            2457     35.0505E-03     35.0468E-03
            1895            2458     32.6468E-03     32.8909E-03
            1886            2458     32.6468E-03     32.8909E-03
            1885            2458     32.6468E-03     32.8909E-03
            1894            2458     32.6468E-03     32.8909E-03
            1886            2459     31.8496E-03     31.9283E-03
            1896            2459     31.8496E-03     31.9283E-03
            1895            2459     31.8496E-03     31.9283E-03
            1887            2459     31.8496E-03     31.9283E-03
            1887            2460     31.9419E-03     31.7656E-03
            1896            2460     31.9419E-03     31.7656E-03
            1897            2460     31.9419E-03     31.7656E-03
            1888            2460     31.9419E-03     31.7656E-03
            1888            2461     32.6855E-03     32.4336E-03
            1897            2461     32.6855E-03     32.4336E-03
            1898            2461     32.6855E-03     32.4336E-03
            1889            2461     32.6855E-03     32.4336E-03
            1898            2462     34.0048E-03     33.8606E-03
            1899            2462     34.0048E-03     33.8606E-03
            1890            2462     34.0048E-03     33.8606E-03
            1889            2462     34.0048E-03     33.8606E-03
            1890            2463     35.9836E-03     35.8963E-03
            1899            2463     35.9836E-03     35.8963E-03
            1891            2463     35.9836E-03     35.8963E-03
            1900            2463     35.9836E-03     35.8963E-03
            1900            2464     39.1849E-03     38.8977E-03
            1891            2464     39.1849E-03     38.8977E-03
            1892            2464     39.1849E-03     38.8977E-03
            1901            2464     39.1849E-03     38.8977E-03
            1894            2465     38.3405E-03     38.2103E-03
            1902            2465     38.3405E-03     38.2103E-03
            1903            2465     38.3405E-03     38.2103E-03
            1893            2465     38.3405E-03     38.2103E-03
            1894            2466     34.5471E-03     34.7778E-03
            1903            2466     34.5471E-03     34.7778E-03
            1895            2466     34.5471E-03     34.7778E-03
            1904            2466     34.5471E-03     34.7778E-03
            1895            2467     32.5692E-03     32.9284E-03
            1904            2467     32.5692E-03     32.9284E-03
            1905            2467     32.5692E-03     32.9284E-03
            1896            2467     32.5692E-03     32.9284E-03
            1906            2468     32.1768E-03     32.4820E-03
            1897            2468     32.1768E-03     32.4820E-03
            1905            2468     32.1768E-03     32.4820E-03
            1896            2468     32.1768E-03     32.4820E-03
            1906            2469     33.0214E-03     33.2274E-03
            1907            2469     33.0214E-03     33.2274E-03
            1898            2469     33.0214E-03     33.2274E-03
            1897            2469     33.0214E-03     33.2274E-03
            1898            2470     34.9796E-03     35.0722E-03
            1899            2470     34.9796E-03     35.0722E-03
            1908            2470     34.9796E-03     35.0722E-03
            1907            2470     34.9796E-03     35.0722E-03
            1908            2471     38.1707E-03     38.0817E-03
            1899            2471     38.1707E-03     38.0817E-03
            1900            2471     38.1707E-03     38.0817E-03
            1909            2471     38.1707E-03     38.0817E-03
            1901            2472     42.7515E-03     42.3314E-03
            1900            2472     42.7515E-03     42.3314E-03
            1909            2472     42.7515E-03     42.3314E-03
            1910            2472     42.7515E-03     42.3314E-03
            1912            2473     41.8196E-03     41.6074E-03
            1902            2473     41.8196E-03     41.6074E-03
            1911            2473     41.8196E-03     41.6074E-03
            1903            2473     41.8196E-03     41.6074E-03
            1904            2474     36.5051E-03     36.7979E-03
            1912            2474     36.5051E-03     36.7979E-03
            1913            2474     36.5051E-03     36.7979E-03
            1903            2474     36.5051E-03     36.7979E-03
            1904            2475     33.3244E-03     33.9818E-03
            1913            2475     33.3244E-03     33.9818E-03
            1905            2475     33.3244E-03     33.9818E-03
            1914            2475     33.3244E-03     33.9818E-03
            1915            2476     32.2556E-03     33.0983E-03
            1914            2476     32.2556E-03     33.0983E-03
            1905            2476     32.2556E-03     33.0983E-03
            1906            2476     32.2556E-03     33.0983E-03
            1907            2477     33.1939E-03     33.9570E-03
            1906            2477     33.1939E-03     33.9570E-03
            1916            2477     33.1939E-03     33.9570E-03
            1915            2477     33.1939E-03     33.9570E-03
            1907            2478     35.9535E-03     36.3781E-03
            1917            2478     35.9535E-03     36.3781E-03
            1908            2478     35.9535E-03     36.3781E-03
            1916            2478     35.9535E-03     36.3781E-03
            1909            2479     40.3883E-03     40.3687E-03
            1918            2479     40.3883E-03     40.3687E-03
            1917            2479     40.3883E-03     40.3687E-03
            1908            2479     40.3883E-03     40.3687E-03
            1910            2480     46.4573E-03     45.9886E-03
            1919            2480     46.4573E-03     45.9886E-03
            1918            2480     46.4573E-03     45.9886E-03
            1909            2480     46.4573E-03     45.9886E-03
            1921            2481     45.2972E-03     45.1707E-03
            1911            2481     45.2972E-03     45.1707E-03
            1912            2481     45.2972E-03     45.1707E-03
            1920            2481     45.2972E-03     45.1707E-03
            1922            2482     38.7009E-03     39.2205E-03
            1912            2482     38.7009E-03     39.2205E-03
            1913            2482     38.7009E-03     39.2205E-03
            1921            2482     38.7009E-03     39.2205E-03
            1922            2483     33.9645E-03     35.1039E-03
            1913            2483     33.9645E-03     35.1039E-03
            1923            2483     33.9645E-03     35.1039E-03
            1914            2483     33.9645E-03     35.1039E-03
            1923            2484     31.6636E-03     33.0154E-03
            1914            2484     31.6636E-03     33.0154E-03
            1924            2484     31.6636E-03     33.0154E-03
            1915            2484     31.6636E-03     33.0154E-03
            1924            2485     32.6605E-03     33.9384E-03
            1916            2485     32.6605E-03     33.9384E-03
            1925            2485     32.6605E-03     33.9384E-03
            1915            2485     32.6605E-03     33.9384E-03
            1916            2486     36.7700E-03     37.7427E-03
            1925            2486     36.7700E-03     37.7427E-03
            1926            2486     36.7700E-03     37.7427E-03
            1917            2486     36.7700E-03     37.7427E-03
            1926            2487     42.7983E-03     43.1218E-03
            1917            2487     42.7983E-03     43.1218E-03
            1918            2487     42.7983E-03     43.1218E-03
            1927            2487     42.7983E-03     43.1218E-03
            1927            2488     50.1708E-03     49.7588E-03
            1928            2488     50.1708E-03     49.7588E-03
            1918            2488     50.1708E-03     49.7588E-03
            1919            2488     50.1708E-03     49.7588E-03
            1929            2489     49.9333E-03     50.0854E-03
            1921            2489     49.9333E-03     50.0854E-03
            1930            2489     49.9333E-03     50.0854E-03
            1920            2489     49.9333E-03     50.0854E-03
            1921            2490     40.7311E-03     41.6302E-03
            1930            2490     40.7311E-03     41.6302E-03
            1922            2490     40.7311E-03     41.6302E-03
            1931            2490     40.7311E-03     41.6302E-03
            1923            2491     33.1771E-03     34.5539E-03
            1922            2491     33.1771E-03     34.5539E-03
            1931            2491     33.1771E-03     34.5539E-03
            1932            2491     33.1771E-03     34.5539E-03
            1933            2492     29.9089E-03     31.4642E-03
            1923            2492     29.9089E-03     31.4642E-03
            1932            2492     29.9089E-03     31.4642E-03
            1924            2492     29.9089E-03     31.4642E-03
            1925            2493     31.0141E-03     32.4205E-03
            1933            2493     31.0141E-03     32.4205E-03
            1924            2493     31.0141E-03     32.4205E-03
            1934            2493     31.0141E-03     32.4205E-03
            1935            2494     36.1594E-03     37.2492E-03
            1934            2494     36.1594E-03     37.2492E-03
            1926            2494     36.1594E-03     37.2492E-03
            1925            2494     36.1594E-03     37.2492E-03
            1927            2495     45.0148E-03     45.7260E-03
            1926            2495     45.0148E-03     45.7260E-03
            1936            2495     45.0148E-03     45.7260E-03
            1935            2495     45.0148E-03     45.7260E-03
            1936            2496     54.9835E-03     55.0544E-03
            1928            2496     54.9835E-03     55.0544E-03
            1927            2496     54.9835E-03     55.0544E-03
            1937            2496     54.9835E-03     55.0544E-03
            1938            2497     54.1448E-03     53.3311E-03
            1939            2497     54.1448E-03     53.3311E-03
            1929            2497     54.1448E-03     53.3311E-03
            1930            2497     54.1448E-03     53.3311E-03
            1930            2498     39.9009E-03     40.0102E-03
            1931            2498     39.9009E-03     40.0102E-03
            1939            2498     39.9009E-03     40.0102E-03
            1940            2498     39.9009E-03     40.0102E-03
            1931            2499     30.5204E-03     31.2000E-03
            1941            2499     30.5204E-03     31.2000E-03
            1932            2499     30.5204E-03     31.2000E-03
            1940            2499     30.5204E-03     31.2000E-03
            1942            2500     26.5179E-03     27.5757E-03
            1933            2500     26.5179E-03     27.5757E-03
            1932            2500     26.5179E-03     27.5757E-03
            1941            2500     26.5179E-03     27.5757E-03
            1933            2501     27.7432E-03     28.5393E-03
            1942            2501     27.7432E-03     28.5393E-03
            1934            2501     27.7432E-03     28.5393E-03
            1943            2501     27.7432E-03     28.5393E-03
            1943            2502     33.7800E-03     33.7896E-03
            1934            2502     33.7800E-03     33.7896E-03
            1935            2502     33.7800E-03     33.7896E-03
            1944            2502     33.7800E-03     33.7896E-03
            1944            2503     44.4957E-03     43.8124E-03
            1936            2503     44.4957E-03     43.8124E-03
            1945            2503     44.4957E-03     43.8124E-03
            1935            2503     44.4957E-03     43.8124E-03
            1937            2504     59.7033E-03     58.0822E-03
            1936            2504     59.7033E-03     58.0822E-03
            1945            2504     59.7033E-03     58.0822E-03
            1946            2504     59.7033E-03     58.0822E-03
            1938            2505     48.5951E-03     44.0703E-03
            1948            2505     48.5951E-03     44.0703E-03
            1947            2505     48.5951E-03     44.0703E-03
            1939            2505     48.5951E-03     44.0703E-03
            1949            2506     38.9672E-03     36.0232E-03
            1948            2506     38.9672E-03     36.0232E-03
            1939            2506     38.9672E-03     36.0232E-03
            1940            2506     38.9672E-03     36.0232E-03
            1950            2507     32.5287E-03     31.1764E-03
            1941            2507     32.5287E-03     31.1764E-03
            1949            2507     32.5287E-03     31.1764E-03
            1940            2507     32.5287E-03     31.1764E-03
            1951            2508     29.5862E-03     29.0739E-03
            1941            2508     29.5862E-03     29.0739E-03
            1942            2508     29.5862E-03     29.0739E-03
            1950            2508     29.5862E-03     29.0739E-03
            1951            2509     30.7396E-03     30.1050E-03
            1943            2509     30.7396E-03     30.1050E-03
            1942            2509     30.7396E-03     30.1050E-03
            1952            2509     30.7396E-03     30.1050E-03
            1943            2510     35.7445E-03     34.0803E-03
            1953            2510     35.7445E-03     34.0803E-03
            1944            2510     35.7445E-03     34.0803E-03
            1952            2510     35.7445E-03     34.0803E-03
            1945            2511     43.5387E-03     40.3927E-03
            1954            2511     43.5387E-03     40.3927E-03
            1953            2511     43.5387E-03     40.3927E-03
            1944            2511     43.5387E-03     40.3927E-03
            1946            2512     54.5364E-03     50.0705E-03
            1945            2512     54.5364E-03     50.0705E-03
            1954            2512     54.5364E-03     50.0705E-03
            1955            2512     54.5364E-03     50.0705E-03
            1956            2513     44.1140E-03     41.2953E-03
            1947            2513     44.1140E-03     41.2953E-03
            1948            2513     44.1140E-03     41.2953E-03
            1957            2513     44.1140E-03     41.2953E-03
            1948            2514     40.4836E-03     37.0875E-03
            1957            2514     40.4836E-03     37.0875E-03
            1958            2514     40.4836E-03     37.0875E-03
            1949            2514     40.4836E-03     37.0875E-03
            1950            2515     36.0691E-03     33.2393E-03
            1949            2515     36.0691E-03     33.2393E-03
            1959            2515     36.0691E-03     33.2393E-03
            1958            2515     36.0691E-03     33.2393E-03
            1960            2516     33.9627E-03     31.6869E-03
            1959            2516     33.9627E-03     31.6869E-03
            1951            2516     33.9627E-03     31.6869E-03
            1950            2516     33.9627E-03     31.6869E-03
            1960            2517     35.2373E-03     33.1379E-03
            1951            2517     35.2373E-03     33.1379E-03
            1952            2517     35.2373E-03     33.1379E-03
            1961            2517     35.2373E-03     33.1379E-03
            1962            2518     39.5758E-03     37.2680E-03
            1953            2518     39.5758E-03     37.2680E-03
            1952            2518     39.5758E-03     37.2680E-03
            1961            2518     39.5758E-03     37.2680E-03
            1954            2519     45.6161E-03     43.1216E-03
            1962            2519     45.6161E-03     43.1216E-03
            1963            2519     45.6161E-03     43.1216E-03
            1953            2519     45.6161E-03     43.1216E-03
            1963            2520     50.9957E-03     49.0218E-03
            1955            2520     50.9957E-03     49.0218E-03
            1954            2520     50.9957E-03     49.0218E-03
            1964            2520     50.9957E-03     49.0218E-03
            1965            2521     48.5525E-03     49.7303E-03
            1966            2521     48.5525E-03     49.7303E-03
            1956            2521     48.5525E-03     49.7303E-03
            1957            2521     48.5525E-03     49.7303E-03
            1966            2522     42.0154E-03     41.5281E-03
            1958            2522     42.0154E-03     41.5281E-03
            1957            2522     42.0154E-03     41.5281E-03
            1967            2522     42.0154E-03     41.5281E-03
            1967            2523     36.1964E-03     33.9060E-03
            1968            2523     36.1964E-03     33.9060E-03
            1959            2523     36.1964E-03     33.9060E-03
            1958            2523     36.1964E-03     33.9060E-03
            1960            2524     33.1504E-03     30.2834E-03
            1959            2524     33.1504E-03     30.2834E-03
            1969            2524     33.1504E-03     30.2834E-03
            1968            2524     33.1504E-03     30.2834E-03
            1970            2525     34.8247E-03     32.2428E-03
            1969            2525     34.8247E-03     32.2428E-03
            1961            2525     34.8247E-03     32.2428E-03
            1960            2525     34.8247E-03     32.2428E-03
            1962            2526     40.6818E-03     39.0554E-03
            1970            2526     40.6818E-03     39.0554E-03
            1971            2526     40.6818E-03     39.0554E-03
            1961            2526     40.6818E-03     39.0554E-03
            1972            2527     48.5742E-03     48.5564E-03
            1962            2527     48.5742E-03     48.5564E-03
            1971            2527     48.5742E-03     48.5564E-03
            1963            2527     48.5742E-03     48.5564E-03
            1964            2528     56.6488E-03     57.5987E-03
            1973            2528     56.6488E-03     57.5987E-03
            1963            2528     56.6488E-03     57.5987E-03
            1972            2528     56.6488E-03     57.5987E-03
            1975            2529     52.5854E-03     53.2466E-03
            1966            2529     52.5854E-03     53.2466E-03
            1974            2529     52.5854E-03     53.2466E-03
            1965            2529     52.5854E-03     53.2466E-03
            1976            2530     43.5261E-03     44.1769E-03
            1967            2530     43.5261E-03     44.1769E-03
            1975            2530     43.5261E-03     44.1769E-03
            1966            2530     43.5261E-03     44.1769E-03
            1977            2531     36.8204E-03     35.7419E-03
            1968            2531     36.8204E-03     35.7419E-03
            1967            2531     36.8204E-03     35.7419E-03
            1976            2531     36.8204E-03     35.7419E-03
            1978            2532     33.4963E-03     31.1783E-03
            1977            2532     33.4963E-03     31.1783E-03
            1968            2532     33.4963E-03     31.1783E-03
            1969            2532     33.4963E-03     31.1783E-03
            1969            2533     35.4641E-03     33.3745E-03
            1978            2533     35.4641E-03     33.3745E-03
            1970            2533     35.4641E-03     33.3745E-03
            1979            2533     35.4641E-03     33.3745E-03
            1971            2534     42.1291E-03     41.3653E-03
            1970            2534     42.1291E-03     41.3653E-03
            1979            2534     42.1291E-03     41.3653E-03
            1980            2534     42.1291E-03     41.3653E-03
            1980            2535     51.0014E-03     51.5482E-03
            1981            2535     51.0014E-03     51.5482E-03
            1972            2535     51.0014E-03     51.5482E-03
            1971            2535     51.0014E-03     51.5482E-03
            1973            2536     61.0506E-03     61.4105E-03
            1982            2536     61.0506E-03     61.4105E-03
            1972            2536     61.0506E-03     61.4105E-03
            1981            2536     61.0506E-03     61.4105E-03
            1983            2537     56.5506E-03     56.6684E-03
            1974            2537     56.5506E-03     56.6684E-03
            1984            2537     56.5506E-03     56.6684E-03
            1975            2537     56.5506E-03     56.6684E-03
            1985            2538     45.5295E-03     45.9812E-03
            1976            2538     45.5295E-03     45.9812E-03
            1975            2538     45.5295E-03     45.9812E-03
            1984            2538     45.5295E-03     45.9812E-03
            1976            2539     37.5586E-03     37.2723E-03
            1986            2539     37.5586E-03     37.2723E-03
            1977            2539     37.5586E-03     37.2723E-03
            1985            2539     37.5586E-03     37.2723E-03
            1986            2540     34.0762E-03     32.7775E-03
            1977            2540     34.0762E-03     32.7775E-03
            1978            2540     34.0762E-03     32.7775E-03
            1987            2540     34.0762E-03     32.7775E-03
            1978            2541     36.3029E-03     35.0614E-03
            1987            2541     36.3029E-03     35.0614E-03
            1979            2541     36.3029E-03     35.0614E-03
            1988            2541     36.3029E-03     35.0614E-03
            1989            2542     43.4282E-03     43.0850E-03
            1979            2542     43.4282E-03     43.0850E-03
            1980            2542     43.4282E-03     43.0850E-03
            1988            2542     43.4282E-03     43.0850E-03
            1989            2543     53.4704E-03     53.6253E-03
            1980            2543     53.4704E-03     53.6253E-03
            1981            2543     53.4704E-03     53.6253E-03
            1990            2543     53.4704E-03     53.6253E-03
            1990            2544     65.3625E-03     65.0954E-03
            1981            2544     65.3625E-03     65.0954E-03
            1991            2544     65.3625E-03     65.0954E-03
            1982            2544     65.3625E-03     65.0954E-03
            1992            2545     60.4337E-03     60.2041E-03
            1984            2545     60.4337E-03     60.2041E-03
            1983            2545     60.4337E-03     60.2041E-03
            1993            2545     60.4337E-03     60.2041E-03
            1994            2546     47.8296E-03     48.1608E-03
            1985            2546     47.8296E-03     48.1608E-03
            1993            2546     47.8296E-03     48.1608E-03
            1984            2546     47.8296E-03     48.1608E-03
            1995            2547     38.6523E-03     38.8027E-03
            1985            2547     38.6523E-03     38.8027E-03
            1994            2547     38.6523E-03     38.8027E-03
            1986            2547     38.6523E-03     38.8027E-03
            1996            2548     34.5574E-03     34.2353E-03
            1986            2548     34.5574E-03     34.2353E-03
            1987            2548     34.5574E-03     34.2353E-03
            1995            2548     34.5574E-03     34.2353E-03
            1997            2549     36.9544E-03     36.5603E-03
            1988            2549     36.9544E-03     36.5603E-03
            1996            2549     36.9544E-03     36.5603E-03
            1987            2549     36.9544E-03     36.5603E-03
            1997            2550     44.8835E-03     44.7821E-03
            1989            2550     44.8835E-03     44.7821E-03
            1998            2550     44.8835E-03     44.7821E-03
            1988            2550     44.8835E-03     44.7821E-03
            1998            2551     56.1135E-03     56.0352E-03
            1989            2551     56.1135E-03     56.0352E-03
            1999            2551     56.1135E-03     56.0352E-03
            1990            2551     56.1135E-03     56.0352E-03
            1991            2552     69.4760E-03     68.8794E-03
            1999            2552     69.4760E-03     68.8794E-03
            1990            2552     69.4760E-03     68.8794E-03
            2000            2552     69.4760E-03     68.8794E-03
            2002            2553     64.3451E-03     63.9697E-03
            1992            2553     64.3451E-03     63.9697E-03
            1993            2553     64.3451E-03     63.9697E-03
            2001            2553     64.3451E-03     63.9697E-03
            1993            2554     50.4128E-03     50.7457E-03
            1994            2554     50.4128E-03     50.7457E-03
            2002            2554     50.4128E-03     50.7457E-03
            2003            2554     50.4128E-03     50.7457E-03
            2004            2555     39.8019E-03     40.4370E-03
            1994            2555     39.8019E-03     40.4370E-03
            2003            2555     39.8019E-03     40.4370E-03
            1995            2555     39.8019E-03     40.4370E-03
            1996            2556     34.9970E-03     35.5744E-03
            2004            2556     34.9970E-03     35.5744E-03
            2005            2556     34.9970E-03     35.5744E-03
            1995            2556     34.9970E-03     35.5744E-03
            2006            2557     37.5394E-03     37.9762E-03
            1996            2557     37.5394E-03     37.9762E-03
            2005            2557     37.5394E-03     37.9762E-03
            1997            2557     37.5394E-03     37.9762E-03
            2007            2558     46.3209E-03     46.5993E-03
            1997            2558     46.3209E-03     46.5993E-03
            1998            2558     46.3209E-03     46.5993E-03
            2006            2558     46.3209E-03     46.5993E-03
            2008            2559     58.9230E-03     58.8495E-03
            2007            2559     58.9230E-03     58.8495E-03
            1998            2559     58.9230E-03     58.8495E-03
            1999            2559     58.9230E-03     58.8495E-03
            2000            2560     73.5886E-03     72.8414E-03
            2009            2560     73.5886E-03     72.8414E-03
            1999            2560     73.5886E-03     72.8414E-03
            2008            2560     73.5886E-03     72.8414E-03
            2011            2561     68.3472E-03     67.9506E-03
            2002            2561     68.3472E-03     67.9506E-03
            2001            2561     68.3472E-03     67.9506E-03
            2010            2561     68.3472E-03     67.9506E-03
            2011            2562     52.9307E-03     53.4675E-03
            2012            2562     52.9307E-03     53.4675E-03
            2002            2562     52.9307E-03     53.4675E-03
            2003            2562     52.9307E-03     53.4675E-03
            2003            2563     40.9840E-03     42.2373E-03
            2012            2563     40.9840E-03     42.2373E-03
            2004            2563     40.9840E-03     42.2373E-03
            2013            2563     40.9840E-03     42.2373E-03
            2005            2564     35.2582E-03     36.8677E-03
            2013            2564     35.2582E-03     36.8677E-03
            2014            2564     35.2582E-03     36.8677E-03
            2004            2564     35.2582E-03     36.8677E-03
            2005            2565     37.9344E-03     39.3945E-03
            2006            2565     37.9344E-03     39.3945E-03
            2015            2565     37.9344E-03     39.3945E-03
            2014            2565     37.9344E-03     39.3945E-03
            2006            2566     47.7359E-03     48.6368E-03
            2015            2566     47.7359E-03     48.6368E-03
            2007            2566     47.7359E-03     48.6368E-03
            2016            2566     47.7359E-03     48.6368E-03
            2017            2567     61.6364E-03     61.7697E-03
            2016            2567     61.6364E-03     61.7697E-03
            2008            2567     61.6364E-03     61.7697E-03
            2007            2567     61.6364E-03     61.7697E-03
            2018            2568     77.7521E-03     77.0123E-03
            2008            2568     77.7521E-03     77.0123E-03
            2009            2568     77.7521E-03     77.0123E-03
            2017            2568     77.7521E-03     77.0123E-03
            2011            2569     72.1839E-03     72.0410E-03
            2010            2569     72.1839E-03     72.0410E-03
            2019            2569     72.1839E-03     72.0410E-03
            2020            2569     72.1839E-03     72.0410E-03
            2021            2570     55.6285E-03     56.7544E-03
            2012            2570     55.6285E-03     56.7544E-03
            2011            2570     55.6285E-03     56.7544E-03
            2020            2570     55.6285E-03     56.7544E-03
            2012            2571     41.9427E-03     44.1171E-03
            2021            2571     41.9427E-03     44.1171E-03
            2022            2571     41.9427E-03     44.1171E-03
            2013            2571     41.9427E-03     44.1171E-03
            2023            2572     34.6188E-03     37.1759E-03
            2014            2572     34.6188E-03     37.1759E-03
            2013            2572     34.6188E-03     37.1759E-03
            2022            2572     34.6188E-03     37.1759E-03
            2015            2573     37.3621E-03     39.7093E-03
            2024            2573     37.3621E-03     39.7093E-03
            2023            2573     37.3621E-03     39.7093E-03
            2014            2573     37.3621E-03     39.7093E-03
            2016            2574     48.8701E-03     50.6707E-03
            2015            2574     48.8701E-03     50.6707E-03
            2024            2574     48.8701E-03     50.6707E-03
            2025            2574     48.8701E-03     50.6707E-03
            2025            2575     64.5038E-03     65.3327E-03
            2017            2575     64.5038E-03     65.3327E-03
            2026            2575     64.5038E-03     65.3327E-03
            2016            2575     64.5038E-03     65.3327E-03
            2018            2576     81.7532E-03     81.2588E-03
            2026            2576     81.7532E-03     81.2588E-03
            2017            2576     81.7532E-03     81.2588E-03
            2027            2576     81.7532E-03     81.2588E-03
            2019            2577     77.2645E-03     77.7622E-03
            2028            2577     77.2645E-03     77.7622E-03
            2020            2577     77.2645E-03     77.7622E-03
            2029            2577     77.2645E-03     77.7622E-03
            2020            2578     57.8416E-03     59.4853E-03
            2030            2578     57.8416E-03     59.4853E-03
            2021            2578     57.8416E-03     59.4853E-03
            2029            2578     57.8416E-03     59.4853E-03
            2030            2579     40.8743E-03     43.2533E-03
            2031            2579     40.8743E-03     43.2533E-03
            2021            2579     40.8743E-03     43.2533E-03
            2022            2579     40.8743E-03     43.2533E-03
            2032            2580     32.3845E-03     35.2566E-03
            2022            2580     32.3845E-03     35.2566E-03
            2031            2580     32.3845E-03     35.2566E-03
            2023            2580     32.3845E-03     35.2566E-03
            2032            2581     35.2941E-03     37.8016E-03
            2023            2581     35.2941E-03     37.8016E-03
            2033            2581     35.2941E-03     37.8016E-03
            2024            2581     35.2941E-03     37.8016E-03
            2025            2582     47.9893E-03     49.7077E-03
            2024            2582     47.9893E-03     49.7077E-03
            2034            2582     47.9893E-03     49.7077E-03
            2033            2582     47.9893E-03     49.7077E-03
            2035            2583     66.8630E-03     68.1088E-03
            2025            2583     66.8630E-03     68.1088E-03
            2034            2583     66.8630E-03     68.1088E-03
            2026            2583     66.8630E-03     68.1088E-03
            2035            2584     87.0301E-03     87.3612E-03
            2027            2584     87.0301E-03     87.3612E-03
            2036            2584     87.0301E-03     87.3612E-03
            2026            2584     87.0301E-03     87.3612E-03
            2029            2585     81.4544E-03     79.5280E-03
            2037            2585     81.4544E-03     79.5280E-03
            2038            2585     81.4544E-03     79.5280E-03
            2028            2585     81.4544E-03     79.5280E-03
            2038            2586     56.2677E-03     55.6627E-03
            2030            2586     56.2677E-03     55.6627E-03
            2039            2586     56.2677E-03     55.6627E-03
            2029            2586     56.2677E-03     55.6627E-03
            2039            2587     37.3313E-03     37.9982E-03
            2031            2587     37.3313E-03     37.9982E-03
            2030            2587     37.3313E-03     37.9982E-03
            2040            2587     37.3313E-03     37.9982E-03
            2041            2588     27.6216E-03     29.4341E-03
            2040            2588     27.6216E-03     29.4341E-03
            2031            2588     27.6216E-03     29.4341E-03
            2032            2588     27.6216E-03     29.4341E-03
            2033            2589     30.7400E-03     31.9988E-03
            2032            2589     30.7400E-03     31.9988E-03
            2041            2589     30.7400E-03     31.9988E-03
            2042            2589     30.7400E-03     31.9988E-03
            2042            2590     44.7438E-03     44.2440E-03
            2033            2590     44.7438E-03     44.2440E-03
            2034            2590     44.7438E-03     44.2440E-03
            2043            2590     44.7438E-03     44.2440E-03
            2034            2591     65.4604E-03     63.7192E-03
            2035            2591     65.4604E-03     63.7192E-03
            2043            2591     65.4604E-03     63.7192E-03
            2044            2591     65.4604E-03     63.7192E-03
            2045            2592     91.7469E-03     88.7924E-03
            2036            2592     91.7469E-03     88.7924E-03
            2035            2592     91.7469E-03     88.7924E-03
            2044            2592     91.7469E-03     88.7924E-03
            2047            2593     74.7794E-03     66.9885E-03
            2037            2593     74.7794E-03     66.9885E-03
            2038            2593     74.7794E-03     66.9885E-03
            2046            2593     74.7794E-03     66.9885E-03
            2039            2594     54.7098E-03     49.2526E-03
            2038            2594     54.7098E-03     49.2526E-03
            2047            2594     54.7098E-03     49.2526E-03
            2048            2594     54.7098E-03     49.2526E-03
            2048            2595     40.1316E-03     37.4896E-03
            2049            2595     40.1316E-03     37.4896E-03
            2040            2595     40.1316E-03     37.4896E-03
            2039            2595     40.1316E-03     37.4896E-03
            2050            2596     32.3765E-03     31.5219E-03
            2040            2596     32.3765E-03     31.5219E-03
            2049            2596     32.3765E-03     31.5219E-03
            2041            2596     32.3765E-03     31.5219E-03
            2042            2597     35.1656E-03     34.0122E-03
            2041            2597     35.1656E-03     34.0122E-03
            2050            2597     35.1656E-03     34.0122E-03
            2051            2597     35.1656E-03     34.0122E-03
            2042            2598     47.1094E-03     43.9055E-03
            2051            2598     47.1094E-03     43.9055E-03
            2043            2598     47.1094E-03     43.9055E-03
            2052            2598     47.1094E-03     43.9055E-03
            2043            2599     63.6735E-03     57.8950E-03
            2044            2599     63.6735E-03     57.8950E-03
            2052            2599     63.6735E-03     57.8950E-03
            2053            2599     63.6735E-03     57.8950E-03
            2054            2600     85.5236E-03     77.6784E-03
            2053            2600     85.5236E-03     77.6784E-03
            2044            2600     85.5236E-03     77.6784E-03
            2045            2600     85.5236E-03     77.6784E-03
            2047            2601     70.1485E-03     65.8189E-03
            2055            2601     70.1485E-03     65.8189E-03
            2056            2601     70.1485E-03     65.8189E-03
            2046            2601     70.1485E-03     65.8189E-03
            2057            2602     56.7876E-03     51.8151E-03
            2056            2602     56.7876E-03     51.8151E-03
            2047            2602     56.7876E-03     51.8151E-03
            2048            2602     56.7876E-03     51.8151E-03
            2049            2603     44.6933E-03     40.4442E-03
            2058            2603     44.6933E-03     40.4442E-03
            2048            2603     44.6933E-03     40.4442E-03
            2057            2603     44.6933E-03     40.4442E-03
            2050            2604     38.5694E-03     35.1336E-03
            2059            2604     38.5694E-03     35.1336E-03
            2058            2604     38.5694E-03     35.1336E-03
            2049            2604     38.5694E-03     35.1336E-03
            2059            2605     41.3939E-03     38.2158E-03
            2060            2605     41.3939E-03     38.2158E-03
            2051            2605     41.3939E-03     38.2158E-03
            2050            2605     41.3939E-03     38.2158E-03
            2060            2606     51.9141E-03     48.3357E-03
            2051            2606     51.9141E-03     48.3357E-03
            2052            2606     51.9141E-03     48.3357E-03
            2061            2606     51.9141E-03     48.3357E-03
            2062            2607     66.5179E-03     62.5418E-03
            2052            2607     66.5179E-03     62.5418E-03
            2061            2607     66.5179E-03     62.5418E-03
            2053            2607     66.5179E-03     62.5418E-03
            2053            2608     81.9941E-03     78.4882E-03
            2054            2608     81.9941E-03     78.4882E-03
            2062            2608     81.9941E-03     78.4882E-03
            2063            2608     81.9941E-03     78.4882E-03
            2065            2609     75.6009E-03     77.2151E-03
            2055            2609     75.6009E-03     77.2151E-03
            2064            2609     75.6009E-03     77.2151E-03
            2056            2609     75.6009E-03     77.2151E-03
            2065            2610     59.1297E-03     58.9517E-03
            2066            2610     59.1297E-03     58.9517E-03
            2057            2610     59.1297E-03     58.9517E-03
            2056            2610     59.1297E-03     58.9517E-03
            2057            2611     44.5128E-03     41.6130E-03
            2066            2611     44.5128E-03     41.6130E-03
            2067            2611     44.5128E-03     41.6130E-03
            2058            2611     44.5128E-03     41.6130E-03
            2068            2612     36.5743E-03     32.4264E-03
            2067            2612     36.5743E-03     32.4264E-03
            2059            2612     36.5743E-03     32.4264E-03
            2058            2612     36.5743E-03     32.4264E-03
            2069            2613     40.1145E-03     36.4534E-03
            2068            2613     40.1145E-03     36.4534E-03
            2060            2613     40.1145E-03     36.4534E-03
            2059            2613     40.1145E-03     36.4534E-03
            2060            2614     53.2977E-03     51.3104E-03
            2070            2614     53.2977E-03     51.3104E-03
            2061            2614     53.2977E-03     51.3104E-03
            2069            2614     53.2977E-03     51.3104E-03
            2070            2615     70.6623E-03     70.9476E-03
            2061            2615     70.6623E-03     70.9476E-03
            2062            2615     70.6623E-03     70.9476E-03
            2071            2615     70.6623E-03     70.9476E-03
            2071            2616     88.6029E-03     89.8892E-03
            2072            2616     88.6029E-03     89.8892E-03
            2062            2616     88.6029E-03     89.8892E-03
            2063            2616     88.6029E-03     89.8892E-03
            2074            2617     80.1980E-03     80.9602E-03
            2073            2617     80.1980E-03     80.9602E-03
            2065            2617     80.1980E-03     80.9602E-03
            2064            2617     80.1980E-03     80.9602E-03
            2066            2618     61.1515E-03     62.3460E-03
            2074            2618     61.1515E-03     62.3460E-03
            2075            2618     61.1515E-03     62.3460E-03
            2065            2618     61.1515E-03     62.3460E-03
            2067            2619     45.2036E-03     44.0793E-03
            2066            2619     45.2036E-03     44.0793E-03
            2075            2619     45.2036E-03     44.0793E-03
            2076            2619     45.2036E-03     44.0793E-03
            2077            2620     36.5394E-03     33.2680E-03
            2076            2620     36.5394E-03     33.2680E-03
            2067            2620     36.5394E-03     33.2680E-03
            2068            2620     36.5394E-03     33.2680E-03
            2077            2621     40.5593E-03     37.6930E-03
            2069            2621     40.5593E-03     37.6930E-03
            2068            2621     40.5593E-03     37.6930E-03
            2078            2621     40.5593E-03     37.6930E-03
            2079            2622     55.1200E-03     54.4750E-03
            2078            2622     55.1200E-03     54.4750E-03
            2069            2622     55.1200E-03     54.4750E-03
            2070            2622     55.1200E-03     54.4750E-03
            2071            2623     73.6650E-03     74.6858E-03
            2079            2623     73.6650E-03     74.6858E-03
            2070            2623     73.6650E-03     74.6858E-03
            2080            2623     73.6650E-03     74.6858E-03
            2080            2624     93.4532E-03     93.8174E-03
            2072            2624     93.4532E-03     93.8174E-03
            2081            2624     93.4532E-03     93.8174E-03
            2071            2624     93.4532E-03     93.8174E-03
            2083            2625     84.6765E-03     84.6693E-03
            2082            2625     84.6765E-03     84.6693E-03
            2073            2625     84.6765E-03     84.6693E-03
            2074            2625     84.6765E-03     84.6693E-03
            2084            2626     63.5381E-03     64.2356E-03
            2075            2626     63.5381E-03     64.2356E-03
            2074            2626     63.5381E-03     64.2356E-03
            2083            2626     63.5381E-03     64.2356E-03
            2075            2627     46.1056E-03     45.9032E-03
            2076            2627     46.1056E-03     45.9032E-03
            2085            2627     46.1056E-03     45.9032E-03
            2084            2627     46.1056E-03     45.9032E-03
            2086            2628     37.1341E-03     35.3230E-03
            2076            2628     37.1341E-03     35.3230E-03
            2085            2628     37.1341E-03     35.3230E-03
            2077            2628     37.1341E-03     35.3230E-03
            2087            2629     41.5097E-03     39.8350E-03
            2086            2629     41.5097E-03     39.8350E-03
            2077            2629     41.5097E-03     39.8350E-03
            2078            2629     41.5097E-03     39.8350E-03
            2088            2630     56.6832E-03     56.4630E-03
            2087            2630     56.6832E-03     56.4630E-03
            2078            2630     56.6832E-03     56.4630E-03
            2079            2630     56.6832E-03     56.4630E-03
            2079            2631     76.4983E-03     76.8034E-03
            2088            2631     76.4983E-03     76.8034E-03
            2080            2631     76.4983E-03     76.8034E-03
            2089            2631     76.4983E-03     76.8034E-03
            2080            2632     98.2657E-03     97.7612E-03
            2081            2632     98.2657E-03     97.7612E-03
            2090            2632     98.2657E-03     97.7612E-03
            2089            2632     98.2657E-03     97.7612E-03
            2082            2633     88.9352E-03     88.4857E-03
            2092            2633     88.9352E-03     88.4857E-03
            2083            2633     88.9352E-03     88.4857E-03
            2091            2633     88.9352E-03     88.4857E-03
            2084            2634     66.2178E-03     66.6653E-03
            2092            2634     66.2178E-03     66.6653E-03
            2093            2634     66.2178E-03     66.6653E-03
            2083            2634     66.2178E-03     66.6653E-03
            2084            2635     47.4807E-03     47.7692E-03
            2093            2635     47.4807E-03     47.7692E-03
            2085            2635     47.4807E-03     47.7692E-03
            2094            2635     47.4807E-03     47.7692E-03
            2095            2636     37.7525E-03     37.3169E-03
            2086            2636     37.7525E-03     37.3169E-03
            2094            2636     37.7525E-03     37.3169E-03
            2085            2636     37.7525E-03     37.3169E-03
            2087            2637     42.3125E-03     41.7978E-03
            2095            2637     42.3125E-03     41.7978E-03
            2086            2637     42.3125E-03     41.7978E-03
            2096            2637     42.3125E-03     41.7978E-03
            2087            2638     58.4259E-03     58.4025E-03
            2096            2638     58.4259E-03     58.4025E-03
            2088            2638     58.4259E-03     58.4025E-03
            2097            2638     58.4259E-03     58.4025E-03
            2097            2639     79.4957E-03     79.4225E-03
            2088            2639     79.4957E-03     79.4225E-03
            2089            2639     79.4957E-03     79.4225E-03
            2098            2639     79.4957E-03     79.4225E-03
            2089            2640     102.729E-03     101.803E-03
            2090            2640     102.729E-03     101.803E-03
            2098            2640     102.729E-03     101.803E-03
            2099            2640     102.729E-03     101.803E-03
            2091            2641     93.1842E-03     92.5774E-03
            2092            2641     93.1842E-03     92.5774E-03
            2101            2641     93.1842E-03     92.5774E-03
            2100            2641     93.1842E-03     92.5774E-03
            2102            2642     69.1774E-03     69.6374E-03
            2092            2642     69.1774E-03     69.6374E-03
            2101            2642     69.1774E-03     69.6374E-03
            2093            2642     69.1774E-03     69.6374E-03
            2094            2643     48.9248E-03     49.8634E-03
            2102            2643     48.9248E-03     49.8634E-03
            2093            2643     48.9248E-03     49.8634E-03
            2103            2643     48.9248E-03     49.8634E-03
            2104            2644     38.3887E-03     39.2561E-03
            2094            2644     38.3887E-03     39.2561E-03
            2095            2644     38.3887E-03     39.2561E-03
            2103            2644     38.3887E-03     39.2561E-03
            2105            2645     43.1043E-03     43.7669E-03
            2096            2645     43.1043E-03     43.7669E-03
            2095            2645     43.1043E-03     43.7669E-03
            2104            2645     43.1043E-03     43.7669E-03
            2105            2646     60.1393E-03     60.5947E-03
            2097            2646     60.1393E-03     60.5947E-03
            2096            2646     60.1393E-03     60.5947E-03
            2106            2646     60.1393E-03     60.5947E-03
            2106            2647     82.6308E-03     82.5664E-03
            2107            2647     82.6308E-03     82.5664E-03
            2097            2647     82.6308E-03     82.5664E-03
            2098            2647     82.6308E-03     82.5664E-03
            2108            2648     107.150E-03     106.063E-03
            2098            2648     107.150E-03     106.063E-03
            2099            2648     107.150E-03     106.063E-03
            2107            2648     107.150E-03     106.063E-03
            2100            2649     97.4946E-03     96.9386E-03
            2110            2649     97.4946E-03     96.9386E-03
            2101            2649     97.4946E-03     96.9386E-03
            2109            2649     97.4946E-03     96.9386E-03
            2111            2650     72.0202E-03     72.8268E-03
            2101            2650     72.0202E-03     72.8268E-03
            2102            2650     72.0202E-03     72.8268E-03
            2110            2650     72.0202E-03     72.8268E-03
            2103            2651     50.4292E-03     52.2940E-03
            2112            2651     50.4292E-03     52.2940E-03
            2102            2651     50.4292E-03     52.2940E-03
            2111            2651     50.4292E-03     52.2940E-03
            2113            2652     38.8295E-03     41.2239E-03
            2112            2652     38.8295E-03     41.2239E-03
            2103            2652     38.8295E-03     41.2239E-03
            2104            2652     38.8295E-03     41.2239E-03
            2113            2653     43.6768E-03     45.8166E-03
            2104            2653     43.6768E-03     45.8166E-03
            2114            2653     43.6768E-03     45.8166E-03
            2105            2653     43.6768E-03     45.8166E-03
            2105            2654     61.8356E-03     63.1807E-03
            2115            2654     61.8356E-03     63.1807E-03
            2106            2654     61.8356E-03     63.1807E-03
            2114            2654     61.8356E-03     63.1807E-03
            2107            2655     85.6079E-03     85.8942E-03
            2116            2655     85.6079E-03     85.8942E-03
            2115            2655     85.6079E-03     85.8942E-03
            2106            2655     85.6079E-03     85.8942E-03
            2107            2656     111.589E-03     110.579E-03
            2116            2656     111.589E-03     110.579E-03
            2117            2656     111.589E-03     110.579E-03
            2108            2656     111.589E-03     110.579E-03
            2118            2657     101.521E-03     101.408E-03
            2110            2657     101.521E-03     101.408E-03
            2119            2657     101.521E-03     101.408E-03
            2109            2657     101.521E-03     101.408E-03
            2119            2658     75.0472E-03     76.8010E-03
            2111            2658     75.0472E-03     76.8010E-03
            2110            2658     75.0472E-03     76.8010E-03
            2120            2658     75.0472E-03     76.8010E-03
            2120            2659     51.6331E-03     54.8090E-03
            2111            2659     51.6331E-03     54.8090E-03
            2121            2659     51.6331E-03     54.8090E-03
            2112            2659     51.6331E-03     54.8090E-03
            2121            2660     38.1366E-03     41.8950E-03
            2113            2660     38.1366E-03     41.8950E-03
            2112            2660     38.1366E-03     41.8950E-03
            2122            2660     38.1366E-03     41.8950E-03
            2114            2661     43.0209E-03     46.3920E-03
            2122            2661     43.0209E-03     46.3920E-03
            2123            2661     43.0209E-03     46.3920E-03
            2113            2661     43.0209E-03     46.3920E-03
            2115            2662     63.1540E-03     65.7053E-03
            2124            2662     63.1540E-03     65.7053E-03
            2114            2662     63.1540E-03     65.7053E-03
            2123            2662     63.1540E-03     65.7053E-03
            2115            2663     88.7513E-03     90.0889E-03
            2124            2663     88.7513E-03     90.0889E-03
            2125            2663     88.7513E-03     90.0889E-03
            2116            2663     88.7513E-03     90.0889E-03
            2125            2664     115.733E-03     115.177E-03
            2116            2664     115.733E-03     115.177E-03
            2117            2664     115.733E-03     115.177E-03
            2126            2664     115.733E-03     115.177E-03
            2127            2665     106.935E-03     107.823E-03
            2119            2665     106.935E-03     107.823E-03
            2128            2665     106.935E-03     107.823E-03
            2118            2665     106.935E-03     107.823E-03
            2119            2666     77.3438E-03     79.6477E-03
            2128            2666     77.3438E-03     79.6477E-03
            2120            2666     77.3438E-03     79.6477E-03
            2129            2666     77.3438E-03     79.6477E-03
            2120            2667     50.2740E-03     53.4882E-03
            2130            2667     50.2740E-03     53.4882E-03
            2121            2667     50.2740E-03     53.4882E-03
            2129            2667     50.2740E-03     53.4882E-03
            2131            2668     35.4474E-03     39.5824E-03
            2130            2668     35.4474E-03     39.5824E-03
            2121            2668     35.4474E-03     39.5824E-03
            2122            2668     35.4474E-03     39.5824E-03
            2123            2669     40.5208E-03     44.0487E-03
            2132            2669     40.5208E-03     44.0487E-03
            2122            2669     40.5208E-03     44.0487E-03
            2131            2669     40.5208E-03     44.0487E-03
            2123            2670     61.9280E-03     64.1216E-03
            2124            2670     61.9280E-03     64.1216E-03
            2132            2670     61.9280E-03     64.1216E-03
            2133            2670     61.9280E-03     64.1216E-03
            2124            2671     91.1209E-03     92.8626E-03
            2125            2671     91.1209E-03     92.8626E-03
            2133            2671     91.1209E-03     92.8626E-03
            2134            2671     91.1209E-03     92.8626E-03
            2126            2672     121.370E-03     121.998E-03
            2125            2672     121.370E-03     121.998E-03
            2135            2672     121.370E-03     121.998E-03
            2134            2672     121.370E-03     121.998E-03
            2136            2673     111.032E-03     107.859E-03
            2128            2673     111.032E-03     107.859E-03
            2127            2673     111.032E-03     107.859E-03
            2137            2673     111.032E-03     107.859E-03
            2128            2674     74.9884E-03     73.3999E-03
            2137            2674     74.9884E-03     73.3999E-03
            2129            2674     74.9884E-03     73.3999E-03
            2138            2674     74.9884E-03     73.3999E-03
            2129            2675     45.9347E-03     46.2631E-03
            2139            2675     45.9347E-03     46.2631E-03
            2130            2675     45.9347E-03     46.2631E-03
            2138            2675     45.9347E-03     46.2631E-03
            2131            2676     29.3945E-03     31.8037E-03
            2140            2676     29.3945E-03     31.8037E-03
            2139            2676     29.3945E-03     31.8037E-03
            2130            2676     29.3945E-03     31.8037E-03
            2131            2677     34.7346E-03     36.3231E-03
            2141            2677     34.7346E-03     36.3231E-03
            2140            2677     34.7346E-03     36.3231E-03
            2132            2677     34.7346E-03     36.3231E-03
            2132            2678     57.8213E-03     56.5969E-03
            2133            2678     57.8213E-03     56.5969E-03
            2142            2678     57.8213E-03     56.5969E-03
            2141            2678     57.8213E-03     56.5969E-03
            2142            2679     88.7174E-03     85.7954E-03
            2133            2679     88.7174E-03     85.7954E-03
            2143            2679     88.7174E-03     85.7954E-03
            2134            2679     88.7174E-03     85.7954E-03
            2144            2680     125.983E-03     121.632E-03
            2143            2680     125.983E-03     121.632E-03
            2135            2680     125.983E-03     121.632E-03
            2134            2680     125.983E-03     121.632E-03
            2146            2681     103.490E-03     92.4954E-03
            2137            2681     103.490E-03     92.4954E-03
            2145            2681     103.490E-03     92.4954E-03
            2136            2681     103.490E-03     92.4954E-03
            2146            2682     72.8395E-03     64.8278E-03
            2138            2682     72.8395E-03     64.8278E-03
            2137            2682     72.8395E-03     64.8278E-03
            2147            2682     72.8395E-03     64.8278E-03
            2138            2683     49.4760E-03     45.3783E-03
            2139            2683     49.4760E-03     45.3783E-03
            2148            2683     49.4760E-03     45.3783E-03
            2147            2683     49.4760E-03     45.3783E-03
            2148            2684     35.8909E-03     34.5794E-03
            2140            2684     35.8909E-03     34.5794E-03
            2149            2684     35.8909E-03     34.5794E-03
            2139            2684     35.8909E-03     34.5794E-03
            2149            2685     40.5539E-03     38.7932E-03
            2150            2685     40.5539E-03     38.7932E-03
            2141            2685     40.5539E-03     38.7932E-03
            2140            2685     40.5539E-03     38.7932E-03
            2151            2686     60.4488E-03     55.5973E-03
            2142            2686     60.4488E-03     55.5973E-03
            2141            2686     60.4488E-03     55.5973E-03
            2150            2686     60.4488E-03     55.5973E-03
            2143            2687     86.0901E-03     77.6546E-03
            2151            2687     86.0901E-03     77.6546E-03
            2152            2687     86.0901E-03     77.6546E-03
            2142            2687     86.0901E-03     77.6546E-03
            2153            2688     118.833E-03     107.638E-03
            2143            2688     118.833E-03     107.638E-03
            2152            2688     118.833E-03     107.638E-03
            2144            2688     118.833E-03     107.638E-03
            2155            2689     99.0814E-03     93.4745E-03
            2146            2689     99.0814E-03     93.4745E-03
            2154            2689     99.0814E-03     93.4745E-03
            2145            2689     99.0814E-03     93.4745E-03
            2147            2690     75.6962E-03     69.4186E-03
            2156            2690     75.6962E-03     69.4186E-03
            2155            2690     75.6962E-03     69.4186E-03
            2146            2690     75.6962E-03     69.4186E-03
            2156            2691     54.9756E-03     49.4933E-03
            2157            2691     54.9756E-03     49.4933E-03
            2148            2691     54.9756E-03     49.4933E-03
            2147            2691     54.9756E-03     49.4933E-03
            2158            2692     43.9385E-03     39.4461E-03
            2157            2692     43.9385E-03     39.4461E-03
            2149            2692     43.9385E-03     39.4461E-03
            2148            2692     43.9385E-03     39.4461E-03
            2149            2693     48.5303E-03     44.3670E-03
            2150            2693     48.5303E-03     44.3670E-03
            2159            2693     48.5303E-03     44.3670E-03
            2158            2693     48.5303E-03     44.3670E-03
            2151            2694     66.1057E-03     61.3760E-03
            2159            2694     66.1057E-03     61.3760E-03
            2160            2694     66.1057E-03     61.3760E-03
            2150            2694     66.1057E-03     61.3760E-03
            2152            2695     89.8572E-03     84.5524E-03
            2151            2695     89.8572E-03     84.5524E-03
            2160            2695     89.8572E-03     84.5524E-03
            2161            2695     89.8572E-03     84.5524E-03
            2162            2696     115.593E-03     110.695E-03
            2161            2696     115.593E-03     110.695E-03
            2152            2696     115.593E-03     110.695E-03
            2153            2696     115.593E-03     110.695E-03
            2164            2697     105.463E-03     107.620E-03
            2155            2697     105.463E-03     107.620E-03
            2154            2697     105.463E-03     107.620E-03
            2163            2697     105.463E-03     107.620E-03
            2156            2698     78.9824E-03     79.3331E-03
            2165            2698     78.9824E-03     79.3331E-03
            2155            2698     78.9824E-03     79.3331E-03
            2164            2698     78.9824E-03     79.3331E-03
            2157            2699     54.7349E-03     51.5966E-03
            2156            2699     54.7349E-03     51.5966E-03
            2166            2699     54.7349E-03     51.5966E-03
            2165            2699     54.7349E-03     51.5966E-03
            2157            2700     40.7659E-03     35.6053E-03
            2158            2700     40.7659E-03     35.6053E-03
            2167            2700     40.7659E-03     35.6053E-03
            2166            2700     40.7659E-03     35.6053E-03
            2159            2701     46.3798E-03     41.8778E-03
            2167            2701     46.3798E-03     41.8778E-03
            2158            2701     46.3798E-03     41.8778E-03
            2168            2701     46.3798E-03     41.8778E-03
            2168            2702     67.9676E-03     65.9023E-03
            2160            2702     67.9676E-03     65.9023E-03
            2159            2702     67.9676E-03     65.9023E-03
            2169            2702     67.9676E-03     65.9023E-03
            2161            2703     95.2667E-03     96.0180E-03
            2160            2703     95.2667E-03     96.0180E-03
            2170            2703     95.2667E-03     96.0180E-03
            2169            2703     95.2667E-03     96.0180E-03
            2171            2704     123.097E-03     124.822E-03
            2170            2704     123.097E-03     124.822E-03
            2161            2704     123.097E-03     124.822E-03
            2162            2704     123.097E-03     124.822E-03
            2163            2705     110.528E-03     111.497E-03
            2172            2705     110.528E-03     111.497E-03
            2164            2705     110.528E-03     111.497E-03
            2173            2705     110.528E-03     111.497E-03
            2165            2706     81.4608E-03     83.4499E-03
            2173            2706     81.4608E-03     83.4499E-03
            2164            2706     81.4608E-03     83.4499E-03
            2174            2706     81.4608E-03     83.4499E-03
            2166            2707     55.4839E-03     54.7565E-03
            2165            2707     55.4839E-03     54.7565E-03
            2174            2707     55.4839E-03     54.7565E-03
            2175            2707     55.4839E-03     54.7565E-03
            2175            2708     40.4675E-03     36.6942E-03
            2167            2708     40.4675E-03     36.6942E-03
            2176            2708     40.4675E-03     36.6942E-03
            2166            2708     40.4675E-03     36.6942E-03
            2177            2709     46.7808E-03     43.5453E-03
            2167            2709     46.7808E-03     43.5453E-03
            2176            2709     46.7808E-03     43.5453E-03
            2168            2709     46.7808E-03     43.5453E-03
            2168            2710     70.1523E-03     70.0001E-03
            2177            2710     70.1523E-03     70.0001E-03
            2178            2710     70.1523E-03     70.0001E-03
            2169            2710     70.1523E-03     70.0001E-03
            2179            2711     98.7738E-03     100.502E-03
            2178            2711     98.7738E-03     100.502E-03
            2169            2711     98.7738E-03     100.502E-03
            2170            2711     98.7738E-03     100.502E-03
            2170            2712     128.336E-03     128.800E-03
            2171            2712     128.336E-03     128.800E-03
            2179            2712     128.336E-03     128.800E-03
            2180            2712     128.336E-03     128.800E-03
            2181            2713     115.416E-03     115.525E-03
            2172            2713     115.416E-03     115.525E-03
            2173            2713     115.416E-03     115.525E-03
            2182            2713     115.416E-03     115.525E-03
            2173            2714     84.1101E-03     85.4193E-03
            2183            2714     84.1101E-03     85.4193E-03
            2182            2714     84.1101E-03     85.4193E-03
            2174            2714     84.1101E-03     85.4193E-03
            2175            2715     56.6752E-03     57.1478E-03
            2184            2715     56.6752E-03     57.1478E-03
            2183            2715     56.6752E-03     57.1478E-03
            2174            2715     56.6752E-03     57.1478E-03
            2185            2716     41.0345E-03     39.3353E-03
            2184            2716     41.0345E-03     39.3353E-03
            2176            2716     41.0345E-03     39.3353E-03
            2175            2716     41.0345E-03     39.3353E-03
            2186            2717     47.7477E-03     46.2237E-03
            2176            2717     47.7477E-03     46.2237E-03
            2177            2717     47.7477E-03     46.2237E-03
            2185            2717     47.7477E-03     46.2237E-03
            2187            2718     72.0594E-03     72.5097E-03
            2186            2718     72.0594E-03     72.5097E-03
            2177            2718     72.0594E-03     72.5097E-03
            2178            2718     72.0594E-03     72.5097E-03
            2179            2719     101.871E-03     102.685E-03
            2187            2719     101.871E-03     102.685E-03
            2178            2719     101.871E-03     102.685E-03
            2188            2719     101.871E-03     102.685E-03
            2188            2720     133.536E-03     133.034E-03
            2189            2720     133.536E-03     133.034E-03
            2180            2720     133.536E-03     133.034E-03
            2179            2720     133.536E-03     133.034E-03
            2190            2721     120.159E-03     119.792E-03
            2181            2721     120.159E-03     119.792E-03
            2182            2721     120.159E-03     119.792E-03
            2191            2721     120.159E-03     119.792E-03
            2182            2722     87.2013E-03     88.3815E-03
            2192            2722     87.2013E-03     88.3815E-03
            2183            2722     87.2013E-03     88.3815E-03
            2191            2722     87.2013E-03     88.3815E-03
            2183            2723     58.1235E-03     59.3768E-03
            2193            2723     58.1235E-03     59.3768E-03
            2192            2723     58.1235E-03     59.3768E-03
            2184            2723     58.1235E-03     59.3768E-03
            2193            2724     41.8447E-03     42.2994E-03
            2194            2724     41.8447E-03     42.2994E-03
            2184            2724     41.8447E-03     42.2994E-03
            2185            2724     41.8447E-03     42.2994E-03
            2186            2725     48.7622E-03     49.0850E-03
            2195            2725     48.7622E-03     49.0850E-03
            2185            2725     48.7622E-03     49.0850E-03
            2194            2725     48.7622E-03     49.0850E-03
            2196            2726     73.8866E-03     74.7182E-03
            2186            2726     73.8866E-03     74.7182E-03
            2187            2726     73.8866E-03     74.7182E-03
            2195            2726     73.8866E-03     74.7182E-03
            2188            2727     105.257E-03     105.820E-03
            2197            2727     105.257E-03     105.820E-03
            2196            2727     105.257E-03     105.820E-03
            2187            2727     105.257E-03     105.820E-03
            2188            2728     138.470E-03     137.506E-03
            2189            2728     138.470E-03     137.506E-03
            2198            2728     138.470E-03     137.506E-03
            2197            2728     138.470E-03     137.506E-03
            2191            2729     124.730E-03     124.339E-03
            2199            2729     124.730E-03     124.339E-03
            2190            2729     124.730E-03     124.339E-03
            2200            2729     124.730E-03     124.339E-03
            2201            2730     90.2532E-03     91.6705E-03
            2200            2730     90.2532E-03     91.6705E-03
            2191            2730     90.2532E-03     91.6705E-03
            2192            2730     90.2532E-03     91.6705E-03
            2202            2731     59.7638E-03     62.2820E-03
            2192            2731     59.7638E-03     62.2820E-03
            2193            2731     59.7638E-03     62.2820E-03
            2201            2731     59.7638E-03     62.2820E-03
            2194            2732     42.4482E-03     45.2179E-03
            2202            2732     42.4482E-03     45.2179E-03
            2203            2732     42.4482E-03     45.2179E-03
            2193            2732     42.4482E-03     45.2179E-03
            2195            2733     49.5310E-03     51.9937E-03
            2204            2733     49.5310E-03     51.9937E-03
            2203            2733     49.5310E-03     51.9937E-03
            2194            2733     49.5310E-03     51.9937E-03
            2205            2734     75.7620E-03     77.6466E-03
            2196            2734     75.7620E-03     77.6466E-03
            2195            2734     75.7620E-03     77.6466E-03
            2204            2734     75.7620E-03     77.6466E-03
            2205            2735     108.436E-03     109.211E-03
            2206            2735     108.436E-03     109.211E-03
            2196            2735     108.436E-03     109.211E-03
            2197            2735     108.436E-03     109.211E-03
            2198            2736     143.172E-03     142.195E-03
            2207            2736     143.172E-03     142.195E-03
            2197            2736     143.172E-03     142.195E-03
            2206            2736     143.172E-03     142.195E-03
            2208            2737     129.006E-03     129.077E-03
            2209            2737     129.006E-03     129.077E-03
            2200            2737     129.006E-03     129.077E-03
            2199            2737     129.006E-03     129.077E-03
            2210            2738     93.5178E-03     96.0829E-03
            2200            2738     93.5178E-03     96.0829E-03
            2209            2738     93.5178E-03     96.0829E-03
            2201            2738     93.5178E-03     96.0829E-03
            2210            2739     61.1505E-03     65.3030E-03
            2211            2739     61.1505E-03     65.3030E-03
            2202            2739     61.1505E-03     65.3030E-03
            2201            2739     61.1505E-03     65.3030E-03
            2211            2740     41.6818E-03     46.3928E-03
            2212            2740     41.6818E-03     46.3928E-03
            2203            2740     41.6818E-03     46.3928E-03
            2202            2740     41.6818E-03     46.3928E-03
            2212            2741     48.7608E-03     52.9163E-03
            2203            2741     48.7608E-03     52.9163E-03
            2213            2741     48.7608E-03     52.9163E-03
            2204            2741     48.7608E-03     52.9163E-03
            2214            2742     77.2041E-03     80.4846E-03
            2205            2742     77.2041E-03     80.4846E-03
            2204            2742     77.2041E-03     80.4846E-03
            2213            2742     77.2041E-03     80.4846E-03
            2205            2743     111.797E-03     113.797E-03
            2206            2743     111.797E-03     113.797E-03
            2214            2743     111.797E-03     113.797E-03
            2215            2743     111.797E-03     113.797E-03
            2215            2744     147.554E-03     147.061E-03
            2207            2744     147.554E-03     147.061E-03
            2206            2744     147.554E-03     147.061E-03
            2216            2744     147.554E-03     147.061E-03
            2218            2745     134.741E-03     136.094E-03
            2209            2745     134.741E-03     136.094E-03
            2217            2745     134.741E-03     136.094E-03
            2208            2745     134.741E-03     136.094E-03
            2209            2746     95.9146E-03     98.9150E-03
            2218            2746     95.9146E-03     98.9150E-03
            2219            2746     95.9146E-03     98.9150E-03
            2210            2746     95.9146E-03     98.9150E-03
            2219            2747     59.5208E-03     63.4919E-03
            2210            2747     59.5208E-03     63.4919E-03
            2211            2747     59.5208E-03     63.4919E-03
            2220            2747     59.5208E-03     63.4919E-03
            2211            2748     38.5941E-03     43.8196E-03
            2220            2748     38.5941E-03     43.8196E-03
            2221            2748     38.5941E-03     43.8196E-03
            2212            2748     38.5941E-03     43.8196E-03
            2221            2749     45.8646E-03     50.2455E-03
            2222            2749     45.8646E-03     50.2455E-03
            2213            2749     45.8646E-03     50.2455E-03
            2212            2749     45.8646E-03     50.2455E-03
            2223            2750     75.6332E-03     78.2311E-03
            2222            2750     75.6332E-03     78.2311E-03
            2213            2750     75.6332E-03     78.2311E-03
            2214            2750     75.6332E-03     78.2311E-03
            2224            2751     114.196E-03     116.457E-03
            2215            2751     114.196E-03     116.457E-03
            2214            2751     114.196E-03     116.457E-03
            2223            2751     114.196E-03     116.457E-03
            2216            2752     153.547E-03     154.524E-03
            2224            2752     153.547E-03     154.524E-03
            2225            2752     153.547E-03     154.524E-03
            2215            2752     153.547E-03     154.524E-03
            2218            2753     138.794E-03     134.440E-03
            2226            2753     138.794E-03     134.440E-03
            2227            2753     138.794E-03     134.440E-03
            2217            2753     138.794E-03     134.440E-03
            2219            2754     92.8762E-03     90.3263E-03
            2218            2754     92.8762E-03     90.3263E-03
            2228            2754     92.8762E-03     90.3263E-03
            2227            2754     92.8762E-03     90.3263E-03
            2228            2755     54.5775E-03     54.4784E-03
            2220            2755     54.5775E-03     54.4784E-03
            2229            2755     54.5775E-03     54.4784E-03
            2219            2755     54.5775E-03     54.4784E-03
            2221            2756     31.4880E-03     34.3374E-03
            2230            2756     31.4880E-03     34.3374E-03
            2229            2756     31.4880E-03     34.3374E-03
            2220            2756     31.4880E-03     34.3374E-03
            2230            2757     39.0360E-03     40.8306E-03
            2222            2757     39.0360E-03     40.8306E-03
            2221            2757     39.0360E-03     40.8306E-03
            2231            2757     39.0360E-03     40.8306E-03
            2231            2758     70.7957E-03     68.7983E-03
            2232            2758     70.7957E-03     68.7983E-03
            2222            2758     70.7957E-03     68.7983E-03
            2223            2758     70.7957E-03     68.7983E-03
            2223            2759     110.876E-03     106.808E-03
            2232            2759     110.876E-03     106.808E-03
            2224            2759     110.876E-03     106.808E-03
            2233            2759     110.876E-03     106.808E-03
            2224            2760     158.113E-03     152.436E-03
            2225            2760     158.113E-03     152.436E-03
            2234            2760     158.113E-03     152.436E-03
            2233            2760     158.113E-03     152.436E-03
            2245            2761     680.642E-06     681.526E-06
            2244            2761     680.642E-06     681.526E-06
            2236            2761     680.642E-06     681.526E-06
            2235            2761     680.642E-06     681.526E-06
            2237            2762     731.923E-06     738.000E-06
            2245            2762     731.923E-06     738.000E-06
            2236            2762     731.923E-06     738.000E-06
            2246            2762     731.923E-06     738.000E-06
            2238            2763     733.758E-06     738.233E-06
            2246            2763     733.758E-06     738.233E-06
            2247            2763     733.758E-06     738.233E-06
            2237            2763     733.758E-06     738.233E-06
            2248            2764     730.520E-06     734.557E-06
            2238            2764     730.520E-06     734.557E-06
            2239            2764     730.520E-06     734.557E-06
            2247            2764     730.520E-06     734.557E-06
            2249            2765     730.520E-06     734.557E-06
            2248            2765     730.520E-06     734.557E-06
            2239            2765     730.520E-06     734.557E-06
            2240            2765     730.520E-06     734.557E-06
            2249            2766     733.758E-06     738.233E-06
            2241            2766     733.758E-06     738.233E-06
            2240            2766     733.758E-06     738.233E-06
            2250            2766     733.758E-06     738.233E-06
            2242            2767     731.923E-06     738.000E-06
            2250            2767     731.923E-06     738.000E-06
            2251            2767     731.923E-06     738.000E-06
            2241            2767     731.923E-06     738.000E-06
            2243            2768     680.642E-06     681.526E-06
            2242            2768     680.642E-06     681.526E-06
            2252            2768     680.642E-06     681.526E-06
            2251            2768     680.642E-06     681.526E-06
            2254            2769     627.627E-06     631.767E-06
            2253            2769     627.627E-06     631.767E-06
            2245            2769     627.627E-06     631.767E-06
            2244            2769     627.627E-06     631.767E-06
            2246            2770     750.269E-06     755.515E-06
            2254            2770     750.269E-06     755.515E-06
            2245            2770     750.269E-06     755.515E-06
            2255            2770     750.269E-06     755.515E-06
            2255            2771     750.177E-06     756.965E-06
            2247            2771     750.177E-06     756.965E-06
            2256            2771     750.177E-06     756.965E-06
            2246            2771     750.177E-06     756.965E-06
            2247            2772     741.374E-06     746.949E-06
            2248            2772     741.374E-06     746.949E-06
            2257            2772     741.374E-06     746.949E-06
            2256            2772     741.374E-06     746.949E-06
            2257            2773     741.374E-06     746.949E-06
            2258            2773     741.374E-06     746.949E-06
            2249            2773     741.374E-06     746.949E-06
            2248            2773     741.374E-06     746.949E-06
            2258            2774     750.177E-06     756.965E-06
            2259            2774     750.177E-06     756.965E-06
            2250            2774     750.177E-06     756.965E-06
            2249            2774     750.177E-06     756.965E-06
            2251            2775     750.269E-06     755.515E-06
            2260            2775     750.269E-06     755.515E-06
            2259            2775     750.269E-06     755.515E-06
            2250            2775     750.269E-06     755.515E-06
            2251            2776     627.627E-06     631.767E-06
            2252            2776     627.627E-06     631.767E-06
            2260            2776     627.627E-06     631.767E-06
            2261            2776     627.627E-06     631.767E-06
            2254            2777     610.215E-06     612.452E-06
            2253            2777     610.215E-06     612.452E-06
            2263            2777     610.215E-06     612.452E-06
            2262            2777     610.215E-06     612.452E-06
            2264            2778     727.152E-06     729.291E-06
            2263            2778     727.152E-06     729.291E-06
            2254            2778     727.152E-06     729.291E-06
            2255            2778     727.152E-06     729.291E-06
            2256            2779     748.166E-06     752.021E-06
            2255            2779     748.166E-06     752.021E-06
            2265            2779     748.166E-06     752.021E-06
            2264            2779     748.166E-06     752.021E-06
            2265            2780     749.820E-06     754.184E-06
            2266            2780     749.820E-06     754.184E-06
            2256            2780     749.820E-06     754.184E-06
            2257            2780     749.820E-06     754.184E-06
            2267            2781     749.820E-06     754.184E-06
            2258            2781     749.820E-06     754.184E-06
            2257            2781     749.820E-06     754.184E-06
            2266            2781     749.820E-06     754.184E-06
            2267            2782     748.166E-06     752.021E-06
            2259            2782     748.166E-06     752.021E-06
            2268            2782     748.166E-06     752.021E-06
            2258            2782     748.166E-06     752.021E-06
            2268            2783     727.152E-06     729.291E-06
            2269            2783     727.152E-06     729.291E-06
            2260            2783     727.152E-06     729.291E-06
            2259            2783     727.152E-06     729.291E-06
            2261            2784     610.215E-06     612.452E-06
            2269            2784     610.215E-06     612.452E-06
            2260            2784     610.215E-06     612.452E-06
            2270            2784     610.215E-06     612.452E-06
            3851            4163     170.834E-03     165.350E-03
            3860            4163     170.834E-03     165.350E-03
            3852            4163     170.834E-03     165.350E-03
            3861            4163     170.834E-03     165.350E-03
            3852            4164     119.036E-03     115.678E-03
            3853            4164     119.036E-03     115.678E-03
            3862            4164     119.036E-03     115.678E-03
            3861            4164     119.036E-03     115.678E-03
            3862            4165     76.1200E-03     74.2204E-03
            3853            4165     76.1200E-03     74.2204E-03
            3854            4165     76.1200E-03     74.2204E-03
            3863            4165     76.1200E-03     74.2204E-03
            3854            4166     43.2763E-03     43.8909E-03
            3855            4166     43.2763E-03     43.8909E-03
            3864            4166     43.2763E-03     43.8909E-03
            3863            4166     43.2763E-03     43.8909E-03
            3864            4167     37.1080E-03     39.2335E-03
            3855            4167     37.1080E-03     39.2335E-03
            3856            4167     37.1080E-03     39.2335E-03
            3865            4167     37.1080E-03     39.2335E-03
            3856            4168     62.8163E-03     64.0578E-03
            3866            4168     62.8163E-03     64.0578E-03
            3857            4168     62.8163E-03     64.0578E-03
            3865            4168     62.8163E-03     64.0578E-03
            3867            4169     104.382E-03     104.107E-03
            3857            4169     104.382E-03     104.107E-03
            3866            4169     104.382E-03     104.107E-03
            3858            4169     104.382E-03     104.107E-03
            3858            4170     155.600E-03     152.672E-03
            3868            4170     155.600E-03     152.672E-03
            3867            4170     155.600E-03     152.672E-03
            3859            4170     155.600E-03     152.672E-03
            3860            4171     164.961E-03     168.201E-03
            3870            4171     164.961E-03     168.201E-03
            3869            4171     164.961E-03     168.201E-03
            3861            4171     164.961E-03     168.201E-03
            3871            4172     122.939E-03     127.635E-03
            3861            4172     122.939E-03     127.635E-03
            3870            4172     122.939E-03     127.635E-03
            3862            4172     122.939E-03     127.635E-03
            3871            4173     81.9077E-03     85.0979E-03
            3863            4173     81.9077E-03     85.0979E-03
            3862            4173     81.9077E-03     85.0979E-03
            3872            4173     81.9077E-03     85.0979E-03
            3872            4174     50.9459E-03     53.2240E-03
            3863            4174     50.9459E-03     53.2240E-03
            3873            4174     50.9459E-03     53.2240E-03
            3864            4174     50.9459E-03     53.2240E-03
            3873            4175     45.3347E-03     48.3778E-03
            3864            4175     45.3347E-03     48.3778E-03
            3865            4175     45.3347E-03     48.3778E-03
            3874            4175     45.3347E-03     48.3778E-03
            3865            4176     69.4446E-03     74.2009E-03
            3866            4176     69.4446E-03     74.2009E-03
            3875            4176     69.4446E-03     74.2009E-03
            3874            4176     69.4446E-03     74.2009E-03
            3866            4177     108.904E-03     114.778E-03
            3876            4177     108.904E-03     114.778E-03
            3867            4177     108.904E-03     114.778E-03
            3875            4177     108.904E-03     114.778E-03
            3868            4178     150.863E-03     154.651E-03
            3867            4178     150.863E-03     154.651E-03
            3876            4178     150.863E-03     154.651E-03
            3877            4178     150.863E-03     154.651E-03
            3870            4179     157.153E-03     160.244E-03
            3879            4179     157.153E-03     160.244E-03
            3869            4179     157.153E-03     160.244E-03
            3878            4179     157.153E-03     160.244E-03
            3879            4180     120.897E-03     126.848E-03
            3870            4180     120.897E-03     126.848E-03
            3871            4180     120.897E-03     126.848E-03
            3880            4180     120.897E-03     126.848E-03
            3880            4181     84.2195E-03     88.3610E-03
            3871            4181     84.2195E-03     88.3610E-03
            3872            4181     84.2195E-03     88.3610E-03
            3881            4181     84.2195E-03     88.3610E-03
            3882            4182     54.3809E-03     55.7140E-03
            3872            4182     54.3809E-03     55.7140E-03
            3881            4182     54.3809E-03     55.7140E-03
            3873            4182     54.3809E-03     55.7140E-03
            3883            4183     49.4161E-03     50.7133E-03
            3882            4183     49.4161E-03     50.7133E-03
            3873            4183     49.4161E-03     50.7133E-03
            3874            4183     49.4161E-03     50.7133E-03
            3875            4184     72.7380E-03     76.8782E-03
            3883            4184     72.7380E-03     76.8782E-03
            3874            4184     72.7380E-03     76.8782E-03
            3884            4184     72.7380E-03     76.8782E-03
            3875            4185     107.441E-03     113.672E-03
            3876            4185     107.441E-03     113.672E-03
            3884            4185     107.441E-03     113.672E-03
            3885            4185     107.441E-03     113.672E-03
            3877            4186     143.475E-03     147.063E-03
            3876            4186     143.475E-03     147.063E-03
            3885            4186     143.475E-03     147.063E-03
            3886            4186     143.475E-03     147.063E-03
            3888            4187     151.102E-03     154.571E-03
            3878            4187     151.102E-03     154.571E-03
            3887            4187     151.102E-03     154.571E-03
            3879            4187     151.102E-03     154.571E-03
            3888            4188     116.447E-03     120.007E-03
            3880            4188     116.447E-03     120.007E-03
            3879            4188     116.447E-03     120.007E-03
            3889            4188     116.447E-03     120.007E-03
            3890            4189     82.5131E-03     83.7414E-03
            3880            4189     82.5131E-03     83.7414E-03
            3881            4189     82.5131E-03     83.7414E-03
            3889            4189     82.5131E-03     83.7414E-03
            3890            4190     56.6106E-03     56.0104E-03
            3881            4190     56.6106E-03     56.0104E-03
            3891            4190     56.6106E-03     56.0104E-03
            3882            4190     56.6106E-03     56.0104E-03
            3891            4191     52.2875E-03     51.0879E-03
            3892            4191     52.2875E-03     51.0879E-03
            3883            4191     52.2875E-03     51.0879E-03
            3882            4191     52.2875E-03     51.0879E-03
            3892            4192     72.4712E-03     72.4332E-03
            3893            4192     72.4712E-03     72.4332E-03
            3883            4192     72.4712E-03     72.4332E-03
            3884            4192     72.4712E-03     72.4332E-03
            3893            4193     104.152E-03     106.873E-03
            3885            4193     104.152E-03     106.873E-03
            3884            4193     104.152E-03     106.873E-03
            3894            4193     104.152E-03     106.873E-03
            3895            4194     137.676E-03     141.371E-03
            3885            4194     137.676E-03     141.371E-03
            3886            4194     137.676E-03     141.371E-03
            3894            4194     137.676E-03     141.371E-03
            3888            4195     140.615E-03     137.572E-03
            3887            4195     140.615E-03     137.572E-03
            3896            4195     140.615E-03     137.572E-03
            3897            4195     140.615E-03     137.572E-03
            3897            4196     109.187E-03     106.435E-03
            3889            4196     109.187E-03     106.435E-03
            3898            4196     109.187E-03     106.435E-03
            3888            4196     109.187E-03     106.435E-03
            3889            4197     80.6451E-03     78.5518E-03
            3899            4197     80.6451E-03     78.5518E-03
            3890            4197     80.6451E-03     78.5518E-03
            3898            4197     80.6451E-03     78.5518E-03
            3900            4198     60.5588E-03     58.9418E-03
            3899            4198     60.5588E-03     58.9418E-03
            3891            4198     60.5588E-03     58.9418E-03
            3890            4198     60.5588E-03     58.9418E-03
            3891            4199     57.2141E-03     54.8375E-03
            3892            4199     57.2141E-03     54.8375E-03
            3901            4199     57.2141E-03     54.8375E-03
            3900            4199     57.2141E-03     54.8375E-03
            3893            4200     72.5947E-03     68.6224E-03
            3892            4200     72.5947E-03     68.6224E-03
            3901            4200     72.5947E-03     68.6224E-03
            3902            4200     72.5947E-03     68.6224E-03
            3902            4201     99.0782E-03     93.8815E-03
            3894            4201     99.0782E-03     93.8815E-03
            3893            4201     99.0782E-03     93.8815E-03
            3903            4201     99.0782E-03     93.8815E-03
            3895            4202     128.728E-03     123.673E-03
            3894            4202     128.728E-03     123.673E-03
            3904            4202     128.728E-03     123.673E-03
            3903            4202     128.728E-03     123.673E-03
            3905            4203     119.896E-03     132.155E-03
            3906            4203     119.896E-03     132.155E-03
            3915            4203     119.896E-03     132.155E-03
            3914            4203     119.896E-03     132.155E-03
            3915            4204     87.7857E-03     96.7249E-03
            3916            4204     87.7857E-03     96.7249E-03
            3907            4204     87.7857E-03     96.7249E-03
            3906            4204     87.7857E-03     96.7249E-03
            3907            4205     57.7691E-03     64.9387E-03
            3917            4205     57.7691E-03     64.9387E-03
            3916            4205     57.7691E-03     64.9387E-03
            3908            4205     57.7691E-03     64.9387E-03
            3909            4206     37.6939E-03     41.2104E-03
            3917            4206     37.6939E-03     41.2104E-03
            3918            4206     37.6939E-03     41.2104E-03
            3908            4206     37.6939E-03     41.2104E-03
            3918            4207     43.9434E-03     41.9279E-03
            3910            4207     43.9434E-03     41.9279E-03
            3919            4207     43.9434E-03     41.9279E-03
            3909            4207     43.9434E-03     41.9279E-03
            3919            4208     71.0978E-03     65.5484E-03
            3910            4208     71.0978E-03     65.5484E-03
            3920            4208     71.0978E-03     65.5484E-03
            3911            4208     71.0978E-03     65.5484E-03
            3921            4209     103.031E-03     95.4134E-03
            3911            4209     103.031E-03     95.4134E-03
            3920            4209     103.031E-03     95.4134E-03
            3912            4209     103.031E-03     95.4134E-03
            3913            4210     137.105E-03     128.515E-03
            3921            4210     137.105E-03     128.515E-03
            3912            4210     137.105E-03     128.515E-03
            3922            4210     137.105E-03     128.515E-03
            3915            4211     132.515E-03     146.642E-03
            3923            4211     132.515E-03     146.642E-03
            3924            4211     132.515E-03     146.642E-03
            3914            4211     132.515E-03     146.642E-03
            3916            4212     97.4706E-03     113.232E-03
            3925            4212     97.4706E-03     113.232E-03
            3915            4212     97.4706E-03     113.232E-03
            3924            4212     97.4706E-03     113.232E-03
            3916            4213     68.3065E-03     81.6415E-03
            3917            4213     68.3065E-03     81.6415E-03
            3925            4213     68.3065E-03     81.6415E-03
            3926            4213     68.3065E-03     81.6415E-03
            3926            4214     50.8429E-03     58.3072E-03
            3918            4214     50.8429E-03     58.3072E-03
            3917            4214     50.8429E-03     58.3072E-03
            3927            4214     50.8429E-03     58.3072E-03
            3919            4215     54.8937E-03     53.7927E-03
            3928            4215     54.8937E-03     53.7927E-03
            3918            4215     54.8937E-03     53.7927E-03
            3927            4215     54.8937E-03     53.7927E-03
            3929            4216     77.7571E-03     71.0896E-03
            3920            4216     77.7571E-03     71.0896E-03
            3928            4216     77.7571E-03     71.0896E-03
            3919            4216     77.7571E-03     71.0896E-03
            3930            4217     108.618E-03     100.756E-03
            3920            4217     108.618E-03     100.756E-03
            3929            4217     108.618E-03     100.756E-03
            3921            4217     108.618E-03     100.756E-03
            3930            4218     142.022E-03     135.300E-03
            3931            4218     142.022E-03     135.300E-03
            3922            4218     142.022E-03     135.300E-03
            3921            4218     142.022E-03     135.300E-03
            3923            4219     150.220E-03     153.905E-03
            3933            4219     150.220E-03     153.905E-03
            3924            4219     150.220E-03     153.905E-03
            3932            4219     150.220E-03     153.905E-03
            3925            4220     109.968E-03     121.040E-03
            3934            4220     109.968E-03     121.040E-03
            3933            4220     109.968E-03     121.040E-03
            3924            4220     109.968E-03     121.040E-03
            3926            4221     72.1512E-03     82.0648E-03
            3934            4221     72.1512E-03     82.0648E-03
            3935            4221     72.1512E-03     82.0648E-03
            3925            4221     72.1512E-03     82.0648E-03
            3926            4222     45.1583E-03     51.6835E-03
            3935            4222     45.1583E-03     51.6835E-03
            3936            4222     45.1583E-03     51.6835E-03
            3927            4222     45.1583E-03     51.6835E-03
            3927            4223     46.4531E-03     49.8922E-03
            3936            4223     46.4531E-03     49.8922E-03
            3937            4223     46.4531E-03     49.8922E-03
            3928            4223     46.4531E-03     49.8922E-03
            3929            4224     75.4696E-03     77.6112E-03
            3937            4224     75.4696E-03     77.6112E-03
            3928            4224     75.4696E-03     77.6112E-03
            3938            4224     75.4696E-03     77.6112E-03
            3938            4225     112.746E-03     116.932E-03
            3930            4225     112.746E-03     116.932E-03
            3929            4225     112.746E-03     116.932E-03
            3939            4225     112.746E-03     116.932E-03
            3931            4226     148.984E-03     153.660E-03
            3930            4226     148.984E-03     153.660E-03
            3939            4226     148.984E-03     153.660E-03
            3940            4226     148.984E-03     153.660E-03
            3932            4227     156.218E-03     161.398E-03
            3941            4227     156.218E-03     161.398E-03
            3933            4227     156.218E-03     161.398E-03
            3942            4227     156.218E-03     161.398E-03
            3933            4228     117.268E-03     119.727E-03
            3943            4228     117.268E-03     119.727E-03
            3942            4228     117.268E-03     119.727E-03
            3934            4228     117.268E-03     119.727E-03
            3935            4229     75.1872E-03     75.9792E-03
            3934            4229     75.1872E-03     75.9792E-03
            3943            4229     75.1872E-03     75.9792E-03
            3944            4229     75.1872E-03     75.9792E-03
            3945            4230     42.4109E-03     45.8017E-03
            3944            4230     42.4109E-03     45.8017E-03
            3935            4230     42.4109E-03     45.8017E-03
            3936            4230     42.4109E-03     45.8017E-03
            3946            4231     40.2915E-03     47.1967E-03
            3945            4231     40.2915E-03     47.1967E-03
            3936            4231     40.2915E-03     47.1967E-03
            3937            4231     40.2915E-03     47.1967E-03
            3947            4232     70.5453E-03     79.0365E-03
            3938            4232     70.5453E-03     79.0365E-03
            3937            4232     70.5453E-03     79.0365E-03
            3946            4232     70.5453E-03     79.0365E-03
            3938            4233     112.677E-03     122.519E-03
            3948            4233     112.677E-03     122.519E-03
            3947            4233     112.677E-03     122.519E-03
            3939            4233     112.677E-03     122.519E-03
            3939            4234     154.603E-03     161.334E-03
            3948            4234     154.603E-03     161.334E-03
            3940            4234     154.603E-03     161.334E-03
            3949            4234     154.603E-03     161.334E-03
            3950            4235     167.884E-03     151.300E-03
            3951            4235     167.884E-03     151.300E-03
            3941            4235     167.884E-03     151.300E-03
            3942            4235     167.884E-03     151.300E-03
            3951            4236     118.416E-03     102.323E-03
            3952            4236     118.416E-03     102.323E-03
            3942            4236     118.416E-03     102.323E-03
            3943            4236     118.416E-03     102.323E-03
            3944            4237     74.7319E-03     61.2571E-03
            3952            4237     74.7319E-03     61.2571E-03
            3943            4237     74.7319E-03     61.2571E-03
            3953            4237     74.7319E-03     61.2571E-03
            3954            4238     37.9266E-03     34.6008E-03
            3944            4238     37.9266E-03     34.6008E-03
            3953            4238     37.9266E-03     34.6008E-03
            3945            4238     37.9266E-03     34.6008E-03
            3945            4239     31.8294E-03     39.5627E-03
            3954            4239     31.8294E-03     39.5627E-03
            3955            4239     31.8294E-03     39.5627E-03
            3946            4239     31.8294E-03     39.5627E-03
            3946            4240     61.8742E-03     71.9900E-03
            3956            4240     61.8742E-03     71.9900E-03
            3955            4240     61.8742E-03     71.9900E-03
            3947            4240     61.8742E-03     71.9900E-03
            3957            4241     105.638E-03     112.758E-03
            3948            4241     105.638E-03     112.758E-03
            3947            4241     105.638E-03     112.758E-03
            3956            4241     105.638E-03     112.758E-03
            3949            4242     157.376E-03     159.364E-03
            3948            4242     157.376E-03     159.364E-03
            3958            4242     157.376E-03     159.364E-03
            3957            4242     157.376E-03     159.364E-03
            5325            5425     778.707E-06     774.817E-06
            5334            5425     778.707E-06     774.817E-06
            5326            5425     778.707E-06     774.817E-06
            5335            5425     778.707E-06     774.817E-06
            5326            5426     752.189E-06     759.781E-06
            5336            5426     752.189E-06     759.781E-06
            5327            5426     752.189E-06     759.781E-06
            5335            5426     752.189E-06     759.781E-06
            5328            5427     743.212E-06     751.038E-06
            5337            5427     743.212E-06     751.038E-06
            5336            5427     743.212E-06     751.038E-06
            5327            5427     743.212E-06     751.038E-06
            5337            5428     748.326E-06     755.870E-06
            5338            5428     748.326E-06     755.870E-06
            5328            5428     748.326E-06     755.870E-06
            5329            5428     748.326E-06     755.870E-06
            5339            5429     748.326E-06     755.870E-06
            5338            5429     748.326E-06     755.870E-06
            5329            5429     748.326E-06     755.870E-06
            5330            5429     748.326E-06     755.870E-06
            5331            5430     743.212E-06     751.038E-06
            5339            5430     743.212E-06     751.038E-06
            5340            5430     743.212E-06     751.038E-06
            5330            5430     743.212E-06     751.038E-06
            5340            5431     752.189E-06     759.781E-06
            5331            5431     752.189E-06     759.781E-06
            5341            5431     752.189E-06     759.781E-06
            5332            5431     752.189E-06     759.781E-06
            5333            5432     778.707E-06     774.817E-06
            5342            5432     778.707E-06     774.817E-06
            5332            5432     778.707E-06     774.817E-06
            5341            5432     778.707E-06     774.817E-06
            5334            5433     671.191E-06     675.670E-06
            5335            5433     671.191E-06     675.670E-06
            5343            5433     671.191E-06     675.670E-06
            5344            5433     671.191E-06     675.670E-06
            5335            5434     754.741E-06     764.167E-06
            5336            5434     754.741E-06     764.167E-06
            5345            5434     754.741E-06     764.167E-06
            5344            5434     754.741E-06     764.167E-06
            5345            5435     781.889E-06     792.900E-06
            5346            5435     781.889E-06     792.900E-06
            5337            5435     781.889E-06     792.900E-06
            5336            5435     781.889E-06     792.900E-06
            5338            5436     790.430E-06     800.151E-06
            5337            5436     790.430E-06     800.151E-06
            5346            5436     790.430E-06     800.151E-06
            5347            5436     790.430E-06     800.151E-06
            5339            5437     790.430E-06     800.151E-06
            5338            5437     790.430E-06     800.151E-06
            5347            5437     790.430E-06     800.151E-06
            5348            5437     790.430E-06     800.151E-06
            5349            5438     781.889E-06     792.900E-06
            5340            5438     781.889E-06     792.900E-06
            5339            5438     781.889E-06     792.900E-06
            5348            5438     781.889E-06     792.900E-06
            5341            5439     754.741E-06     764.167E-06
            5349            5439     754.741E-06     764.167E-06
            5340            5439     754.741E-06     764.167E-06
            5350            5439     754.741E-06     764.167E-06
            5351            5440     671.191E-06     675.670E-06
            5341            5440     671.191E-06     675.670E-06
            5342            5440     671.191E-06     675.670E-06
            5350            5440     671.191E-06     675.670E-06
            5352            5441     591.078E-06     595.511E-06
            5353            5441     591.078E-06     595.511E-06
            5343            5441     591.078E-06     595.511E-06
            5344            5441     591.078E-06     595.511E-06
            5353            5442     730.739E-06     734.629E-06
            5345            5442     730.739E-06     734.629E-06
            5354            5442     730.739E-06     734.629E-06
            5344            5442     730.739E-06     734.629E-06
            5355            5443     796.331E-06     802.108E-06
            5346            5443     796.331E-06     802.108E-06
            5354            5443     796.331E-06     802.108E-06
            5345            5443     796.331E-06     802.108E-06
            5356            5444     808.876E-06     815.317E-06
            5347            5444     808.876E-06     815.317E-06
            5346            5444     808.876E-06     815.317E-06
            5355            5444     808.876E-06     815.317E-06
            5347            5445     808.876E-06     815.317E-06
            5356            5445     808.876E-06     815.317E-06
            5348            5445     808.876E-06     815.317E-06
            5357            5445     808.876E-06     815.317E-06
            5348            5446     796.331E-06     802.108E-06
            5349            5446     796.331E-06     802.108E-06
            5357            5446     796.331E-06     802.108E-06
            5358            5446     796.331E-06     802.108E-06
            5358            5447     730.739E-06     734.629E-06
            5350            5447     730.739E-06     734.629E-06
            5349            5447     730.739E-06     734.629E-06
            5359            5447     730.739E-06     734.629E-06
            5351            5448     591.078E-06     595.511E-06
            5359            5448     591.078E-06     595.511E-06
            5350            5448     591.078E-06     595.511E-06
            5360            5448     591.078E-06     595.511E-06
            5352            5449     569.989E-06     576.958E-06
            5361            5449     569.989E-06     576.958E-06
            5353            5449     569.989E-06     576.958E-06
            5362            5449     569.989E-06     576.958E-06
            5353            5450     723.645E-06     724.825E-06
            5363            5450     723.645E-06     724.825E-06
            5362            5450     723.645E-06     724.825E-06
            5354            5450     723.645E-06     724.825E-06
            5355            5451     781.931E-06     782.187E-06
            5363            5451     781.931E-06     782.187E-06
            5364            5451     781.931E-06     782.187E-06
            5354            5451     781.931E-06     782.187E-06
            5365            5452     799.296E-06     800.562E-06
            5355            5452     799.296E-06     800.562E-06
            5356            5452     799.296E-06     800.562E-06
            5364            5452     799.296E-06     800.562E-06
            5365            5453     799.296E-06     800.562E-06
            5366            5453     799.296E-06     800.562E-06
            5357            5453     799.296E-06     800.562E-06
            5356            5453     799.296E-06     800.562E-06
            5358            5454     781.931E-06     782.187E-06
            5366            5454     781.931E-06     782.187E-06
            5357            5454     781.931E-06     782.187E-06
            5367            5454     781.931E-06     782.187E-06
            5368            5455     723.645E-06     724.825E-06
            5359            5455     723.645E-06     724.825E-06
            5358            5455     723.645E-06     724.825E-06
            5367            5455     723.645E-06     724.825E-06
            5368            5456     569.989E-06     576.958E-06
            5360            5456     569.989E-06     576.958E-06
            5359            5456     569.989E-06     576.958E-06
            5369            5456     569.989E-06     576.958E-06
            5361            5457     587.845E-06     592.823E-06
            5370            5457     587.845E-06     592.823E-06
            5362            5457     587.845E-06     592.823E-06
            5371            5457     587.845E-06     592.823E-06
            5362            5458     708.650E-06     708.319E-06
            5372            5458     708.650E-06     708.319E-06
            5363            5458     708.650E-06     708.319E-06
            5371            5458     708.650E-06     708.319E-06
            5373            5459     754.655E-06     753.199E-06
            5363            5459     754.655E-06     753.199E-06
            5372            5459     754.655E-06     753.199E-06
            5364            5459     754.655E-06     753.199E-06
            5373            5460     777.094E-06     775.800E-06
            5365            5460     777.094E-06     775.800E-06
            5364            5460     777.094E-06     775.800E-06
            5374            5460     777.094E-06     775.800E-06
            5366            5461     777.094E-06     775.800E-06
            5375            5461     777.094E-06     775.800E-06
            5374            5461     777.094E-06     775.800E-06
            5365            5461     777.094E-06     775.800E-06
            5367            5462     754.655E-06     753.199E-06
            5375            5462     754.655E-06     753.199E-06
            5366            5462     754.655E-06     753.199E-06
            5376            5462     754.655E-06     753.199E-06
            5377            5463     708.650E-06     708.319E-06
            5368            5463     708.650E-06     708.319E-06
            5376            5463     708.650E-06     708.319E-06
            5367            5463     708.650E-06     708.319E-06
            5378            5464     587.845E-06     592.823E-06
            5377            5464     587.845E-06     592.823E-06
            5369            5464     587.845E-06     592.823E-06
            5368            5464     587.845E-06     592.823E-06
            5388            5465     140.444E-03     134.374E-03
            5389            5465     140.444E-03     134.374E-03
            5379            5465     140.444E-03     134.374E-03
            5380            5465     140.444E-03     134.374E-03
            5389            5466     98.1956E-03     94.0012E-03
            5380            5466     98.1956E-03     94.0012E-03
            5390            5466     98.1956E-03     94.0012E-03
            5381            5466     98.1956E-03     94.0012E-03
            5381            5467     63.1004E-03     60.9992E-03
            5390            5467     63.1004E-03     60.9992E-03
            5382            5467     63.1004E-03     60.9992E-03
            5391            5467     63.1004E-03     60.9992E-03
            5392            5468     34.7160E-03     34.7374E-03
            5383            5468     34.7160E-03     34.7374E-03
            5382            5468     34.7160E-03     34.7374E-03
            5391            5468     34.7160E-03     34.7374E-03
            5383            5469     30.5942E-03     31.0137E-03
            5392            5469     30.5942E-03     31.0137E-03
            5393            5469     30.5942E-03     31.0137E-03
            5384            5469     30.5942E-03     31.0137E-03
            5385            5470     54.1857E-03     52.8646E-03
            5393            5470     54.1857E-03     52.8646E-03
            5394            5470     54.1857E-03     52.8646E-03
            5384            5470     54.1857E-03     52.8646E-03
            5386            5471     88.3930E-03     85.0080E-03
            5394            5471     88.3930E-03     85.0080E-03
            5385            5471     88.3930E-03     85.0080E-03
            5395            5471     88.3930E-03     85.0080E-03
            5395            5472     129.959E-03     124.875E-03
            5396            5472     129.959E-03     124.875E-03
            5386            5472     129.959E-03     124.875E-03
            5387            5472     129.959E-03     124.875E-03
            5397            5473     149.397E-03     144.319E-03
            5398            5473     149.397E-03     144.319E-03
            5388            5473     149.397E-03     144.319E-03
            5389            5473     149.397E-03     144.319E-03
            5399            5474     104.319E-03     101.050E-03
            5390            5474     104.319E-03     101.050E-03
            5398            5474     104.319E-03     101.050E-03
            5389            5474     104.319E-03     101.050E-03
            5391            5475     67.3359E-03     66.2251E-03
            5390            5475     67.3359E-03     66.2251E-03
            5400            5475     67.3359E-03     66.2251E-03
            5399            5475     67.3359E-03     66.2251E-03
            5400            5476     40.9343E-03     43.1596E-03
            5391            5476     40.9343E-03     43.1596E-03
            5392            5476     40.9343E-03     43.1596E-03
            5401            5476     40.9343E-03     43.1596E-03
            5401            5477     37.2322E-03     40.0455E-03
            5402            5477     37.2322E-03     40.0455E-03
            5393            5477     37.2322E-03     40.0455E-03
            5392            5477     37.2322E-03     40.0455E-03
            5393            5478     59.0762E-03     59.0878E-03
            5403            5478     59.0762E-03     59.0878E-03
            5394            5478     59.0762E-03     59.0878E-03
            5402            5478     59.0762E-03     59.0878E-03
            5394            5479     94.7520E-03     92.4598E-03
            5404            5479     94.7520E-03     92.4598E-03
            5395            5479     94.7520E-03     92.4598E-03
            5403            5479     94.7520E-03     92.4598E-03
            5396            5480     138.962E-03     134.748E-03
            5404            5480     138.962E-03     134.748E-03
            5395            5480     138.962E-03     134.748E-03
            5405            5480     138.962E-03     134.748E-03
            5406            5481     143.853E-03     144.661E-03
            5407            5481     143.853E-03     144.661E-03
            5398            5481     143.853E-03     144.661E-03
            5397            5481     143.853E-03     144.661E-03
            5398            5482     107.262E-03     109.501E-03
            5399            5482     107.262E-03     109.501E-03
            5407            5482     107.262E-03     109.501E-03
            5408            5482     107.262E-03     109.501E-03
            5408            5483     72.3843E-03     75.3067E-03
            5399            5483     72.3843E-03     75.3067E-03
            5409            5483     72.3843E-03     75.3067E-03
            5400            5483     72.3843E-03     75.3067E-03
            5401            5484     48.1000E-03     52.6153E-03
            5409            5484     48.1000E-03     52.6153E-03
            5410            5484     48.1000E-03     52.6153E-03
            5400            5484     48.1000E-03     52.6153E-03
            5410            5485     44.5853E-03     49.5357E-03
            5411            5485     44.5853E-03     49.5357E-03
            5402            5485     44.5853E-03     49.5357E-03
            5401            5485     44.5853E-03     49.5357E-03
            5402            5486     64.2980E-03     67.9584E-03
            5412            5486     64.2980E-03     67.9584E-03
            5411            5486     64.2980E-03     67.9584E-03
            5403            5486     64.2980E-03     67.9584E-03
            5403            5487     97.6792E-03     100.331E-03
            5404            5487     97.6792E-03     100.331E-03
            5413            5487     97.6792E-03     100.331E-03
            5412            5487     97.6792E-03     100.331E-03
            5414            5488     133.798E-03     134.793E-03
            5405            5488     133.798E-03     134.793E-03
            5404            5488     133.798E-03     134.793E-03
            5413            5488     133.798E-03     134.793E-03
            5406            5489     136.982E-03     136.476E-03
            5407            5489     136.982E-03     136.476E-03
            5415            5489     136.982E-03     136.476E-03
            5416            5489     136.982E-03     136.476E-03
            5408            5490     104.455E-03     106.261E-03
            5417            5490     104.455E-03     106.261E-03
            5416            5490     104.455E-03     106.261E-03
            5407            5490     104.455E-03     106.261E-03
            5408            5491     74.0120E-03     77.3508E-03
            5417            5491     74.0120E-03     77.3508E-03
            5409            5491     74.0120E-03     77.3508E-03
            5418            5491     74.0120E-03     77.3508E-03
            5409            5492     51.2799E-03     55.5870E-03
            5410            5492     51.2799E-03     55.5870E-03
            5418            5492     51.2799E-03     55.5870E-03
            5419            5492     51.2799E-03     55.5870E-03
            5419            5493     47.9030E-03     52.4878E-03
            5420            5493     47.9030E-03     52.4878E-03
            5410            5493     47.9030E-03     52.4878E-03
            5411            5493     47.9030E-03     52.4878E-03
            5412            5494     66.0271E-03     69.8152E-03
            5421            5494     66.0271E-03     69.8152E-03
            5411            5494     66.0271E-03     69.8152E-03
            5420            5494     66.0271E-03     69.8152E-03
            5412            5495     94.9277E-03     97.0316E-03
            5422            5495     94.9277E-03     97.0316E-03
            5421            5495     94.9277E-03     97.0316E-03
            5413            5495     94.9277E-03     97.0316E-03
            5422            5496     127.087E-03     126.895E-03
            5413            5496     127.087E-03     126.895E-03
            5423            5496     127.087E-03     126.895E-03
            5414            5496     127.087E-03     126.895E-03
            5415            5497     131.914E-03     130.860E-03
            5416            5497     131.914E-03     130.860E-03
            5425            5497     131.914E-03     130.860E-03
            5424            5497     131.914E-03     130.860E-03
            5417            5498     100.661E-03     101.246E-03
            5425            5498     100.661E-03     101.246E-03
            5416            5498     100.661E-03     101.246E-03
            5426            5498     100.661E-03     101.246E-03
            5426            5499     72.5155E-03     74.4023E-03
            5417            5499     72.5155E-03     74.4023E-03
            5418            5499     72.5155E-03     74.4023E-03
            5427            5499     72.5155E-03     74.4023E-03
            5419            5500     52.1939E-03     54.9886E-03
            5427            5500     52.1939E-03     54.9886E-03
            5418            5500     52.1939E-03     54.9886E-03
            5428            5500     52.1939E-03     54.9886E-03
            5429            5501     48.8450E-03     51.8191E-03
            5428            5501     48.8450E-03     51.8191E-03
            5419            5501     48.8450E-03     51.8191E-03
            5420            5501     48.8450E-03     51.8191E-03
            5420            5502     64.6140E-03     66.8676E-03
            5429            5502     64.6140E-03     66.8676E-03
            5430            5502     64.6140E-03     66.8676E-03
            5421            5502     64.6140E-03     66.8676E-03
            5421            5503     91.2185E-03     92.1711E-03
            5422            5503     91.2185E-03     92.1711E-03
            5431            5503     91.2185E-03     92.1711E-03
            5430            5503     91.2185E-03     92.1711E-03
            5432            5504     122.106E-03     121.374E-03
            5431            5504     122.106E-03     121.374E-03
            5422            5504     122.106E-03     121.374E-03
            5423            5504     122.106E-03     121.374E-03
            5434            5505     126.518E-03     125.389E-03
            5433            5505     126.518E-03     125.389E-03
            5425            5505     126.518E-03     125.389E-03
            5424            5505     126.518E-03     125.389E-03
            5425            5506     97.0694E-03     97.2336E-03
            5434            5506     97.0694E-03     97.2336E-03
            5435            5506     97.0694E-03     97.2336E-03
            5426            5506     97.0694E-03     97.2336E-03
            5435            5507     70.5187E-03     71.2993E-03
            5436            5507     70.5187E-03     71.2993E-03
            5426            5507     70.5187E-03     71.2993E-03
            5427            5507     70.5187E-03     71.2993E-03
            5436            5508     51.5868E-03     52.5328E-03
            5428            5508     51.5868E-03     52.5328E-03
            5427            5508     51.5868E-03     52.5328E-03
            5437            5508     51.5868E-03     52.5328E-03
            5438            5509     48.3307E-03     49.4171E-03
            5437            5509     48.3307E-03     49.4171E-03
            5428            5509     48.3307E-03     49.4171E-03
            5429            5509     48.3307E-03     49.4171E-03
            5438            5510     62.7555E-03     63.8712E-03
            5430            5510     62.7555E-03     63.8712E-03
            5429            5510     62.7555E-03     63.8712E-03
            5439            5510     62.7555E-03     63.8712E-03
            5440            5511     87.7264E-03     88.2587E-03
            5431            5511     87.7264E-03     88.2587E-03
            5430            5511     87.7264E-03     88.2587E-03
            5439            5511     87.7264E-03     88.2587E-03
            5440            5512     116.804E-03     116.015E-03
            5431            5512     116.804E-03     116.015E-03
            5432            5512     116.804E-03     116.015E-03
            5441            5512     116.804E-03     116.015E-03
            5443            5513     121.140E-03     120.222E-03
            5434            5513     121.140E-03     120.222E-03
            5433            5513     121.140E-03     120.222E-03
            5442            5513     121.140E-03     120.222E-03
            5444            5514     93.2925E-03     93.4480E-03
            5434            5514     93.2925E-03     93.4480E-03
            5435            5514     93.2925E-03     93.4480E-03
            5443            5514     93.2925E-03     93.4480E-03
            5435            5515     68.5175E-03     68.6468E-03
            5436            5515     68.5175E-03     68.6468E-03
            5444            5515     68.5175E-03     68.6468E-03
            5445            5515     68.5175E-03     68.6468E-03
            5436            5516     50.6651E-03     50.0755E-03
            5446            5516     50.6651E-03     50.0755E-03
            5445            5516     50.6651E-03     50.0755E-03
            5437            5516     50.6651E-03     50.0755E-03
            5438            5517     47.5222E-03     46.9811E-03
            5447            5517     47.5222E-03     46.9811E-03
            5437            5517     47.5222E-03     46.9811E-03
            5446            5517     47.5222E-03     46.9811E-03
            5439            5518     60.9515E-03     61.2889E-03
            5447            5518     60.9515E-03     61.2889E-03
            5448            5518     60.9515E-03     61.2889E-03
            5438            5518     60.9515E-03     61.2889E-03
            5440            5519     84.0790E-03     84.5965E-03
            5448            5519     84.0790E-03     84.5965E-03
            5439            5519     84.0790E-03     84.5965E-03
            5449            5519     84.0790E-03     84.5965E-03
            5440            5520     111.550E-03     110.968E-03
            5449            5520     111.550E-03     110.968E-03
            5441            5520     111.550E-03     110.968E-03
            5450            5520     111.550E-03     110.968E-03
            5443            5521     115.715E-03     115.325E-03
            5451            5521     115.715E-03     115.325E-03
            5452            5521     115.715E-03     115.325E-03
            5442            5521     115.715E-03     115.325E-03
            5443            5522     89.7210E-03     90.2932E-03
            5444            5522     89.7210E-03     90.2932E-03
            5453            5522     89.7210E-03     90.2932E-03
            5452            5522     89.7210E-03     90.2932E-03
            5444            5523     66.4924E-03     66.2628E-03
            5454            5523     66.4924E-03     66.2628E-03
            5453            5523     66.4924E-03     66.2628E-03
            5445            5523     66.4924E-03     66.2628E-03
            5454            5524     49.7411E-03     47.6202E-03
            5446            5524     49.7411E-03     47.6202E-03
            5445            5524     49.7411E-03     47.6202E-03
            5455            5524     49.7411E-03     47.6202E-03
            5455            5525     46.7319E-03     44.5057E-03
            5456            5525     46.7319E-03     44.5057E-03
            5447            5525     46.7319E-03     44.5057E-03
            5446            5525     46.7319E-03     44.5057E-03
            5447            5526     59.1940E-03     58.9599E-03
            5456            5526     59.1940E-03     58.9599E-03
            5457            5526     59.1940E-03     58.9599E-03
            5448            5526     59.1940E-03     58.9599E-03
            5449            5527     80.7393E-03     81.5775E-03
            5457            5527     80.7393E-03     81.5775E-03
            5458            5527     80.7393E-03     81.5775E-03
            5448            5527     80.7393E-03     81.5775E-03
            5458            5528     106.272E-03     106.230E-03
            5449            5528     106.272E-03     106.230E-03
            5450            5528     106.272E-03     106.230E-03
            5459            5528     106.272E-03     106.230E-03
            5460            5529     109.908E-03     110.545E-03
            5452            5529     109.908E-03     110.545E-03
            5461            5529     109.908E-03     110.545E-03
            5451            5529     109.908E-03     110.545E-03
            5461            5530     86.3790E-03     87.7041E-03
            5453            5530     86.3790E-03     87.7041E-03
            5462            5530     86.3790E-03     87.7041E-03
            5452            5530     86.3790E-03     87.7041E-03
            5462            5531     64.7561E-03     63.8074E-03
            5453            5531     64.7561E-03     63.8074E-03
            5463            5531     64.7561E-03     63.8074E-03
            5454            5531     64.7561E-03     63.8074E-03
            5463            5532     48.6968E-03     45.0243E-03
            5464            5532     48.6968E-03     45.0243E-03
            5455            5532     48.6968E-03     45.0243E-03
            5454            5532     48.6968E-03     45.0243E-03
            5456            5533     45.9413E-03     41.9773E-03
            5455            5533     45.9413E-03     41.9773E-03
            5464            5533     45.9413E-03     41.9773E-03
            5465            5533     45.9413E-03     41.9773E-03
            5466            5534     57.9344E-03     56.6283E-03
            5457            5534     57.9344E-03     56.6283E-03
            5456            5534     57.9344E-03     56.6283E-03
            5465            5534     57.9344E-03     56.6283E-03
            5466            5535     77.7218E-03     79.1520E-03
            5458            5535     77.7218E-03     79.1520E-03
            5457            5535     77.7218E-03     79.1520E-03
            5467            5535     77.7218E-03     79.1520E-03
            5459            5536     100.701E-03     101.614E-03
            5467            5536     100.701E-03     101.614E-03
            5468            5536     100.701E-03     101.614E-03
            5458            5536     100.701E-03     101.614E-03
            5460            5537     104.007E-03     105.657E-03
            5469            5537     104.007E-03     105.657E-03
            5470            5537     104.007E-03     105.657E-03
            5461            5537     104.007E-03     105.657E-03
            5470            5538     82.9523E-03     83.1025E-03
            5462            5538     82.9523E-03     83.1025E-03
            5471            5538     82.9523E-03     83.1025E-03
            5461            5538     82.9523E-03     83.1025E-03
            5463            5539     62.8404E-03     60.1024E-03
            5472            5539     62.8404E-03     60.1024E-03
            5471            5539     62.8404E-03     60.1024E-03
            5462            5539     62.8404E-03     60.1024E-03
            5464            5540     48.3376E-03     43.6820E-03
            5472            5540     48.3376E-03     43.6820E-03
            5463            5540     48.3376E-03     43.6820E-03
            5473            5540     48.3376E-03     43.6820E-03
            5465            5541     45.9172E-03     40.9177E-03
            5474            5541     45.9172E-03     40.9177E-03
            5473            5541     45.9172E-03     40.9177E-03
            5464            5541     45.9172E-03     40.9177E-03
            5474            5542     56.8168E-03     53.4201E-03
            5475            5542     56.8168E-03     53.4201E-03
            5465            5542     56.8168E-03     53.4201E-03
            5466            5542     56.8168E-03     53.4201E-03
            5467            5543     75.0006E-03     74.7951E-03
            5475            5543     75.0006E-03     74.7951E-03
            5476            5543     75.0006E-03     74.7951E-03
            5466            5543     75.0006E-03     74.7951E-03
            5477            5544     94.9851E-03     96.8549E-03
            5476            5544     94.9851E-03     96.8549E-03
            5467            5544     94.9851E-03     96.8549E-03
            5468            5544     94.9851E-03     96.8549E-03
            5478            5545     96.2078E-03     91.6497E-03
            5470            5545     96.2078E-03     91.6497E-03
            5469            5545     96.2078E-03     91.6497E-03
            5479            5545     96.2078E-03     91.6497E-03
            5480            5546     78.3904E-03     73.2013E-03
            5470            5546     78.3904E-03     73.2013E-03
            5471            5546     78.3904E-03     73.2013E-03
            5479            5546     78.3904E-03     73.2013E-03
            5471            5547     61.5987E-03     57.0143E-03
            5481            5547     61.5987E-03     57.0143E-03
            5472            5547     61.5987E-03     57.0143E-03
            5480            5547     61.5987E-03     57.0143E-03
            5472            5548     50.1415E-03     46.1570E-03
            5481            5548     50.1415E-03     46.1570E-03
            5473            5548     50.1415E-03     46.1570E-03
            5482            5548     50.1415E-03     46.1570E-03
            5482            5549     48.2139E-03     44.0446E-03
            5483            5549     48.2139E-03     44.0446E-03
            5474            5549     48.2139E-03     44.0446E-03
            5473            5549     48.2139E-03     44.0446E-03
            5474            5550     56.6549E-03     51.5842E-03
            5484            5550     56.6549E-03     51.5842E-03
            5475            5550     56.6549E-03     51.5842E-03
            5483            5550     56.6549E-03     51.5842E-03
            5475            5551     71.7039E-03     65.7790E-03
            5476            5551     71.7039E-03     65.7790E-03
            5484            5551     71.7039E-03     65.7790E-03
            5485            5551     71.7039E-03     65.7790E-03
            5485            5552     88.0202E-03     82.8373E-03
            5477            5552     88.0202E-03     82.8373E-03
            5476            5552     88.0202E-03     82.8373E-03
            5486            5552     88.0202E-03     82.8373E-03
            5488            5553     101.249E-03     91.7322E-03
            5479            5553     101.249E-03     91.7322E-03
            5487            5553     101.249E-03     91.7322E-03
            5478            5553     101.249E-03     91.7322E-03
            5488            5554     75.3118E-03     68.4028E-03
            5489            5554     75.3118E-03     68.4028E-03
            5480            5554     75.3118E-03     68.4028E-03
            5479            5554     75.3118E-03     68.4028E-03
            5489            5555     55.9065E-03     52.1875E-03
            5480            5555     55.9065E-03     52.1875E-03
            5490            5555     55.9065E-03     52.1875E-03
            5481            5555     55.9065E-03     52.1875E-03
            5491            5556     42.6508E-03     41.3422E-03
            5481            5556     42.6508E-03     41.3422E-03
            5490            5556     42.6508E-03     41.3422E-03
            5482            5556     42.6508E-03     41.3422E-03
            5491            5557     40.7783E-03     39.6679E-03
            5492            5557     40.7783E-03     39.6679E-03
            5482            5557     40.7783E-03     39.6679E-03
            5483            5557     40.7783E-03     39.6679E-03
            5483            5558     51.1889E-03     47.8506E-03
            5484            5558     51.1889E-03     47.8506E-03
            5492            5558     51.1889E-03     47.8506E-03
            5493            5558     51.1889E-03     47.8506E-03
            5484            5559     69.2079E-03     62.5188E-03
            5485            5559     69.2079E-03     62.5188E-03
            5494            5559     69.2079E-03     62.5188E-03
            5493            5559     69.2079E-03     62.5188E-03
            5485            5560     93.8870E-03     84.3978E-03
            5495            5560     93.8870E-03     84.3978E-03
            5494            5560     93.8870E-03     84.3978E-03
            5486            5560     93.8870E-03     84.3978E-03
            5487            5561     109.405E-03     106.089E-03
            5488            5561     109.405E-03     106.089E-03
            5496            5561     109.405E-03     106.089E-03
            5497            5561     109.405E-03     106.089E-03
            5488            5562     77.6194E-03     75.8302E-03
            5497            5562     77.6194E-03     75.8302E-03
            5498            5562     77.6194E-03     75.8302E-03
            5489            5562     77.6194E-03     75.8302E-03
            5498            5563     52.9982E-03     52.7221E-03
            5489            5563     52.9982E-03     52.7221E-03
            5499            5563     52.9982E-03     52.7221E-03
            5490            5563     52.9982E-03     52.7221E-03
            5490            5564     37.2620E-03     38.9561E-03
            5499            5564     37.2620E-03     38.9561E-03
            5500            5564     37.2620E-03     38.9561E-03
            5491            5564     37.2620E-03     38.9561E-03
            5492            5565     35.1957E-03     37.2633E-03
            5501            5565     35.1957E-03     37.2633E-03
            5491            5565     35.1957E-03     37.2633E-03
            5500            5565     35.1957E-03     37.2633E-03
            5493            5566     48.0524E-03     48.5789E-03
            5501            5566     48.0524E-03     48.5789E-03
            5492            5566     48.0524E-03     48.5789E-03
            5502            5566     48.0524E-03     48.5789E-03
            5494            5567     71.4283E-03     70.4423E-03
            5493            5567     71.4283E-03     70.4423E-03
            5503            5567     71.4283E-03     70.4423E-03
            5502            5567     71.4283E-03     70.4423E-03
            5504            5568     102.417E-03     99.8462E-03
            5495            5568     102.417E-03     99.8462E-03
            5503            5568     102.417E-03     99.8462E-03
            5494            5568     102.417E-03     99.8462E-03
            5506            5569     103.743E-03     104.159E-03
            5496            5569     103.743E-03     104.159E-03
            5497            5569     103.743E-03     104.159E-03
            5505            5569     103.743E-03     104.159E-03
            5497            5570     79.4613E-03     81.0390E-03
            5506            5570     79.4613E-03     81.0390E-03
            5498            5570     79.4613E-03     81.0390E-03
            5507            5570     79.4613E-03     81.0390E-03
            5508            5571     57.0919E-03     59.3218E-03
            5498            5571     57.0919E-03     59.3218E-03
            5507            5571     57.0919E-03     59.3218E-03
            5499            5571     57.0919E-03     59.3218E-03
            5499            5572     42.9235E-03     46.0517E-03
            5509            5572     42.9235E-03     46.0517E-03
            5500            5572     42.9235E-03     46.0517E-03
            5508            5572     42.9235E-03     46.0517E-03
            5500            5573     41.0027E-03     44.3729E-03
            5510            5573     41.0027E-03     44.3729E-03
            5501            5573     41.0027E-03     44.3729E-03
            5509            5573     41.0027E-03     44.3729E-03
            5502            5574     52.3689E-03     55.0376E-03
            5501            5574     52.3689E-03     55.0376E-03
            5510            5574     52.3689E-03     55.0376E-03
            5511            5574     52.3689E-03     55.0376E-03
            5503            5575     73.4184E-03     75.2578E-03
            5502            5575     73.4184E-03     75.2578E-03
            5512            5575     73.4184E-03     75.2578E-03
            5511            5575     73.4184E-03     75.2578E-03
            5504            5576     97.1436E-03     97.6655E-03
            5503            5576     97.1436E-03     97.6655E-03
            5513            5576     97.1436E-03     97.6655E-03
            5512            5576     97.1436E-03     97.6655E-03
            5506            5577     97.2919E-03     96.7834E-03
            5515            5577     97.2919E-03     96.7834E-03
            5505            5577     97.2919E-03     96.7834E-03
            5514            5577     97.2919E-03     96.7834E-03
            5506            5578     76.6711E-03     77.7344E-03
            5515            5578     76.6711E-03     77.7344E-03
            5516            5578     76.6711E-03     77.7344E-03
            5507            5578     76.6711E-03     77.7344E-03
            5516            5579     58.3232E-03     60.6121E-03
            5507            5579     58.3232E-03     60.6121E-03
            5517            5579     58.3232E-03     60.6121E-03
            5508            5579     58.3232E-03     60.6121E-03
            5509            5580     45.5667E-03     48.5226E-03
            5517            5580     45.5667E-03     48.5226E-03
            5508            5580     45.5667E-03     48.5226E-03
            5518            5580     45.5667E-03     48.5226E-03
            5510            5581     43.7650E-03     46.8570E-03
            5509            5581     43.7650E-03     46.8570E-03
            5519            5581     43.7650E-03     46.8570E-03
            5518            5581     43.7650E-03     46.8570E-03
            5511            5582     53.7420E-03     56.2679E-03
            5519            5582     53.7420E-03     56.2679E-03
            5510            5582     53.7420E-03     56.2679E-03
            5520            5582     53.7420E-03     56.2679E-03
            5511            5583     70.7428E-03     71.9890E-03
            5521            5583     70.7428E-03     71.9890E-03
            5512            5583     70.7428E-03     71.9890E-03
            5520            5583     70.7428E-03     71.9890E-03
            5512            5584     90.8319E-03     90.5599E-03
            5522            5584     90.8319E-03     90.5599E-03
            5521            5584     90.8319E-03     90.5599E-03
            5513            5584     90.8319E-03     90.5599E-03
            5524            5585     92.4214E-03     91.5795E-03
            5523            5585     92.4214E-03     91.5795E-03
            5515            5585     92.4214E-03     91.5795E-03
            5514            5585     92.4214E-03     91.5795E-03
            5525            5586     73.2354E-03     73.4499E-03
            5515            5586     73.2354E-03     73.4499E-03
            5516            5586     73.2354E-03     73.4499E-03
            5524            5586     73.2354E-03     73.4499E-03
            5516            5587     57.0455E-03     58.2695E-03
            5526            5587     57.0455E-03     58.2695E-03
            5525            5587     57.0455E-03     58.2695E-03
            5517            5587     57.0455E-03     58.2695E-03
            5517            5588     46.3649E-03     48.3303E-03
            5518            5588     46.3649E-03     48.3303E-03
            5527            5588     46.3649E-03     48.3303E-03
            5526            5588     46.3649E-03     48.3303E-03
            5519            5589     44.6102E-03     46.6750E-03
            5528            5589     44.6102E-03     46.6750E-03
            5527            5589     44.6102E-03     46.6750E-03
            5518            5589     44.6102E-03     46.6750E-03
            5529            5590     52.5887E-03     54.0447E-03
            5520            5590     52.5887E-03     54.0447E-03
            5528            5590     52.5887E-03     54.0447E-03
            5519            5590     52.5887E-03     54.0447E-03
            5521            5591     67.4311E-03     67.9057E-03
            5530            5591     67.4311E-03     67.9057E-03
            5520            5591     67.4311E-03     67.9057E-03
            5529            5591     67.4311E-03     67.9057E-03
            5530            5592     86.0872E-03     85.4718E-03
            5522            5592     86.0872E-03     85.4718E-03
            5531            5592     86.0872E-03     85.4718E-03
            5521            5592     86.0872E-03     85.4718E-03
            5533            5593     87.4270E-03     86.4899E-03
            5523            5593     87.4270E-03     86.4899E-03
            5524            5593     87.4270E-03     86.4899E-03
            5532            5593     87.4270E-03     86.4899E-03
            5533            5594     69.9808E-03     69.8683E-03
            5534            5594     69.9808E-03     69.8683E-03
            5525            5594     69.9808E-03     69.8683E-03
            5524            5594     69.9808E-03     69.8683E-03
            5534            5595     55.4013E-03     55.8750E-03
            5535            5595     55.4013E-03     55.8750E-03
            5526            5595     55.4013E-03     55.8750E-03
            5525            5595     55.4013E-03     55.8750E-03
            5526            5596     45.9706E-03     46.8205E-03
            5535            5596     45.9706E-03     46.8205E-03
            5536            5596     45.9706E-03     46.8205E-03
            5527            5596     45.9706E-03     46.8205E-03
            5528            5597     44.3022E-03     45.2622E-03
            5536            5597     44.3022E-03     45.2622E-03
            5537            5597     44.3022E-03     45.2622E-03
            5527            5597     44.3022E-03     45.2622E-03
            5529            5598     51.1006E-03     51.8308E-03
            5528            5598     51.1006E-03     51.8308E-03
            5538            5598     51.1006E-03     51.8308E-03
            5537            5598     51.1006E-03     51.8308E-03
            5529            5599     64.3137E-03     64.4760E-03
            5530            5599     64.3137E-03     64.4760E-03
            5538            5599     64.3137E-03     64.4760E-03
            5539            5599     64.3137E-03     64.4760E-03
            5531            5600     81.2076E-03     80.5175E-03
            5540            5600     81.2076E-03     80.5175E-03
            5530            5600     81.2076E-03     80.5175E-03
            5539            5600     81.2076E-03     80.5175E-03
            5542            5601     82.4785E-03     81.6183E-03
            5541            5601     82.4785E-03     81.6183E-03
            5533            5601     82.4785E-03     81.6183E-03
            5532            5601     82.4785E-03     81.6183E-03
            5534            5602     66.6101E-03     66.3563E-03
            5533            5602     66.6101E-03     66.3563E-03
            5542            5602     66.6101E-03     66.3563E-03
            5543            5602     66.6101E-03     66.3563E-03
            5544            5603     53.7272E-03     53.7354E-03
            5535            5603     53.7272E-03     53.7354E-03
            5543            5603     53.7272E-03     53.7354E-03
            5534            5603     53.7272E-03     53.7354E-03
            5536            5604     45.3500E-03     45.3533E-03
            5545            5604     45.3500E-03     45.3533E-03
            5535            5604     45.3500E-03     45.3533E-03
            5544            5604     45.3500E-03     45.3533E-03
            5546            5605     43.7721E-03     43.8627E-03
            5536            5605     43.7721E-03     43.8627E-03
            5545            5605     43.7721E-03     43.8627E-03
            5537            5605     43.7721E-03     43.8627E-03
            5547            5606     49.5985E-03     49.8454E-03
            5538            5606     49.5985E-03     49.8454E-03
            5546            5606     49.5985E-03     49.8454E-03
            5537            5606     49.5985E-03     49.8454E-03
            5547            5607     61.0895E-03     61.1307E-03
            5548            5607     61.0895E-03     61.1307E-03
            5539            5607     61.0895E-03     61.1307E-03
            5538            5607     61.0895E-03     61.1307E-03
            5539            5608     76.4001E-03     75.7881E-03
            5540            5608     76.4001E-03     75.7881E-03
            5548            5608     76.4001E-03     75.7881E-03
            5549            5608     76.4001E-03     75.7881E-03
            5542            5609     77.6542E-03     76.9921E-03
            5551            5609     77.6542E-03     76.9921E-03
            5550            5609     77.6542E-03     76.9921E-03
            5541            5609     77.6542E-03     76.9921E-03
            5552            5610     63.4175E-03     63.2979E-03
            5542            5610     63.4175E-03     63.2979E-03
            5543            5610     63.4175E-03     63.2979E-03
            5551            5610     63.4175E-03     63.2979E-03
            5552            5611     52.0034E-03     51.6675E-03
            5543            5611     52.0034E-03     51.6675E-03
            5553            5611     52.0034E-03     51.6675E-03
            5544            5611     52.0034E-03     51.6675E-03
            5544            5612     44.7359E-03     43.9444E-03
            5545            5612     44.7359E-03     43.9444E-03
            5553            5612     44.7359E-03     43.9444E-03
            5554            5612     44.7359E-03     43.9444E-03
            5554            5613     43.2493E-03     42.5060E-03
            5545            5613     43.2493E-03     42.5060E-03
            5546            5613     43.2493E-03     42.5060E-03
            5555            5613     43.2493E-03     42.5060E-03
            5546            5614     48.0777E-03     47.9138E-03
            5556            5614     48.0777E-03     47.9138E-03
            5547            5614     48.0777E-03     47.9138E-03
            5555            5614     48.0777E-03     47.9138E-03
            5547            5615     58.0805E-03     58.2410E-03
            5556            5615     58.0805E-03     58.2410E-03
            5548            5615     58.0805E-03     58.2410E-03
            5557            5615     58.0805E-03     58.2410E-03
            5548            5616     71.7251E-03     71.3181E-03
            5557            5616     71.7251E-03     71.3181E-03
            5558            5616     71.7251E-03     71.3181E-03
            5549            5616     71.7251E-03     71.3181E-03
            5551            5617     72.6903E-03     72.5169E-03
            5550            5617     72.6903E-03     72.5169E-03
            5559            5617     72.6903E-03     72.5169E-03
            5560            5617     72.6903E-03     72.5169E-03
            5560            5618     60.3556E-03     60.5236E-03
            5552            5618     60.3556E-03     60.5236E-03
            5561            5618     60.3556E-03     60.5236E-03
            5551            5618     60.3556E-03     60.5236E-03
            5561            5619     50.5109E-03     49.9197E-03
            5562            5619     50.5109E-03     49.9197E-03
            5552            5619     50.5109E-03     49.9197E-03
            5553            5619     50.5109E-03     49.9197E-03
            5562            5620     43.9760E-03     42.2498E-03
            5554            5620     43.9760E-03     42.2498E-03
            5563            5620     43.9760E-03     42.2498E-03
            5553            5620     43.9760E-03     42.2498E-03
            5554            5621     42.6211E-03     40.8540E-03
            5564            5621     42.6211E-03     40.8540E-03
            5563            5621     42.6211E-03     40.8540E-03
            5555            5621     42.6211E-03     40.8540E-03
            5555            5622     46.8519E-03     46.2934E-03
            5564            5622     46.8519E-03     46.2934E-03
            5556            5622     46.8519E-03     46.2934E-03
            5565            5622     46.8519E-03     46.2934E-03
            5566            5623     55.2687E-03     55.6378E-03
            5556            5623     55.2687E-03     55.6378E-03
            5557            5623     55.2687E-03     55.6378E-03
            5565            5623     55.2687E-03     55.6378E-03
            5557            5624     66.9481E-03     67.0361E-03
            5566            5624     66.9481E-03     67.0361E-03
            5558            5624     66.9481E-03     67.0361E-03
            5567            5624     66.9481E-03     67.0361E-03
            5568            5625     67.6277E-03     68.1574E-03
            5569            5625     67.6277E-03     68.1574E-03
            5560            5625     67.6277E-03     68.1574E-03
            5559            5625     67.6277E-03     68.1574E-03
            5560            5626     57.5946E-03     58.1626E-03
            5561            5626     57.5946E-03     58.1626E-03
            5570            5626     57.5946E-03     58.1626E-03
            5569            5626     57.5946E-03     58.1626E-03
            5571            5627     49.0983E-03     47.9116E-03
            5570            5627     49.0983E-03     47.9116E-03
            5562            5627     49.0983E-03     47.9116E-03
            5561            5627     49.0983E-03     47.9116E-03
            5563            5628     43.1038E-03     40.4129E-03
            5571            5628     43.1038E-03     40.4129E-03
            5572            5628     43.1038E-03     40.4129E-03
            5562            5628     43.1038E-03     40.4129E-03
            5563            5629     41.9145E-03     39.0707E-03
            5572            5629     41.9145E-03     39.0707E-03
            5573            5629     41.9145E-03     39.0707E-03
            5564            5629     41.9145E-03     39.0707E-03
            5574            5630     45.8328E-03     44.4212E-03
            5573            5630     45.8328E-03     44.4212E-03
            5565            5630     45.8328E-03     44.4212E-03
            5564            5630     45.8328E-03     44.4212E-03
            5575            5631     52.8631E-03     53.4857E-03
            5574            5631     52.8631E-03     53.4857E-03
            5565            5631     52.8631E-03     53.4857E-03
            5566            5631     52.8631E-03     53.4857E-03
            5575            5632     62.1446E-03     62.8785E-03
            5566            5632     62.1446E-03     62.8785E-03
            5567            5632     62.1446E-03     62.8785E-03
            5576            5632     62.1446E-03     62.8785E-03
            5569            5633     62.3996E-03     63.5608E-03
            5568            5633     62.3996E-03     63.5608E-03
            5577            5633     62.3996E-03     63.5608E-03
            5578            5633     62.3996E-03     63.5608E-03
            5569            5634     55.0033E-03     54.6871E-03
            5578            5634     55.0033E-03     54.6871E-03
            5579            5634     55.0033E-03     54.6871E-03
            5570            5634     55.0033E-03     54.6871E-03
            5580            5635     47.6608E-03     45.4149E-03
            5570            5635     47.6608E-03     45.4149E-03
            5579            5635     47.6608E-03     45.4149E-03
            5571            5635     47.6608E-03     45.4149E-03
            5572            5636     42.3691E-03     39.1554E-03
            5581            5636     42.3691E-03     39.1554E-03
            5571            5636     42.3691E-03     39.1554E-03
            5580            5636     42.3691E-03     39.1554E-03
            5581            5637     41.3762E-03     37.9738E-03
            5582            5637     41.3762E-03     37.9738E-03
            5572            5637     41.3762E-03     37.9738E-03
            5573            5637     41.3762E-03     37.9738E-03
            5573            5638     44.9539E-03     42.2432E-03
            5582            5638     44.9539E-03     42.2432E-03
            5574            5638     44.9539E-03     42.2432E-03
            5583            5638     44.9539E-03     42.2432E-03
            5583            5639     50.9333E-03     50.2564E-03
            5574            5639     50.9333E-03     50.2564E-03
            5575            5639     50.9333E-03     50.2564E-03
            5584            5639     50.9333E-03     50.2564E-03
            5576            5640     57.2155E-03     58.5193E-03
            5584            5640     57.2155E-03     58.5193E-03
            5585            5640     57.2155E-03     58.5193E-03
            5575            5640     57.2155E-03     58.5193E-03
            5586            5641     55.9950E-03     53.4729E-03
            5577            5641     55.9950E-03     53.4729E-03
            5587            5641     55.9950E-03     53.4729E-03
            5578            5641     55.9950E-03     53.4729E-03
            5578            5642     52.0003E-03     48.7991E-03
            5579            5642     52.0003E-03     48.7991E-03
            5588            5642     52.0003E-03     48.7991E-03
            5587            5642     52.0003E-03     48.7991E-03
            5579            5643     46.5807E-03     43.7050E-03
            5588            5643     46.5807E-03     43.7050E-03
            5580            5643     46.5807E-03     43.7050E-03
            5589            5643     46.5807E-03     43.7050E-03
            5589            5644     42.8444E-03     40.2962E-03
            5580            5644     42.8444E-03     40.2962E-03
            5581            5644     42.8444E-03     40.2962E-03
            5590            5644     42.8444E-03     40.2962E-03
            5591            5645     42.0976E-03     39.4269E-03
            5581            5645     42.0976E-03     39.4269E-03
            5582            5645     42.0976E-03     39.4269E-03
            5590            5645     42.0976E-03     39.4269E-03
            5582            5646     44.5004E-03     41.2557E-03
            5591            5646     44.5004E-03     41.2557E-03
            5583            5646     44.5004E-03     41.2557E-03
            5592            5646     44.5004E-03     41.2557E-03
            5593            5647     48.9104E-03     45.0513E-03
            5584            5647     48.9104E-03     45.0513E-03
            5592            5647     48.9104E-03     45.0513E-03
            5583            5647     48.9104E-03     45.0513E-03
            5585            5648     51.7185E-03     48.5553E-03
            5593            5648     51.7185E-03     48.5553E-03
            5584            5648     51.7185E-03     48.5553E-03
            5594            5648     51.7185E-03     48.5553E-03
            5595            5649     61.0100E-03     55.9718E-03
            5586            5649     61.0100E-03     55.9718E-03
            5596            5649     61.0100E-03     55.9718E-03
            5587            5649     61.0100E-03     55.9718E-03
            5587            5650     49.9234E-03     46.4910E-03
            5597            5650     49.9234E-03     46.4910E-03
            5596            5650     49.9234E-03     46.4910E-03
            5588            5650     49.9234E-03     46.4910E-03
            5597            5651     42.3490E-03     40.5893E-03
            5598            5651     42.3490E-03     40.5893E-03
            5589            5651     42.3490E-03     40.5893E-03
            5588            5651     42.3490E-03     40.5893E-03
            5599            5652     37.8759E-03     37.1747E-03
            5598            5652     37.8759E-03     37.1747E-03
            5590            5652     37.8759E-03     37.1747E-03
            5589            5652     37.8759E-03     37.1747E-03
            5600            5653     37.2288E-03     36.5925E-03
            5599            5653     37.2288E-03     36.5925E-03
            5590            5653     37.2288E-03     36.5925E-03
            5591            5653     37.2288E-03     36.5925E-03
            5591            5654     40.4844E-03     38.9097E-03
            5600            5654     40.4844E-03     38.9097E-03
            5601            5654     40.4844E-03     38.9097E-03
            5592            5654     40.4844E-03     38.9097E-03
            5593            5655     47.2122E-03     43.8947E-03
            5601            5655     47.2122E-03     43.8947E-03
            5602            5655     47.2122E-03     43.8947E-03
            5592            5655     47.2122E-03     43.8947E-03
            5603            5656     57.3934E-03     52.2797E-03
            5602            5656     57.3934E-03     52.2797E-03
            5594            5656     57.3934E-03     52.2797E-03
            5593            5656     57.3934E-03     52.2797E-03
            5595            5657     67.5975E-03     66.0217E-03
            5605            5657     67.5975E-03     66.0217E-03
            5596            5657     67.5975E-03     66.0217E-03
            5604            5657     67.5975E-03     66.0217E-03
            5596            5658     51.1722E-03     50.7101E-03
            5606            5658     51.1722E-03     50.7101E-03
            5597            5658     51.1722E-03     50.7101E-03
            5605            5658     51.1722E-03     50.7101E-03
            5607            5659     40.2244E-03     40.4745E-03
            5606            5659     40.2244E-03     40.4745E-03
            5597            5659     40.2244E-03     40.4745E-03
            5598            5659     40.2244E-03     40.4745E-03
            5599            5660     34.6781E-03     35.6397E-03
            5607            5660     34.6781E-03     35.6397E-03
            5608            5660     34.6781E-03     35.6397E-03
            5598            5660     34.6781E-03     35.6397E-03
            5600            5661     34.0037E-03     35.1205E-03
            5609            5661     34.0037E-03     35.1205E-03
            5599            5661     34.0037E-03     35.1205E-03
            5608            5661     34.0037E-03     35.1205E-03
            5600            5662     38.3778E-03     39.0464E-03
            5610            5662     38.3778E-03     39.0464E-03
            5601            5662     38.3778E-03     39.0464E-03
            5609            5662     38.3778E-03     39.0464E-03
            5610            5663     48.4742E-03     48.5305E-03
            5602            5663     48.4742E-03     48.5305E-03
            5611            5663     48.4742E-03     48.5305E-03
            5601            5663     48.4742E-03     48.5305E-03
            5602            5664     64.2350E-03     63.2145E-03
            5612            5664     64.2350E-03     63.2145E-03
            5603            5664     64.2350E-03     63.2145E-03
            5611            5664     64.2350E-03     63.2145E-03
            5604            5665     61.8065E-03     61.8586E-03
            5614            5665     61.8065E-03     61.8586E-03
            5613            5665     61.8065E-03     61.8586E-03
            5605            5665     61.8065E-03     61.8586E-03
            5606            5666     51.8002E-03     52.6157E-03
            5614            5666     51.8002E-03     52.6157E-03
            5605            5666     51.8002E-03     52.6157E-03
            5615            5666     51.8002E-03     52.6157E-03
            5616            5667     43.1258E-03     44.4080E-03
            5615            5667     43.1258E-03     44.4080E-03
            5607            5667     43.1258E-03     44.4080E-03
            5606            5667     43.1258E-03     44.4080E-03
            5608            5668     38.5454E-03     40.1143E-03
            5607            5668     38.5454E-03     40.1143E-03
            5617            5668     38.5454E-03     40.1143E-03
            5616            5668     38.5454E-03     40.1143E-03
            5609            5669     37.9439E-03     39.5999E-03
            5617            5669     37.9439E-03     39.5999E-03
            5608            5669     37.9439E-03     39.5999E-03
            5618            5669     37.9439E-03     39.5999E-03
            5619            5670     41.4669E-03     42.9161E-03
            5609            5670     41.4669E-03     42.9161E-03
            5618            5670     41.4669E-03     42.9161E-03
            5610            5670     41.4669E-03     42.9161E-03
            5619            5671     49.3332E-03     50.2598E-03
            5620            5671     49.3332E-03     50.2598E-03
            5611            5671     49.3332E-03     50.2598E-03
            5610            5671     49.3332E-03     50.2598E-03
            5612            5672     58.8061E-03     58.9102E-03
            5620            5672     58.8061E-03     58.9102E-03
            5621            5672     58.8061E-03     58.9102E-03
            5611            5672     58.8061E-03     58.9102E-03
            5613            5673     55.8998E-03     55.4893E-03
            5622            5673     55.8998E-03     55.4893E-03
            5614            5673     55.8998E-03     55.4893E-03
            5623            5673     55.8998E-03     55.4893E-03
            5624            5674     49.1799E-03     49.5480E-03
            5623            5674     49.1799E-03     49.5480E-03
            5614            5674     49.1799E-03     49.5480E-03
            5615            5674     49.1799E-03     49.5480E-03
            5615            5675     43.9792E-03     45.0788E-03
            5624            5675     43.9792E-03     45.0788E-03
            5625            5675     43.9792E-03     45.0788E-03
            5616            5675     43.9792E-03     45.0788E-03
            5625            5676     40.6130E-03     42.0267E-03
            5626            5676     40.6130E-03     42.0267E-03
            5617            5676     40.6130E-03     42.0267E-03
            5616            5676     40.6130E-03     42.0267E-03
            5618            5677     40.0792E-03     41.5351E-03
            5627            5677     40.0792E-03     41.5351E-03
            5626            5677     40.0792E-03     41.5351E-03
            5617            5677     40.0792E-03     41.5351E-03
            5628            5678     42.4364E-03     43.6388E-03
            5619            5678     42.4364E-03     43.6388E-03
            5618            5678     42.4364E-03     43.6388E-03
            5627            5678     42.4364E-03     43.6388E-03
            5629            5679     46.8425E-03     47.3460E-03
            5628            5679     46.8425E-03     47.3460E-03
            5619            5679     46.8425E-03     47.3460E-03
            5620            5679     46.8425E-03     47.3460E-03
            5630            5680     53.0214E-03     52.8161E-03
            5621            5680     53.0214E-03     52.8161E-03
            5629            5680     53.0214E-03     52.8161E-03
            5620            5680     53.0214E-03     52.8161E-03
            5632            5681     51.3877E-03     50.9302E-03
            5631            5681     51.3877E-03     50.9302E-03
            5623            5681     51.3877E-03     50.9302E-03
            5622            5681     51.3877E-03     50.9302E-03
            5624            5682     46.3736E-03     46.4164E-03
            5623            5682     46.3736E-03     46.4164E-03
            5633            5682     46.3736E-03     46.4164E-03
            5632            5682     46.3736E-03     46.4164E-03
            5633            5683     43.1570E-03     43.6722E-03
            5625            5683     43.1570E-03     43.6722E-03
            5624            5683     43.1570E-03     43.6722E-03
            5634            5683     43.1570E-03     43.6722E-03
            5626            5684     41.3703E-03     42.2280E-03
            5635            5684     41.3703E-03     42.2280E-03
            5625            5684     41.3703E-03     42.2280E-03
            5634            5684     41.3703E-03     42.2280E-03
            5636            5685     40.8725E-03     41.7820E-03
            5635            5685     40.8725E-03     41.7820E-03
            5626            5685     40.8725E-03     41.7820E-03
            5627            5685     40.8725E-03     41.7820E-03
            5628            5686     41.7277E-03     42.4028E-03
            5627            5686     41.7277E-03     42.4028E-03
            5636            5686     41.7277E-03     42.4028E-03
            5637            5686     41.7277E-03     42.4028E-03
            5638            5687     44.1866E-03     44.4517E-03
            5628            5687     44.1866E-03     44.4517E-03
            5637            5687     44.1866E-03     44.4517E-03
            5629            5687     44.1866E-03     44.4517E-03
            5629            5688     48.6889E-03     48.4142E-03
            5638            5688     48.6889E-03     48.4142E-03
            5630            5688     48.6889E-03     48.4142E-03
            5639            5688     48.6889E-03     48.4142E-03
            5640            5689     46.9585E-03     46.5857E-03
            5632            5689     46.9585E-03     46.5857E-03
            5631            5689     46.9585E-03     46.5857E-03
            5641            5689     46.9585E-03     46.5857E-03
            5633            5690     43.8517E-03     43.8373E-03
            5632            5690     43.8517E-03     43.8373E-03
            5641            5690     43.8517E-03     43.8373E-03
            5642            5690     43.8517E-03     43.8373E-03
            5634            5691     42.1458E-03     42.3073E-03
            5643            5691     42.1458E-03     42.3073E-03
            5642            5691     42.1458E-03     42.3073E-03
            5633            5691     42.1458E-03     42.3073E-03
            5643            5692     41.2742E-03     41.5244E-03
            5635            5692     41.2742E-03     41.5244E-03
            5634            5692     41.2742E-03     41.5244E-03
            5644            5692     41.2742E-03     41.5244E-03
            5636            5693     40.8327E-03     41.1513E-03
            5644            5693     40.8327E-03     41.1513E-03
            5635            5693     40.8327E-03     41.1513E-03
            5645            5693     40.8327E-03     41.1513E-03
            5645            5694     40.8598E-03     41.2079E-03
            5637            5694     40.8598E-03     41.2079E-03
            5636            5694     40.8598E-03     41.2079E-03
            5646            5694     40.8598E-03     41.2079E-03
            5647            5695     41.8526E-03     42.0668E-03
            5638            5695     41.8526E-03     42.0668E-03
            5646            5695     41.8526E-03     42.0668E-03
            5637            5695     41.8526E-03     42.0668E-03
            5638            5696     44.4330E-03     44.2682E-03
            5639            5696     44.4330E-03     44.2682E-03
            5647            5696     44.4330E-03     44.2682E-03
            5648            5696     44.4330E-03     44.2682E-03
            5640            5697     42.7677E-03     42.5633E-03
            5650            5697     42.7677E-03     42.5633E-03
            5649            5697     42.7677E-03     42.5633E-03
            5641            5697     42.7677E-03     42.5633E-03
            5642            5698     41.4274E-03     41.4209E-03
            5651            5698     41.4274E-03     41.4209E-03
            5650            5698     41.4274E-03     41.4209E-03
            5641            5698     41.4274E-03     41.4209E-03
            5643            5699     41.1468E-03     41.0285E-03
            5651            5699     41.1468E-03     41.0285E-03
            5652            5699     41.1468E-03     41.0285E-03
            5642            5699     41.1468E-03     41.0285E-03
            5652            5700     40.9428E-03     40.6757E-03
            5644            5700     40.9428E-03     40.6757E-03
            5643            5700     40.9428E-03     40.6757E-03
            5653            5700     40.9428E-03     40.6757E-03
            5644            5701     40.5647E-03     40.3521E-03
            5645            5701     40.5647E-03     40.3521E-03
            5653            5701     40.5647E-03     40.3521E-03
            5654            5701     40.5647E-03     40.3521E-03
            5646            5702     40.0291E-03     40.0703E-03
            5655            5702     40.0291E-03     40.0703E-03
            5645            5702     40.0291E-03     40.0703E-03
            5654            5702     40.0291E-03     40.0703E-03
            5647            5703     39.6356E-03     39.8645E-03
            5656            5703     39.6356E-03     39.8645E-03
            5655            5703     39.6356E-03     39.8645E-03
            5646            5703     39.6356E-03     39.8645E-03
            5648            5704     40.4548E-03     40.4537E-03
            5656            5704     40.4548E-03     40.4537E-03
            5647            5704     40.4548E-03     40.4537E-03
            5657            5704     40.4548E-03     40.4537E-03
            5659            5705     38.8232E-03     38.8933E-03
            5649            5705     38.8232E-03     38.8933E-03
            5658            5705     38.8232E-03     38.8933E-03
            5650            5705     38.8232E-03     38.8933E-03
            5660            5706     39.3749E-03     39.4310E-03
            5650            5706     39.3749E-03     39.4310E-03
            5659            5706     39.3749E-03     39.4310E-03
            5651            5706     39.3749E-03     39.4310E-03
            5652            5707     40.1784E-03     39.7776E-03
            5651            5707     40.1784E-03     39.7776E-03
            5661            5707     40.1784E-03     39.7776E-03
            5660            5707     40.1784E-03     39.7776E-03
            5662            5708     40.4547E-03     39.6466E-03
            5653            5708     40.4547E-03     39.6466E-03
            5652            5708     40.4547E-03     39.6466E-03
            5661            5708     40.4547E-03     39.6466E-03
            5663            5709     40.1539E-03     39.3599E-03
            5662            5709     40.1539E-03     39.3599E-03
            5654            5709     40.1539E-03     39.3599E-03
            5653            5709     40.1539E-03     39.3599E-03
            5663            5710     39.2572E-03     38.9482E-03
            5664            5710     39.2572E-03     38.9482E-03
            5655            5710     39.2572E-03     38.9482E-03
            5654            5710     39.2572E-03     38.9482E-03
            5656            5711     37.8465E-03     38.0795E-03
            5655            5711     37.8465E-03     38.0795E-03
            5664            5711     37.8465E-03     38.0795E-03
            5665            5711     37.8465E-03     38.0795E-03
            5657            5712     36.7550E-03     37.0344E-03
            5656            5712     36.7550E-03     37.0344E-03
            5666            5712     36.7550E-03     37.0344E-03
            5665            5712     36.7550E-03     37.0344E-03
            5659            5713     35.0971E-03     35.5673E-03
            5658            5713     35.0971E-03     35.5673E-03
            5667            5713     35.0971E-03     35.5673E-03
            5668            5713     35.0971E-03     35.5673E-03
            5660            5714     37.7597E-03     37.8294E-03
            5659            5714     37.7597E-03     37.8294E-03
            5669            5714     37.7597E-03     37.8294E-03
            5668            5714     37.7597E-03     37.8294E-03
            5660            5715     39.3670E-03     38.5579E-03
            5669            5715     39.3670E-03     38.5579E-03
            5670            5715     39.3670E-03     38.5579E-03
            5661            5715     39.3670E-03     38.5579E-03
            5671            5716     39.6023E-03     38.2916E-03
            5661            5716     39.6023E-03     38.2916E-03
            5662            5716     39.6023E-03     38.2916E-03
            5670            5716     39.6023E-03     38.2916E-03
            5662            5717     39.3922E-03     38.0313E-03
            5663            5717     39.3922E-03     38.0313E-03
            5671            5717     39.3922E-03     38.0313E-03
            5672            5717     39.3922E-03     38.0313E-03
            5673            5718     38.7097E-03     37.8271E-03
            5664            5718     38.7097E-03     37.8271E-03
            5663            5718     38.7097E-03     37.8271E-03
            5672            5718     38.7097E-03     37.8271E-03
            5665            5719     36.5671E-03     36.7033E-03
            5664            5719     36.5671E-03     36.7033E-03
            5674            5719     36.5671E-03     36.7033E-03
            5673            5719     36.5671E-03     36.7033E-03
            5674            5720     33.3544E-03     33.9978E-03
            5675            5720     33.3544E-03     33.9978E-03
            5665            5720     33.3544E-03     33.9978E-03
            5666            5720     33.3544E-03     33.9978E-03
            5676            5721     31.9189E-03     32.6703E-03
            5677            5721     31.9189E-03     32.6703E-03
            5668            5721     31.9189E-03     32.6703E-03
            5667            5721     31.9189E-03     32.6703E-03
            5669            5722     36.6790E-03     36.2839E-03
            5677            5722     36.6790E-03     36.2839E-03
            5678            5722     36.6790E-03     36.2839E-03
            5668            5722     36.6790E-03     36.2839E-03
            5678            5723     38.2614E-03     37.0448E-03
            5679            5723     38.2614E-03     37.0448E-03
            5669            5723     38.2614E-03     37.0448E-03
            5670            5723     38.2614E-03     37.0448E-03
            5679            5724     38.4696E-03     36.9307E-03
            5670            5724     38.4696E-03     36.9307E-03
            5680            5724     38.4696E-03     36.9307E-03
            5671            5724     38.4696E-03     36.9307E-03
            5681            5725     38.3359E-03     36.7215E-03
            5671            5725     38.3359E-03     36.7215E-03
            5680            5725     38.3359E-03     36.7215E-03
            5672            5725     38.3359E-03     36.7215E-03
            5673            5726     37.8929E-03     36.4325E-03
            5672            5726     37.8929E-03     36.4325E-03
            5682            5726     37.8929E-03     36.4325E-03
            5681            5726     37.8929E-03     36.4325E-03
            5683            5727     36.0201E-03     35.3657E-03
            5673            5727     36.0201E-03     35.3657E-03
            5682            5727     36.0201E-03     35.3657E-03
            5674            5727     36.0201E-03     35.3657E-03
            5675            5728     30.6838E-03     31.5027E-03
            5674            5728     30.6838E-03     31.5027E-03
            5683            5728     30.6838E-03     31.5027E-03
            5684            5728     30.6838E-03     31.5027E-03
            5686            5729     28.9573E-03     28.8697E-03
            5677            5729     28.9573E-03     28.8697E-03
            5685            5729     28.9573E-03     28.8697E-03
            5676            5729     28.9573E-03     28.8697E-03
            5687            5730     35.2435E-03     34.1767E-03
            5677            5730     35.2435E-03     34.1767E-03
            5686            5730     35.2435E-03     34.1767E-03
            5678            5730     35.2435E-03     34.1767E-03
            5687            5731     36.9711E-03     35.8271E-03
            5679            5731     36.9711E-03     35.8271E-03
            5688            5731     36.9711E-03     35.8271E-03
            5678            5731     36.9711E-03     35.8271E-03
            5688            5732     37.5953E-03     36.4532E-03
            5680            5732     37.5953E-03     36.4532E-03
            5679            5732     37.5953E-03     36.4532E-03
            5689            5732     37.5953E-03     36.4532E-03
            5689            5733     37.5438E-03     36.3323E-03
            5680            5733     37.5438E-03     36.3323E-03
            5690            5733     37.5438E-03     36.3323E-03
            5681            5733     37.5438E-03     36.3323E-03
            5681            5734     36.8236E-03     35.4636E-03
            5691            5734     36.8236E-03     35.4636E-03
            5690            5734     36.8236E-03     35.4636E-03
            5682            5734     36.8236E-03     35.4636E-03
            5691            5735     35.1173E-03     33.6141E-03
            5682            5735     35.1173E-03     33.6141E-03
            5683            5735     35.1173E-03     33.6141E-03
            5692            5735     35.1173E-03     33.6141E-03
            5693            5736     28.7411E-03     28.3333E-03
            5692            5736     28.7411E-03     28.3333E-03
            5684            5736     28.7411E-03     28.3333E-03
            5683            5736     28.7411E-03     28.3333E-03
            5694            5737     31.4317E-03     30.6078E-03
            5686            5737     31.4317E-03     30.6078E-03
            5695            5737     31.4317E-03     30.6078E-03
            5685            5737     31.4317E-03     30.6078E-03
            5687            5738     33.6847E-03     33.0385E-03
            5696            5738     33.6847E-03     33.0385E-03
            5695            5738     33.6847E-03     33.0385E-03
            5686            5738     33.6847E-03     33.0385E-03
            5697            5739     34.6496E-03     34.1743E-03
            5696            5739     34.6496E-03     34.1743E-03
            5688            5739     34.6496E-03     34.1743E-03
            5687            5739     34.6496E-03     34.1743E-03
            5698            5740     35.3165E-03     34.9626E-03
            5688            5740     35.3165E-03     34.9626E-03
            5689            5740     35.3165E-03     34.9626E-03
            5697            5740     35.3165E-03     34.9626E-03
            5689            5741     35.2729E-03     34.9143E-03
            5690            5741     35.2729E-03     34.9143E-03
            5699            5741     35.2729E-03     34.9143E-03
            5698            5741     35.2729E-03     34.9143E-03
            5691            5742     34.4906E-03     34.0446E-03
            5690            5742     34.4906E-03     34.0446E-03
            5699            5742     34.4906E-03     34.0446E-03
            5700            5742     34.4906E-03     34.0446E-03
            5701            5743     33.4898E-03     32.8110E-03
            5700            5743     33.4898E-03     32.8110E-03
            5692            5743     33.4898E-03     32.8110E-03
            5691            5743     33.4898E-03     32.8110E-03
            5702            5744     31.2279E-03     30.4222E-03
            5693            5744     31.2279E-03     30.4222E-03
            5701            5744     31.2279E-03     30.4222E-03
            5692            5744     31.2279E-03     30.4222E-03
            5695            5745     33.5620E-03     33.2914E-03
            5704            5745     33.5620E-03     33.2914E-03
            5694            5745     33.5620E-03     33.2914E-03
            5703            5745     33.5620E-03     33.2914E-03
            5695            5746     33.8595E-03     34.0042E-03
            5696            5746     33.8595E-03     34.0042E-03
            5705            5746     33.8595E-03     34.0042E-03
            5704            5746     33.8595E-03     34.0042E-03
            5696            5747     33.9162E-03     33.9870E-03
            5705            5747     33.9162E-03     33.9870E-03
            5697            5747     33.9162E-03     33.9870E-03
            5706            5747     33.9162E-03     33.9870E-03
            5706            5748     34.1326E-03     34.1934E-03
            5707            5748     34.1326E-03     34.1934E-03
            5698            5748     34.1326E-03     34.1934E-03
            5697            5748     34.1326E-03     34.1934E-03
            5707            5749     34.0713E-03     34.1665E-03
            5698            5749     34.0713E-03     34.1665E-03
            5699            5749     34.0713E-03     34.1665E-03
            5708            5749     34.0713E-03     34.1665E-03
            5708            5750     33.7042E-03     33.9203E-03
            5699            5750     33.7042E-03     33.9203E-03
            5700            5750     33.7042E-03     33.9203E-03
            5709            5750     33.7042E-03     33.9203E-03
            5710            5751     33.4884E-03     33.8177E-03
            5709            5751     33.4884E-03     33.8177E-03
            5700            5751     33.4884E-03     33.8177E-03
            5701            5751     33.4884E-03     33.8177E-03
            5710            5752     32.9069E-03     32.9821E-03
            5701            5752     32.9069E-03     32.9821E-03
            5702            5752     32.9069E-03     32.9821E-03
            5711            5752     32.9069E-03     32.9821E-03
            5704            5753     29.2906E-03     29.2698E-03
            5712            5753     29.2906E-03     29.2698E-03
            5713            5753     29.2906E-03     29.2698E-03
            5703            5753     29.2906E-03     29.2698E-03
            5704            5754     34.3875E-03     34.4557E-03
            5713            5754     34.3875E-03     34.4557E-03
            5714            5754     34.3875E-03     34.4557E-03
            5705            5754     34.3875E-03     34.4557E-03
            5714            5755     35.4712E-03     35.5901E-03
            5715            5755     35.4712E-03     35.5901E-03
            5705            5755     35.4712E-03     35.5901E-03
            5706            5755     35.4712E-03     35.5901E-03
            5706            5756     35.3530E-03     35.4139E-03
            5707            5756     35.3530E-03     35.4139E-03
            5715            5756     35.3530E-03     35.4139E-03
            5716            5756     35.3530E-03     35.4139E-03
            5708            5757     35.3191E-03     35.3872E-03
            5716            5757     35.3191E-03     35.3872E-03
            5717            5757     35.3191E-03     35.3872E-03
            5707            5757     35.3191E-03     35.3872E-03
            5717            5758     35.3723E-03     35.5008E-03
            5709            5758     35.3723E-03     35.5008E-03
            5718            5758     35.3723E-03     35.5008E-03
            5708            5758     35.3723E-03     35.5008E-03
            5719            5759     34.1265E-03     34.3420E-03
            5718            5759     34.1265E-03     34.3420E-03
            5710            5759     34.1265E-03     34.3420E-03
            5709            5759     34.1265E-03     34.3420E-03
            5711            5760     28.8163E-03     29.0972E-03
            5720            5760     28.8163E-03     29.0972E-03
            5719            5760     28.8163E-03     29.0972E-03
            5710            5760     28.8163E-03     29.0972E-03
            5713            5761     26.9683E-03     26.9057E-03
            5712            5761     26.9683E-03     26.9057E-03
            5721            5761     26.9683E-03     26.9057E-03
            5722            5761     26.9683E-03     26.9057E-03
            5722            5762     33.7838E-03     33.6191E-03
            5713            5762     33.7838E-03     33.6191E-03
            5714            5762     33.7838E-03     33.6191E-03
            5723            5762     33.7838E-03     33.6191E-03
            5724            5763     35.6126E-03     35.5806E-03
            5723            5763     35.6126E-03     35.5806E-03
            5714            5763     35.6126E-03     35.5806E-03
            5715            5763     35.6126E-03     35.5806E-03
            5724            5764     35.6517E-03     35.6385E-03
            5715            5764     35.6517E-03     35.6385E-03
            5716            5764     35.6517E-03     35.6385E-03
            5725            5764     35.6517E-03     35.6385E-03
            5725            5765     35.6432E-03     35.6133E-03
            5717            5765     35.6432E-03     35.6133E-03
            5716            5765     35.6432E-03     35.6133E-03
            5726            5765     35.6432E-03     35.6133E-03
            5718            5766     35.5962E-03     35.4990E-03
            5727            5766     35.5962E-03     35.4990E-03
            5726            5766     35.5962E-03     35.4990E-03
            5717            5766     35.5962E-03     35.4990E-03
            5718            5767     33.6923E-03     33.5769E-03
            5719            5767     33.6923E-03     33.5769E-03
            5728            5767     33.6923E-03     33.5769E-03
            5727            5767     33.6923E-03     33.5769E-03
            5729            5768     26.6908E-03     26.9755E-03
            5728            5768     26.6908E-03     26.9755E-03
            5720            5768     26.6908E-03     26.9755E-03
            5719            5768     26.6908E-03     26.9755E-03
            5721            5769     27.0623E-03     27.0787E-03
            5722            5769     27.0623E-03     27.0787E-03
            5730            5769     27.0623E-03     27.0787E-03
            5731            5769     27.0623E-03     27.0787E-03
            5722            5770     32.6422E-03     32.5442E-03
            5732            5770     32.6422E-03     32.5442E-03
            5731            5770     32.6422E-03     32.5442E-03
            5723            5770     32.6422E-03     32.5442E-03
            5732            5771     34.5154E-03     34.4098E-03
            5723            5771     34.5154E-03     34.4098E-03
            5724            5771     34.5154E-03     34.4098E-03
            5733            5771     34.5154E-03     34.4098E-03
            5725            5772     35.3201E-03     35.2722E-03
            5734            5772     35.3201E-03     35.2722E-03
            5724            5772     35.3201E-03     35.2722E-03
            5733            5772     35.3201E-03     35.2722E-03
            5734            5773     35.3363E-03     35.2539E-03
            5725            5773     35.3363E-03     35.2539E-03
            5726            5773     35.3363E-03     35.2539E-03
            5735            5773     35.3363E-03     35.2539E-03
            5735            5774     34.5497E-03     34.3783E-03
            5736            5774     34.5497E-03     34.3783E-03
            5727            5774     34.5497E-03     34.3783E-03
            5726            5774     34.5497E-03     34.3783E-03
            5727            5775     32.7608E-03     32.5046E-03
            5736            5775     32.7608E-03     32.5046E-03
            5728            5775     32.7608E-03     32.5046E-03
            5737            5775     32.7608E-03     32.5046E-03
            5738            5776     27.2131E-03     27.2304E-03
            5729            5776     27.2131E-03     27.2304E-03
            5728            5776     27.2131E-03     27.2304E-03
            5737            5776     27.2131E-03     27.2304E-03


  Minimum                            462.302E-06     473.587E-06
      At Element                            5369            5369
            Node                             768             768

  Maximum                            208.990E-03     191.362E-03
      At Element                            3950            3860
            Node                              22             629

           Total                         231.872         230.217


Field Output reported at element nodes for region: A320-1.Region_3
   Computation algorithm: EXTRAPOLATE_COMPUTE_AVERAGE
   Averaged at nodes
   Averaging regions: ODB_REGIONS

   Element Label      Node Label         S.Mises         S.Mises
                                          @Loc 1          @Loc 2
-----------------------------------------------------------------
            1760               1     639.683E-06     636.115E-06
               1               1     639.683E-06     636.115E-06
            3550               2     13.5125E-03     13.4438E-03
            1757               2     13.5125E-03     13.4438E-03
              29               2     13.5125E-03     13.4438E-03
               4               2     13.5125E-03     13.4438E-03
              28               3     4.07701E-03     5.75696E-03
             329               3     4.07701E-03     5.75696E-03
              25               4     152.641E-06     260.161E-06
              78               5     37.8615E-03     40.4377E-03
             379               5     37.8615E-03     40.4377E-03
            2348               5     37.8615E-03     40.4377E-03
            3501               5     37.8615E-03     40.4377E-03
             415               6     185.449E-03     199.842E-03
             378               6     185.449E-03     199.842E-03
            2343               7     45.2874E-03     51.5602E-03
            5288               7     45.2874E-03     51.5602E-03
             421               7     45.2874E-03     51.5602E-03
             384               7     45.2874E-03     51.5602E-03
             457               8     188.970E-03     220.183E-03
             420               8     188.970E-03     220.183E-03
             426               9     35.9522E-03     38.8883E-03
             505               9     35.9522E-03     38.8883E-03
            4106               9     35.9522E-03     38.8883E-03
            5283               9     35.9522E-03     38.8883E-03
             745              10     150.280E-03     158.627E-03
             462              10     150.280E-03     158.627E-03
             463              11     661.241E-06     657.087E-06
            6572              11     661.241E-06     657.087E-06
            4067              12     16.9925E-03     16.9383E-03
             468              12     16.9925E-03     16.9383E-03
            6567              12     16.9925E-03     16.9383E-03
             544              12     16.9925E-03     16.9383E-03
             504              13     4.16745E-03     6.34786E-03
            4307              13     4.16745E-03     6.34786E-03
             499              14     187.281E-06     290.524E-06
            6603              15     3.85419E-03     6.22398E-03
             784              15     3.85419E-03     6.22398E-03
            1781              17     4.58034E-03     6.21580E-03
            3850              17     4.58034E-03     6.21580E-03
            1784              18     152.641E-06     260.161E-06
            3801              21     174.326E-03     187.841E-03
            2384              21     174.326E-03     187.841E-03
            2379              22     249.938E-03     273.187E-03
            5324              22     249.938E-03     273.187E-03
            5319              25     159.627E-03     170.249E-03
            4346              25     159.627E-03     170.249E-03
            6608              27     187.281E-06     290.524E-06
            1760              29     645.134E-06     640.978E-06
               2              29     645.134E-06     640.978E-06
               1              29     645.134E-06     640.978E-06
            1759              29     645.134E-06     640.978E-06
            1759              30     654.147E-06     645.265E-06
               2              30     654.147E-06     645.265E-06
            1758              30     654.147E-06     645.265E-06
               3              30     654.147E-06     645.265E-06
               3              31     648.087E-06     636.370E-06
            1757              31     648.087E-06     636.370E-06
            1758              31     648.087E-06     636.370E-06
               4              31     648.087E-06     636.370E-06
               4              32     12.5587E-03     12.4887E-03
              29              32     12.5587E-03     12.4887E-03
               8              32     12.5587E-03     12.4887E-03
              79              32     12.5587E-03     12.4887E-03
               8              33     10.9209E-03     10.8522E-03
             129              33     10.9209E-03     10.8522E-03
              79              33     10.9209E-03     10.8522E-03
              12              33     10.9209E-03     10.8522E-03
              16              34     8.66808E-03     8.62637E-03
              12              34     8.66808E-03     8.62637E-03
             179              34     8.66808E-03     8.62637E-03
             129              34     8.66808E-03     8.62637E-03
              16              35     5.82310E-03     5.93498E-03
             229              35     5.82310E-03     5.93498E-03
              20              35     5.82310E-03     5.93498E-03
             179              35     5.82310E-03     5.93498E-03
              24              36     2.87726E-03     3.43160E-03
              20              36     2.87726E-03     3.43160E-03
             229              36     2.87726E-03     3.43160E-03
             279              36     2.87726E-03     3.43160E-03
             279              37     2.79357E-03     4.06512E-03
             329              37     2.79357E-03     4.06512E-03
              28              37     2.79357E-03     4.06512E-03
              24              37     2.79357E-03     4.06512E-03
              28              38     418.952E-06     431.992E-06
              27              38     418.952E-06     431.992E-06
              26              39     285.756E-06     250.868E-06
              27              39     285.756E-06     250.868E-06
              25              40     157.437E-06     241.974E-06
              26              40     157.437E-06     241.974E-06
              21              41     168.732E-06     207.222E-06
              25              41     168.732E-06     207.222E-06
              21              42     242.788E-06     222.341E-06
              17              42     242.788E-06     222.341E-06
              17              43     373.026E-06     364.016E-06
              13              43     373.026E-06     364.016E-06
               9              44     488.173E-06     481.635E-06
              13              44     488.173E-06     481.635E-06
               5              45     570.462E-06     564.900E-06
               9              45     570.462E-06     564.900E-06
               1              46     624.779E-06     620.138E-06
               5              46     624.779E-06     620.138E-06
              29              47     26.5428E-03     26.3404E-03
            3550              47     26.5428E-03     26.3404E-03
            3549              47     26.5428E-03     26.3404E-03
              30              47     26.5428E-03     26.3404E-03
            3549              48     26.6501E-03     26.5117E-03
              30              48     26.6501E-03     26.5117E-03
              31              48     26.6501E-03     26.5117E-03
            3548              48     26.6501E-03     26.5117E-03
            3547              49     26.5758E-03     26.4829E-03
            3548              49     26.5758E-03     26.4829E-03
              32              49     26.5758E-03     26.4829E-03
              31              49     26.5758E-03     26.4829E-03
            3547              50     26.5035E-03     26.5662E-03
            3546              50     26.5035E-03     26.5662E-03
              32              50     26.5035E-03     26.5662E-03
              33              50     26.5035E-03     26.5662E-03
              34              51     26.8734E-03     26.6650E-03
            3545              51     26.8734E-03     26.6650E-03
              33              51     26.8734E-03     26.6650E-03
            3546              51     26.8734E-03     26.6650E-03
              35              52     26.7935E-03     26.2290E-03
            3545              52     26.7935E-03     26.2290E-03
              34              52     26.7935E-03     26.2290E-03
            3544              52     26.7935E-03     26.2290E-03
            3544              53     27.5185E-03     27.3079E-03
            3543              53     27.5185E-03     27.3079E-03
              36              53     27.5185E-03     27.3079E-03
              35              53     27.5185E-03     27.3079E-03
              37              54     28.8605E-03     28.5233E-03
            3543              54     28.8605E-03     28.5233E-03
              36              54     28.8605E-03     28.5233E-03
            3542              54     28.8605E-03     28.5233E-03
              38              55     29.1137E-03     28.4612E-03
            3542              55     29.1137E-03     28.4612E-03
              37              55     29.1137E-03     28.4612E-03
            3541              55     29.1137E-03     28.4612E-03
              39              56     29.2287E-03     28.6545E-03
              38              56     29.2287E-03     28.6545E-03
            3540              56     29.2287E-03     28.6545E-03
            3541              56     29.2287E-03     28.6545E-03
            3540              57     29.2836E-03     28.7983E-03
              40              57     29.2836E-03     28.7983E-03
            3539              57     29.2836E-03     28.7983E-03
              39              57     29.2836E-03     28.7983E-03
            3539              58     29.2729E-03     29.0395E-03
              41              58     29.2729E-03     29.0395E-03
            3538              58     29.2729E-03     29.0395E-03
              40              58     29.2729E-03     29.0395E-03
            3537              59     29.3231E-03     29.3897E-03
            3538              59     29.3231E-03     29.3897E-03
              42              59     29.3231E-03     29.3897E-03
              41              59     29.3231E-03     29.3897E-03
            3537              60     29.3526E-03     29.5070E-03
              43              60     29.3526E-03     29.5070E-03
            3536              60     29.3526E-03     29.5070E-03
              42              60     29.3526E-03     29.5070E-03
              44              61     29.1100E-03     30.0096E-03
            3535              61     29.1100E-03     30.0096E-03
              43              61     29.1100E-03     30.0096E-03
            3536              61     29.1100E-03     30.0096E-03
            3535              62     30.1325E-03     30.2356E-03
            3534              62     30.1325E-03     30.2356E-03
              44              62     30.1325E-03     30.2356E-03
              45              62     30.1325E-03     30.2356E-03
            3534              63     30.0672E-03     29.1717E-03
            3533              63     30.0672E-03     29.1717E-03
              46              63     30.0672E-03     29.1717E-03
              45              63     30.0672E-03     29.1717E-03
              47              64     30.1702E-03     30.3360E-03
            3533              64     30.1702E-03     30.3360E-03
              46              64     30.1702E-03     30.3360E-03
            3532              64     30.1702E-03     30.3360E-03
              48              65     31.6671E-03     31.4147E-03
            3531              65     31.6671E-03     31.4147E-03
            3532              65     31.6671E-03     31.4147E-03
              47              65     31.6671E-03     31.4147E-03
            3531              66     32.2382E-03     31.0177E-03
              48              66     32.2382E-03     31.0177E-03
              49              66     32.2382E-03     31.0177E-03
            3530              66     32.2382E-03     31.0177E-03
              49              67     32.5719E-03     31.5916E-03
            3530              67     32.5719E-03     31.5916E-03
            3529              67     32.5719E-03     31.5916E-03
              50              67     32.5719E-03     31.5916E-03
              50              68     32.6640E-03     31.8929E-03
            3528              68     32.6640E-03     31.8929E-03
              51              68     32.6640E-03     31.8929E-03
            3529              68     32.6640E-03     31.8929E-03
            3528              69     32.6423E-03     32.3442E-03
            3527              69     32.6423E-03     32.3442E-03
              52              69     32.6423E-03     32.3442E-03
              51              69     32.6423E-03     32.3442E-03
              52              70     32.6920E-03     32.9457E-03
            3526              70     32.6920E-03     32.9457E-03
              53              70     32.6920E-03     32.9457E-03
            3527              70     32.6920E-03     32.9457E-03
            3525              71     32.6859E-03     33.0818E-03
              54              71     32.6859E-03     33.0818E-03
              53              71     32.6859E-03     33.0818E-03
            3526              71     32.6859E-03     33.0818E-03
              55              72     32.2019E-03     33.8580E-03
            3525              72     32.2019E-03     33.8580E-03
            3524              72     32.2019E-03     33.8580E-03
              54              72     32.2019E-03     33.8580E-03
              55              73     33.8037E-03     34.0457E-03
            3524              73     33.8037E-03     34.0457E-03
              56              73     33.8037E-03     34.0457E-03
            3523              73     33.8037E-03     34.0457E-03
              57              74     33.5823E-03     32.3392E-03
              56              74     33.5823E-03     32.3392E-03
            3522              74     33.5823E-03     32.3392E-03
            3523              74     33.5823E-03     32.3392E-03
            3521              75     33.2171E-03     33.9799E-03
            3522              75     33.2171E-03     33.9799E-03
              57              75     33.2171E-03     33.9799E-03
              58              75     33.2171E-03     33.9799E-03
              59              76     35.3457E-03     35.1239E-03
            3520              76     35.3457E-03     35.1239E-03
              58              76     35.3457E-03     35.1239E-03
            3521              76     35.3457E-03     35.1239E-03
              60              77     36.2996E-03     34.4395E-03
            3519              77     36.2996E-03     34.4395E-03
            3520              77     36.2996E-03     34.4395E-03
              59              77     36.2996E-03     34.4395E-03
            3518              78     36.7043E-03     35.4334E-03
            3519              78     36.7043E-03     35.4334E-03
              60              78     36.7043E-03     35.4334E-03
              61              78     36.7043E-03     35.4334E-03
            3517              79     36.8520E-03     35.8120E-03
              62              79     36.8520E-03     35.8120E-03
              61              79     36.8520E-03     35.8120E-03
            3518              79     36.8520E-03     35.8120E-03
            3517              80     36.7958E-03     36.4590E-03
            3516              80     36.7958E-03     36.4590E-03
              63              80     36.7958E-03     36.4590E-03
              62              80     36.7958E-03     36.4590E-03
            3516              81     36.8076E-03     37.2620E-03
            3515              81     36.8076E-03     37.2620E-03
              64              81     36.8076E-03     37.2620E-03
              63              81     36.8076E-03     37.2620E-03
              65              82     36.7357E-03     37.3556E-03
            3514              82     36.7357E-03     37.3556E-03
              64              82     36.7357E-03     37.3556E-03
            3515              82     36.7357E-03     37.3556E-03
            3514              83     35.9578E-03     38.3682E-03
            3513              83     35.9578E-03     38.3682E-03
              65              83     35.9578E-03     38.3682E-03
              66              83     35.9578E-03     38.3682E-03
              67              84     38.1134E-03     38.4433E-03
            3513              84     38.1134E-03     38.4433E-03
            3512              84     38.1134E-03     38.4433E-03
              66              84     38.1134E-03     38.4433E-03
              68              85     37.6615E-03     36.0605E-03
            3511              85     37.6615E-03     36.0605E-03
            3512              85     37.6615E-03     36.0605E-03
              67              85     37.6615E-03     36.0605E-03
              68              86     36.7839E-03     38.3315E-03
            3511              86     36.7839E-03     38.3315E-03
            3510              86     36.7839E-03     38.3315E-03
              69              86     36.7839E-03     38.3315E-03
            3509              87     39.7200E-03     39.7130E-03
            3510              87     39.7200E-03     39.7130E-03
              70              87     39.7200E-03     39.7130E-03
              69              87     39.7200E-03     39.7130E-03
              71              88     40.9448E-03     38.8174E-03
            3508              88     40.9448E-03     38.8174E-03
              70              88     40.9448E-03     38.8174E-03
            3509              88     40.9448E-03     38.8174E-03
            3508              89     41.3118E-03     40.2412E-03
              72              89     41.3118E-03     40.2412E-03
            3507              89     41.3118E-03     40.2412E-03
              71              89     41.3118E-03     40.2412E-03
            3507              90     41.1277E-03     40.6857E-03
              73              90     41.1277E-03     40.6857E-03
            3506              90     41.1277E-03     40.6857E-03
              72              90     41.1277E-03     40.6857E-03
              74              91     41.2413E-03     41.3413E-03
            3506              91     41.2413E-03     41.3413E-03
              73              91     41.2413E-03     41.3413E-03
            3505              91     41.2413E-03     41.3413E-03
            3505              92     40.9710E-03     41.4045E-03
              75              92     40.9710E-03     41.4045E-03
            3504              92     40.9710E-03     41.4045E-03
              74              92     40.9710E-03     41.4045E-03
              76              93     39.8282E-03     42.5370E-03
            3504              93     39.8282E-03     42.5370E-03
            3503              93     39.8282E-03     42.5370E-03
              75              93     39.8282E-03     42.5370E-03
              77              94     42.3140E-03     42.4784E-03
            3502              94     42.3140E-03     42.4784E-03
              76              94     42.3140E-03     42.4784E-03
            3503              94     42.3140E-03     42.4784E-03
            3501              95     41.5562E-03     39.5508E-03
              78              95     41.5562E-03     39.5508E-03
            3502              95     41.5562E-03     39.5508E-03
              77              95     41.5562E-03     39.5508E-03
             379              96     56.5117E-03     64.7538E-03
             385              96     56.5117E-03     64.7538E-03
              78              96     56.5117E-03     64.7538E-03
             128              96     56.5117E-03     64.7538E-03
             385              97     85.4373E-03     94.4887E-03
             391              97     85.4373E-03     94.4887E-03
             128              97     85.4373E-03     94.4887E-03
             178              97     85.4373E-03     94.4887E-03
             178              98     113.677E-03     128.153E-03
             391              98     113.677E-03     128.153E-03
             228              98     113.677E-03     128.153E-03
             397              98     113.677E-03     128.153E-03
             228              99     138.038E-03     159.774E-03
             403              99     138.038E-03     159.774E-03
             397              99     138.038E-03     159.774E-03
             278              99     138.038E-03     159.774E-03
             409             100     156.810E-03     183.394E-03
             278             100     156.810E-03     183.394E-03
             328             100     156.810E-03     183.394E-03
             403             100     156.810E-03     183.394E-03
             328             101     175.038E-03     195.847E-03
             378             101     175.038E-03     195.847E-03
             409             101     175.038E-03     195.847E-03
             415             101     175.038E-03     195.847E-03
             377             102     207.276E-03     199.533E-03
             378             102     207.276E-03     199.533E-03
             377             103     197.168E-03     185.996E-03
             376             103     197.168E-03     185.996E-03
             376             104     177.789E-03     183.161E-03
             375             104     177.789E-03     183.161E-03
             375             105     175.062E-03     171.051E-03
             374             105     175.062E-03     171.051E-03
             374             106     167.095E-03     167.072E-03
             373             106     167.095E-03     167.072E-03
             372             107     161.506E-03     158.596E-03
             373             107     161.506E-03     158.596E-03
             372             108     152.512E-03     155.197E-03
             371             108     152.512E-03     155.197E-03
             370             109     152.892E-03     144.636E-03
             371             109     152.892E-03     144.636E-03
             369             110     147.453E-03     140.485E-03
             370             110     147.453E-03     140.485E-03
             369             111     145.491E-03     162.692E-03
             368             111     145.491E-03     162.692E-03
             368             112     164.577E-03     158.572E-03
             367             112     164.577E-03     158.572E-03
             367             113     155.456E-03     146.791E-03
             366             113     155.456E-03     146.791E-03
             366             114     139.075E-03     143.462E-03
             365             114     139.075E-03     143.462E-03
             365             115     136.034E-03     132.889E-03
             364             115     136.034E-03     132.889E-03
             363             116     128.884E-03     128.686E-03
             364             116     128.884E-03     128.686E-03
             362             117     123.126E-03     122.425E-03
             363             117     123.126E-03     122.425E-03
             361             118     117.509E-03     115.568E-03
             362             118     117.509E-03     115.568E-03
             361             119     109.813E-03     111.364E-03
             360             119     109.813E-03     111.364E-03
             359             120     107.985E-03     102.361E-03
             360             120     107.985E-03     102.361E-03
             359             121     102.530E-03     97.3465E-03
             358             121     102.530E-03     97.3465E-03
             357             122     103.043E-03     115.176E-03
             358             122     103.043E-03     115.176E-03
             357             123     118.475E-03     114.392E-03
             356             123     118.475E-03     114.392E-03
             356             124     110.371E-03     104.222E-03
             355             124     110.371E-03     104.222E-03
             355             125     96.9249E-03     100.268E-03
             354             125     96.9249E-03     100.268E-03
             354             126     93.4086E-03     91.1450E-03
             353             126     93.4086E-03     91.1450E-03
             352             127     86.8364E-03     86.7799E-03
             353             127     86.8364E-03     86.7799E-03
             352             128     81.3640E-03     80.8326E-03
             351             128     81.3640E-03     80.8326E-03
             351             129     75.8014E-03     74.6889E-03
             350             129     75.8014E-03     74.6889E-03
             350             130     69.0994E-03     69.7594E-03
             349             130     69.0994E-03     69.7594E-03
             348             131     65.1645E-03     61.9707E-03
             349             131     65.1645E-03     61.9707E-03
             347             132     59.3186E-03     56.0761E-03
             348             132     59.3186E-03     56.0761E-03
             346             133     62.3142E-03     69.6293E-03
             347             133     62.3142E-03     69.6293E-03
             345             134     74.4789E-03     72.2476E-03
             346             134     74.4789E-03     72.2476E-03
             345             135     67.3987E-03     63.6767E-03
             344             135     67.3987E-03     63.6767E-03
             343             136     56.8268E-03     59.1801E-03
             344             136     56.8268E-03     59.1801E-03
             342             137     52.9231E-03     51.5033E-03
             343             137     52.9231E-03     51.5033E-03
             342             138     46.9638E-03     47.0411E-03
             341             138     46.9638E-03     47.0411E-03
             340             139     41.8334E-03     41.4698E-03
             341             139     41.8334E-03     41.4698E-03
             339             140     36.4130E-03     36.0834E-03
             340             140     36.4130E-03     36.0834E-03
             339             141     30.6903E-03     30.5743E-03
             338             141     30.6903E-03     30.5743E-03
             337             142     24.7177E-03     24.0585E-03
             338             142     24.7177E-03     24.0585E-03
             336             143     18.3481E-03     17.1158E-03
             337             143     18.3481E-03     17.1158E-03
             336             144     22.8670E-03     25.5018E-03
             335             144     22.8670E-03     25.5018E-03
             334             145     31.0433E-03     30.6249E-03
             335             145     31.0433E-03     30.6249E-03
             333             146     24.9175E-03     23.4147E-03
             334             146     24.9175E-03     23.4147E-03
             333             147     17.1483E-03     18.4889E-03
             332             147     17.1483E-03     18.4889E-03
             332             148     13.1424E-03     12.5442E-03
             331             148     13.1424E-03     12.5442E-03
             330             149     9.26818E-03     9.50206E-03
             331             149     9.26818E-03     9.50206E-03
             330             150     7.87148E-03     9.63976E-03
             329             150     7.87148E-03     9.63976E-03
            2348             151     45.1744E-03     46.3940E-03
             379             151     45.1744E-03     46.3940E-03
            2347             151     45.1744E-03     46.3940E-03
             380             151     45.1744E-03     46.3940E-03
             381             152     53.8388E-03     51.7468E-03
            2347             152     53.8388E-03     51.7468E-03
             380             152     53.8388E-03     51.7468E-03
            2346             152     53.8388E-03     51.7468E-03
            2345             153     53.1838E-03     53.6639E-03
             382             153     53.1838E-03     53.6639E-03
             381             153     53.1838E-03     53.6639E-03
            2346             153     53.1838E-03     53.6639E-03
            2345             154     50.8785E-03     52.2629E-03
             382             154     50.8785E-03     52.2629E-03
            2344             154     50.8785E-03     52.2629E-03
             383             154     50.8785E-03     52.2629E-03
             383             155     51.4189E-03     57.8005E-03
             384             155     51.4189E-03     57.8005E-03
            2343             155     51.4189E-03     57.8005E-03
            2344             155     51.4189E-03     57.8005E-03
             427             156     43.0942E-03     44.8689E-03
             390             156     43.0942E-03     44.8689E-03
             384             156     43.0942E-03     44.8689E-03
             421             156     43.0942E-03     44.8689E-03
             427             157     64.4641E-03     71.0154E-03
             390             157     64.4641E-03     71.0154E-03
             396             157     64.4641E-03     71.0154E-03
             433             157     64.4641E-03     71.0154E-03
             402             158     92.6457E-03     108.467E-03
             396             158     92.6457E-03     108.467E-03
             439             158     92.6457E-03     108.467E-03
             433             158     92.6457E-03     108.467E-03
             408             159     118.359E-03     149.878E-03
             439             159     118.359E-03     149.878E-03
             445             159     118.359E-03     149.878E-03
             402             159     118.359E-03     149.878E-03
             445             160     138.864E-03     186.620E-03
             414             160     138.864E-03     186.620E-03
             408             160     138.864E-03     186.620E-03
             451             160     138.864E-03     186.620E-03
             420             161     168.227E-03     210.701E-03
             414             161     168.227E-03     210.701E-03
             457             161     168.227E-03     210.701E-03
             451             161     168.227E-03     210.701E-03
             420             162     202.004E-03     194.910E-03
             419             162     202.004E-03     194.910E-03
             419             163     192.691E-03     184.616E-03
             418             163     192.691E-03     184.616E-03
             418             164     183.998E-03     178.377E-03
             417             164     183.998E-03     178.377E-03
             417             165     181.891E-03     171.322E-03
             416             165     181.891E-03     171.322E-03
             415             166     170.585E-03     181.313E-03
             416             166     170.585E-03     181.313E-03
             422             167     42.7988E-03     39.0295E-03
            5288             167     42.7988E-03     39.0295E-03
            5287             167     42.7988E-03     39.0295E-03
             421             167     42.7988E-03     39.0295E-03
            5287             168     43.5854E-03     41.8495E-03
            5286             168     43.5854E-03     41.8495E-03
             423             168     43.5854E-03     41.8495E-03
             422             168     43.5854E-03     41.8495E-03
            5286             169     40.4837E-03     42.0485E-03
             423             169     40.4837E-03     42.0485E-03
             424             169     40.4837E-03     42.0485E-03
            5285             169     40.4837E-03     42.0485E-03
            5284             170     40.7859E-03     39.7944E-03
             424             170     40.7859E-03     39.7944E-03
             425             170     40.7859E-03     39.7944E-03
            5285             170     40.7859E-03     39.7944E-03
             425             171     39.9598E-03     42.0936E-03
            5284             171     39.9598E-03     42.0936E-03
            5283             171     39.9598E-03     42.0936E-03
             426             171     39.9598E-03     42.0936E-03
             426             172     41.3604E-03     45.0023E-03
             432             172     41.3604E-03     45.0023E-03
             505             172     41.3604E-03     45.0023E-03
             545             172     41.3604E-03     45.0023E-03
             585             173     64.0118E-03     69.8576E-03
             545             173     64.0118E-03     69.8576E-03
             432             173     64.0118E-03     69.8576E-03
             438             173     64.0118E-03     69.8576E-03
             438             174     89.1057E-03     98.2126E-03
             625             174     89.1057E-03     98.2126E-03
             585             174     89.1057E-03     98.2126E-03
             444             174     89.1057E-03     98.2126E-03
             665             175     111.528E-03     126.775E-03
             625             175     111.528E-03     126.775E-03
             450             175     111.528E-03     126.775E-03
             444             175     111.528E-03     126.775E-03
             705             176     130.273E-03     149.953E-03
             456             176     130.273E-03     149.953E-03
             665             176     130.273E-03     149.953E-03
             450             176     130.273E-03     149.953E-03
             705             177     144.530E-03     158.706E-03
             745             177     144.530E-03     158.706E-03
             456             177     144.530E-03     158.706E-03
             462             177     144.530E-03     158.706E-03
             461             178     164.042E-03     156.300E-03
             462             178     164.042E-03     156.300E-03
             461             179     171.678E-03     159.143E-03
             460             179     171.678E-03     159.143E-03
             459             180     168.393E-03     177.837E-03
             460             180     168.393E-03     177.837E-03
             459             181     192.247E-03     177.482E-03
             458             181     192.247E-03     177.482E-03
             458             182     201.297E-03     195.206E-03
             457             182     201.297E-03     195.206E-03
            6572             183     667.222E-06     660.457E-06
             464             183     667.222E-06     660.457E-06
             463             183     667.222E-06     660.457E-06
            6571             183     667.222E-06     660.457E-06
             465             184     669.763E-06     663.193E-06
            6570             184     669.763E-06     663.193E-06
            6571             184     669.763E-06     663.193E-06
             464             184     669.763E-06     663.193E-06
             465             185     664.504E-06     664.842E-06
             466             185     664.504E-06     664.842E-06
            6570             185     664.504E-06     664.842E-06
            6569             185     664.504E-06     664.842E-06
            6569             186     672.013E-06     665.687E-06
             467             186     672.013E-06     665.687E-06
             466             186     672.013E-06     665.687E-06
            6568             186     672.013E-06     665.687E-06
             468             187     669.943E-06     653.142E-06
             467             187     669.943E-06     653.142E-06
            6567             187     669.943E-06     653.142E-06
            6568             187     669.943E-06     653.142E-06
             474             188     16.1405E-03     16.0499E-03
            4107             188     16.1405E-03     16.0499E-03
            4067             188     16.1405E-03     16.0499E-03
             468             188     16.1405E-03     16.0499E-03
             474             189     14.4661E-03     14.3716E-03
             480             189     14.4661E-03     14.3716E-03
            4147             189     14.4661E-03     14.3716E-03
            4107             189     14.4661E-03     14.3716E-03
             486             190     12.0921E-03     11.9601E-03
            4147             190     12.0921E-03     11.9601E-03
            4187             190     12.0921E-03     11.9601E-03
             480             190     12.0921E-03     11.9601E-03
            4187             191     8.99822E-03     8.82777E-03
             492             191     8.99822E-03     8.82777E-03
             486             191     8.99822E-03     8.82777E-03
            4227             191     8.99822E-03     8.82777E-03
             498             192     5.33120E-03     5.41600E-03
            4227             192     5.33120E-03     5.41600E-03
             492             192     5.33120E-03     5.41600E-03
            4267             192     5.33120E-03     5.41600E-03
            4307             193     3.79836E-03     5.04333E-03
             498             193     3.79836E-03     5.04333E-03
             504             193     3.79836E-03     5.04333E-03
            4267             193     3.79836E-03     5.04333E-03
             503             194     701.378E-06     696.900E-06
             504             194     701.378E-06     696.900E-06
             503             195     522.980E-06     493.299E-06
             502             195     522.980E-06     493.299E-06
             501             196     312.899E-06     343.698E-06
             502             196     312.899E-06     343.698E-06
             501             197     221.105E-06     200.413E-06
             500             197     221.105E-06     200.413E-06
             500             198     176.841E-06     234.172E-06
             499             198     176.841E-06     234.172E-06
             493             199     170.349E-06     228.477E-06
             499             199     170.349E-06     228.477E-06
             493             200     214.143E-06     225.814E-06
             487             200     214.143E-06     225.814E-06
             487             201     361.171E-06     360.971E-06
             481             201     361.171E-06     360.971E-06
             475             202     496.421E-06     488.243E-06
             481             202     496.421E-06     488.243E-06
             475             203     586.042E-06     580.265E-06
             469             203     586.042E-06     580.265E-06
             463             204     643.977E-06     638.938E-06
             469             204     643.977E-06     638.938E-06
            4105             205     36.6511E-03     36.2455E-03
            4106             205     36.6511E-03     36.2455E-03
             505             205     36.6511E-03     36.2455E-03
             506             205     36.6511E-03     36.2455E-03
             507             206     43.7097E-03     41.6905E-03
             506             206     43.7097E-03     41.6905E-03
            4105             206     43.7097E-03     41.6905E-03
            4104             206     43.7097E-03     41.6905E-03
             508             207     44.2226E-03     44.8950E-03
            4103             207     44.2226E-03     44.8950E-03
            4104             207     44.2226E-03     44.8950E-03
             507             207     44.2226E-03     44.8950E-03
             509             208     42.0937E-03     44.7972E-03
            4103             208     42.0937E-03     44.7972E-03
            4102             208     42.0937E-03     44.7972E-03
             508             208     42.0937E-03     44.7972E-03
            4101             209     43.1050E-03     43.9191E-03
             509             209     43.1050E-03     43.9191E-03
             510             209     43.1050E-03     43.9191E-03
            4102             209     43.1050E-03     43.9191E-03
             510             210     43.4371E-03     43.9653E-03
             511             210     43.4371E-03     43.9653E-03
            4100             210     43.4371E-03     43.9653E-03
            4101             210     43.4371E-03     43.9653E-03
             512             211     43.6041E-03     43.1873E-03
            4100             211     43.6041E-03     43.1873E-03
            4099             211     43.6041E-03     43.1873E-03
             511             211     43.6041E-03     43.1873E-03
            4099             212     43.8325E-03     42.6309E-03
             513             212     43.8325E-03     42.6309E-03
             512             212     43.8325E-03     42.6309E-03
            4098             212     43.8325E-03     42.6309E-03
            4097             213     43.9003E-03     42.2162E-03
            4098             213     43.9003E-03     42.2162E-03
             514             213     43.9003E-03     42.2162E-03
             513             213     43.9003E-03     42.2162E-03
            4097             214     43.3676E-03     41.2480E-03
            4096             214     43.3676E-03     41.2480E-03
             514             214     43.3676E-03     41.2480E-03
             515             214     43.3676E-03     41.2480E-03
            4095             215     42.4450E-03     42.3985E-03
             515             215     42.4450E-03     42.3985E-03
             516             215     42.4450E-03     42.3985E-03
            4096             215     42.4450E-03     42.3985E-03
             517             216     40.3184E-03     40.6849E-03
            4094             216     40.3184E-03     40.6849E-03
             516             216     40.3184E-03     40.6849E-03
            4095             216     40.3184E-03     40.6849E-03
            4093             217     40.3903E-03     38.7830E-03
             518             217     40.3903E-03     38.7830E-03
             517             217     40.3903E-03     38.7830E-03
            4094             217     40.3903E-03     38.7830E-03
            4092             218     40.5997E-03     41.1472E-03
            4093             218     40.5997E-03     41.1472E-03
             518             218     40.5997E-03     41.1472E-03
             519             218     40.5997E-03     41.1472E-03
             520             219     38.9528E-03     40.9620E-03
            4092             219     38.9528E-03     40.9620E-03
            4091             219     38.9528E-03     40.9620E-03
             519             219     38.9528E-03     40.9620E-03
            4090             220     39.5240E-03     40.2775E-03
             520             220     39.5240E-03     40.2775E-03
             521             220     39.5240E-03     40.2775E-03
            4091             220     39.5240E-03     40.2775E-03
            4089             221     39.6137E-03     40.2232E-03
             522             221     39.6137E-03     40.2232E-03
            4090             221     39.6137E-03     40.2232E-03
             521             221     39.6137E-03     40.2232E-03
            4089             222     39.6645E-03     39.6259E-03
             523             222     39.6645E-03     39.6259E-03
             522             222     39.6645E-03     39.6259E-03
            4088             222     39.6645E-03     39.6259E-03
             523             223     39.8806E-03     39.0259E-03
            4088             223     39.8806E-03     39.0259E-03
            4087             223     39.8806E-03     39.0259E-03
             524             223     39.8806E-03     39.0259E-03
             524             224     39.8275E-03     38.6907E-03
             525             224     39.8275E-03     38.6907E-03
            4087             224     39.8275E-03     38.6907E-03
            4086             224     39.8275E-03     38.6907E-03
            4085             225     39.8760E-03     38.4183E-03
             525             225     39.8760E-03     38.4183E-03
             526             225     39.8760E-03     38.4183E-03
            4086             225     39.8760E-03     38.4183E-03
            4085             226     39.4736E-03     37.9491E-03
            4084             226     39.4736E-03     37.9491E-03
             526             226     39.4736E-03     37.9491E-03
             527             226     39.4736E-03     37.9491E-03
            4084             227     38.9379E-03     38.6144E-03
             527             227     38.9379E-03     38.6144E-03
             528             227     38.9379E-03     38.6144E-03
            4083             227     38.9379E-03     38.6144E-03
             528             228     37.3564E-03     37.2038E-03
             529             228     37.3564E-03     37.2038E-03
            4083             228     37.3564E-03     37.2038E-03
            4082             228     37.3564E-03     37.2038E-03
             530             229     37.0512E-03     35.9498E-03
             529             229     37.0512E-03     35.9498E-03
            4081             229     37.0512E-03     35.9498E-03
            4082             229     37.0512E-03     35.9498E-03
             531             230     37.1483E-03     37.3305E-03
            4080             230     37.1483E-03     37.3305E-03
             530             230     37.1483E-03     37.3305E-03
            4081             230     37.1483E-03     37.3305E-03
            4080             231     36.2346E-03     37.1062E-03
            4079             231     36.2346E-03     37.1062E-03
             532             231     36.2346E-03     37.1062E-03
             531             231     36.2346E-03     37.1062E-03
            4078             232     36.5677E-03     36.7050E-03
             532             232     36.5677E-03     36.7050E-03
             533             232     36.5677E-03     36.7050E-03
            4079             232     36.5677E-03     36.7050E-03
             534             233     36.6447E-03     36.6762E-03
             533             233     36.6447E-03     36.6762E-03
            4077             233     36.6447E-03     36.6762E-03
            4078             233     36.6447E-03     36.6762E-03
            4076             234     36.6848E-03     36.4045E-03
             534             234     36.6848E-03     36.4045E-03
             535             234     36.6848E-03     36.4045E-03
            4077             234     36.6848E-03     36.4045E-03
             535             235     36.7699E-03     36.2402E-03
            4075             235     36.7699E-03     36.2402E-03
            4076             235     36.7699E-03     36.2402E-03
             536             235     36.7699E-03     36.2402E-03
            4075             236     36.7736E-03     36.1754E-03
             536             236     36.7736E-03     36.1754E-03
            4074             236     36.7736E-03     36.1754E-03
             537             236     36.7736E-03     36.1754E-03
            4074             237     36.7546E-03     36.0531E-03
            4073             237     36.7546E-03     36.0531E-03
             537             237     36.7546E-03     36.0531E-03
             538             237     36.7546E-03     36.0531E-03
            4072             238     36.5209E-03     36.0909E-03
             538             238     36.5209E-03     36.0909E-03
             539             238     36.5209E-03     36.0909E-03
            4073             238     36.5209E-03     36.0909E-03
             539             239     34.7716E-03     34.4363E-03
            4072             239     34.7716E-03     34.4363E-03
            4071             239     34.7716E-03     34.4363E-03
             540             239     34.7716E-03     34.4363E-03
            4070             240     33.6183E-03     32.9983E-03
             540             240     33.6183E-03     32.9983E-03
             541             240     33.6183E-03     32.9983E-03
            4071             240     33.6183E-03     32.9983E-03
             541             241     33.6795E-03     33.4935E-03
             542             241     33.6795E-03     33.4935E-03
            4070             241     33.6795E-03     33.4935E-03
            4069             241     33.6795E-03     33.4935E-03
            4068             242     33.4548E-03     33.4094E-03
            4069             242     33.4548E-03     33.4094E-03
             543             242     33.4548E-03     33.4094E-03
             542             242     33.4548E-03     33.4094E-03
            4068             243     33.4613E-03     33.2169E-03
             544             243     33.4613E-03     33.2169E-03
            4067             243     33.4613E-03     33.2169E-03
             543             243     33.4613E-03     33.2169E-03
            6567             244     17.0335E-03     16.9371E-03
            6573             244     17.0335E-03     16.9371E-03
             544             244     17.0335E-03     16.9371E-03
             584             244     17.0335E-03     16.9371E-03
            6573             245     16.2021E-03     16.1005E-03
             624             245     16.2021E-03     16.1005E-03
            6579             245     16.2021E-03     16.1005E-03
             584             245     16.2021E-03     16.1005E-03
            6579             246     14.5727E-03     14.4404E-03
             664             246     14.5727E-03     14.4404E-03
            6585             246     14.5727E-03     14.4404E-03
             624             246     14.5727E-03     14.4404E-03
             704             247     12.0595E-03     11.9310E-03
             664             247     12.0595E-03     11.9310E-03
            6591             247     12.0595E-03     11.9310E-03
            6585             247     12.0595E-03     11.9310E-03
            6597             248     8.79549E-03     8.88276E-03
             744             248     8.79549E-03     8.88276E-03
            6591             248     8.79549E-03     8.88276E-03
             704             248     8.79549E-03     8.88276E-03
             784             249     5.45940E-03     6.75961E-03
             744             249     5.45940E-03     6.75961E-03
            6603             249     5.45940E-03     6.75961E-03
            6597             249     5.45940E-03     6.75961E-03
             783             250     4.24455E-03     7.09001E-03
             784             250     4.24455E-03     7.09001E-03
             783             251     5.27172E-03     6.75332E-03
             782             251     5.27172E-03     6.75332E-03
             781             252     15.9597E-03     13.5697E-03
             782             252     15.9597E-03     13.5697E-03
             780             253     23.7995E-03     24.3554E-03
             781             253     23.7995E-03     24.3554E-03
             780             254     19.9616E-03     22.3100E-03
             779             254     19.9616E-03     22.3100E-03
             778             255     16.0055E-03     13.9514E-03
             779             255     16.0055E-03     13.9514E-03
             777             256     19.8496E-03     18.6906E-03
             778             256     19.8496E-03     18.6906E-03
             777             257     25.8926E-03     25.1001E-03
             776             257     25.8926E-03     25.1001E-03
             776             258     32.1417E-03     31.7591E-03
             775             258     32.1417E-03     31.7591E-03
             774             259     38.5247E-03     38.0404E-03
             775             259     38.5247E-03     38.0404E-03
             774             260     44.6037E-03     44.6857E-03
             773             260     44.6037E-03     44.6857E-03
             772             261     51.5177E-03     50.2065E-03
             773             261     51.5177E-03     50.2065E-03
             772             262     56.4895E-03     59.1410E-03
             771             262     56.4895E-03     59.1410E-03
             770             263     68.3175E-03     64.2874E-03
             771             263     68.3175E-03     64.2874E-03
             770             264     75.8824E-03     74.3935E-03
             769             264     75.8824E-03     74.3935E-03
             768             265     64.1953E-03     71.4248E-03
             769             265     64.1953E-03     71.4248E-03
             768             266     60.8222E-03     56.1247E-03
             767             266     60.8222E-03     56.1247E-03
             767             267     65.4345E-03     61.4942E-03
             766             267     65.4345E-03     61.4942E-03
             765             268     69.1342E-03     69.3469E-03
             766             268     69.1342E-03     69.3469E-03
             765             269     76.3774E-03     74.8908E-03
             764             269     76.3774E-03     74.8908E-03
             763             270     82.5109E-03     81.8150E-03
             764             270     82.5109E-03     81.8150E-03
             763             271     88.8031E-03     88.1162E-03
             762             271     88.8031E-03     88.1162E-03
             762             272     95.0316E-03     94.8833E-03
             761             272     95.0316E-03     94.8833E-03
             761             273     102.409E-03     100.105E-03
             760             273     102.409E-03     100.105E-03
             759             274     106.655E-03     110.573E-03
             760             274     106.655E-03     110.573E-03
             759             275     121.874E-03     114.784E-03
             758             275     121.874E-03     114.784E-03
             757             276     130.338E-03     126.610E-03
             758             276     130.338E-03     126.610E-03
             756             277     114.081E-03     127.379E-03
             757             277     114.081E-03     127.379E-03
             755             278     113.620E-03     106.621E-03
             756             278     113.620E-03     106.621E-03
             754             279     118.080E-03     111.255E-03
             755             279     118.080E-03     111.255E-03
             754             280     119.355E-03     120.597E-03
             753             280     119.355E-03     120.597E-03
             752             281     127.721E-03     125.391E-03
             753             281     127.721E-03     125.391E-03
             752             282     134.088E-03     133.112E-03
             751             282     134.088E-03     133.112E-03
             751             283     140.704E-03     140.342E-03
             750             283     140.704E-03     140.342E-03
             749             284     148.819E-03     145.466E-03
             750             284     148.819E-03     145.466E-03
             748             285     152.706E-03     157.662E-03
             749             285     152.706E-03     157.662E-03
             748             286     171.320E-03     161.280E-03
             747             286     171.320E-03     161.280E-03
             747             287     181.023E-03     175.089E-03
             746             287     181.023E-03     175.089E-03
             745             288     160.453E-03     174.538E-03
             746             288     160.453E-03     174.538E-03
            1782             306     418.952E-06     431.992E-06
            1781             306     418.952E-06     431.992E-06
            1783             307     285.756E-06     250.868E-06
            1782             307     285.756E-06     250.868E-06
            1784             308     157.437E-06     241.974E-06
            1783             308     157.437E-06     241.974E-06
            1760             412     624.779E-06     620.138E-06
            1764             412     624.779E-06     620.138E-06
            1764             413     570.462E-06     564.900E-06
            1768             413     570.462E-06     564.900E-06
            1772             414     488.173E-06     481.635E-06
            1768             414     488.173E-06     481.635E-06
            1776             415     373.026E-06     364.016E-06
            1772             415     373.026E-06     364.016E-06
            1776             416     242.788E-06     222.341E-06
            1780             416     242.788E-06     222.341E-06
            1780             417     168.732E-06     207.222E-06
            1784             417     168.732E-06     207.222E-06
            3800             418     5.65414E-03     6.58459E-03
            1777             418     5.65414E-03     6.58459E-03
            3850             418     5.65414E-03     6.58459E-03
            1781             418     5.65414E-03     6.58459E-03
            3800             419     7.74254E-03     7.95983E-03
            1777             419     7.74254E-03     7.95983E-03
            3750             419     7.74254E-03     7.95983E-03
            1773             419     7.74254E-03     7.95983E-03
            3700             420     9.99720E-03     10.0526E-03
            3750             420     9.99720E-03     10.0526E-03
            1769             420     9.99720E-03     10.0526E-03
            1773             420     9.99720E-03     10.0526E-03
            3650             421     12.0300E-03     11.9191E-03
            3700             421     12.0300E-03     11.9191E-03
            1769             421     12.0300E-03     11.9191E-03
            1765             421     12.0300E-03     11.9191E-03
            3650             422     13.2747E-03     13.1496E-03
            1765             422     13.2747E-03     13.1496E-03
            1761             422     13.2747E-03     13.1496E-03
            3600             422     13.2747E-03     13.1496E-03
            3600             423     13.7707E-03     13.6709E-03
            1761             423     13.7707E-03     13.6709E-03
            3550             423     13.7707E-03     13.6709E-03
            1757             423     13.7707E-03     13.6709E-03
            3801             440     182.831E-03     176.552E-03
            3802             440     182.831E-03     176.552E-03
            3803             441     173.922E-03     163.915E-03
            3802             441     173.922E-03     163.915E-03
            3804             442     156.511E-03     161.272E-03
            3803             442     156.511E-03     161.272E-03
            3805             443     153.704E-03     150.155E-03
            3804             443     153.704E-03     150.155E-03
            3806             444     146.476E-03     146.288E-03
            3805             444     146.476E-03     146.288E-03
            3807             445     141.459E-03     138.635E-03
            3806             445     141.459E-03     138.635E-03
            3808             446     133.610E-03     135.522E-03
            3807             446     133.610E-03     135.522E-03
            3808             447     134.642E-03     126.913E-03
            3809             447     134.642E-03     126.913E-03
            3809             448     131.616E-03     124.129E-03
            3810             448     131.616E-03     124.129E-03
            3811             449     129.460E-03     144.115E-03
            3810             449     129.460E-03     144.115E-03
            3812             450     144.796E-03     140.107E-03
            3811             450     144.796E-03     140.107E-03
            3813             451     136.872E-03     129.145E-03
            3812             451     136.872E-03     129.145E-03
            3813             452     122.204E-03     126.142E-03
            3814             452     122.204E-03     126.142E-03
            3814             453     119.153E-03     116.407E-03
            3815             453     119.153E-03     116.407E-03
            3816             454     112.615E-03     112.355E-03
            3815             454     112.615E-03     112.355E-03
            3816             455     107.365E-03     106.558E-03
            3817             455     107.365E-03     106.558E-03
            3817             456     102.371E-03     100.399E-03
            3818             456     102.371E-03     100.399E-03
            3819             457     95.7320E-03     96.6300E-03
            3818             457     95.7320E-03     96.6300E-03
            3819             458     94.8966E-03     89.4707E-03
            3820             458     94.8966E-03     89.4707E-03
            3821             459     91.9046E-03     86.0140E-03
            3820             459     91.9046E-03     86.0140E-03
            3821             460     91.7917E-03     102.017E-03
            3822             460     91.7917E-03     102.017E-03
            3823             461     103.734E-03     100.796E-03
            3822             461     103.734E-03     100.796E-03
            3824             462     96.8227E-03     91.3573E-03
            3823             462     96.8227E-03     91.3573E-03
            3825             463     84.8451E-03     87.8907E-03
            3824             463     84.8451E-03     87.8907E-03
            3825             464     81.4179E-03     79.4962E-03
            3826             464     81.4179E-03     79.4962E-03
            3827             465     75.4359E-03     75.3432E-03
            3826             465     75.4359E-03     75.3432E-03
            3828             466     70.4583E-03     69.8436E-03
            3827             466     70.4583E-03     69.8436E-03
            3829             467     65.5120E-03     64.3122E-03
            3828             467     65.5120E-03     64.3122E-03
            3829             468     59.7667E-03     59.9050E-03
            3830             468     59.7667E-03     59.9050E-03
            3830             469     57.1284E-03     53.8194E-03
            3831             469     57.1284E-03     53.8194E-03
            3832             470     53.9171E-03     49.7677E-03
            3831             470     53.9171E-03     49.7677E-03
            3833             471     55.9471E-03     61.9910E-03
            3832             471     55.9471E-03     61.9910E-03
            3834             472     64.8794E-03     63.5813E-03
            3833             472     64.8794E-03     63.5813E-03
            3834             473     58.8875E-03     55.5582E-03
            3835             473     58.8875E-03     55.5582E-03
            3836             474     49.4558E-03     51.6462E-03
            3835             474     49.4558E-03     51.6462E-03
            3836             475     45.6712E-03     44.5369E-03
            3837             475     45.6712E-03     44.5369E-03
            3837             476     40.2317E-03     40.2996E-03
            3838             476     40.2317E-03     40.2996E-03
            3838             477     35.5293E-03     35.1006E-03
            3839             477     35.5293E-03     35.1006E-03
            3839             478     30.6570E-03     30.1974E-03
            3840             478     30.6570E-03     30.1974E-03
            3841             479     25.8428E-03     25.2467E-03
            3840             479     25.8428E-03     25.2467E-03
            3842             480     21.8092E-03     20.4136E-03
            3841             480     21.8092E-03     20.4136E-03
            3843             481     19.1748E-03     16.8586E-03
            3842             481     19.1748E-03     16.8586E-03
            3844             482     22.1642E-03     24.3711E-03
            3843             482     22.1642E-03     24.3711E-03
            3845             483     26.1784E-03     26.3314E-03
            3844             483     26.1784E-03     26.3314E-03
            3846             484     20.4471E-03     18.8095E-03
            3845             484     20.4471E-03     18.8095E-03
            3846             485     12.6785E-03     14.0185E-03
            3847             485     12.6785E-03     14.0185E-03
            3848             486     8.34823E-03     7.10498E-03
            3847             486     8.34823E-03     7.10498E-03
            3849             487     5.42637E-03     4.01948E-03
            3848             487     5.42637E-03     4.01948E-03
            3850             488     6.77985E-03     7.86042E-03
            3849             488     6.77985E-03     7.86042E-03
            2354             514     43.4388E-03     41.6231E-03
            3501             514     43.4388E-03     41.6231E-03
            2348             514     43.4388E-03     41.6231E-03
            3551             514     43.4388E-03     41.6231E-03
            3601             515     68.0377E-03     71.7051E-03
            3551             515     68.0377E-03     71.7051E-03
            2354             515     68.0377E-03     71.7051E-03
            2360             515     68.0377E-03     71.7051E-03
            2366             516     96.5917E-03     106.255E-03
            3601             516     96.5917E-03     106.255E-03
            2360             516     96.5917E-03     106.255E-03
            3651             516     96.5917E-03     106.255E-03
            3701             517     122.517E-03     140.138E-03
            3651             517     122.517E-03     140.138E-03
            2366             517     122.517E-03     140.138E-03
            2372             517     122.517E-03     140.138E-03
            2372             518     143.236E-03     166.789E-03
            3701             518     143.236E-03     166.789E-03
            3751             518     143.236E-03     166.789E-03
            2378             518     143.236E-03     166.789E-03
            3751             519     163.224E-03     182.419E-03
            2378             519     163.224E-03     182.419E-03
            2384             519     163.224E-03     182.419E-03
            3801             519     163.224E-03     182.419E-03
            2384             520     183.979E-03     199.825E-03
            2383             520     183.979E-03     199.825E-03
            2383             521     216.376E-03     220.912E-03
            2382             521     216.376E-03     220.912E-03
            2381             522     241.083E-03     242.810E-03
            2382             522     241.083E-03     242.810E-03
            2380             523     273.132E-03     264.867E-03
            2381             523     273.132E-03     264.867E-03
            2380             524     296.909E-03     284.311E-03
            2379             524     296.909E-03     284.311E-03
            2379             525     226.358E-03     263.767E-03
            5324             525     226.358E-03     263.767E-03
            2373             525     226.358E-03     263.767E-03
            5318             525     226.358E-03     263.767E-03
            5312             526     187.639E-03     240.864E-03
            2367             526     187.639E-03     240.864E-03
            2373             526     187.639E-03     240.864E-03
            5318             526     187.639E-03     240.864E-03
            5306             527     159.451E-03     205.743E-03
            5312             527     159.451E-03     205.743E-03
            2361             527     159.451E-03     205.743E-03
            2367             527     159.451E-03     205.743E-03
            2361             528     132.882E-03     166.054E-03
            5306             528     132.882E-03     166.054E-03
            5300             528     132.882E-03     166.054E-03
            2355             528     132.882E-03     166.054E-03
            2349             529     102.686E-03     128.242E-03
            5294             529     102.686E-03     128.242E-03
            2355             529     102.686E-03     128.242E-03
            5300             529     102.686E-03     128.242E-03
            5288             530     70.2533E-03     87.3474E-03
            2349             530     70.2533E-03     87.3474E-03
            2343             530     70.2533E-03     87.3474E-03
            5294             530     70.2533E-03     87.3474E-03
            5320             625     174.280E-03     168.031E-03
            5319             625     174.280E-03     168.031E-03
            5321             626     186.107E-03     172.708E-03
            5320             626     186.107E-03     172.708E-03
            5321             627     184.317E-03     194.712E-03
            5322             627     184.317E-03     194.712E-03
            5323             628     211.707E-03     195.829E-03
            5322             628     211.707E-03     195.829E-03
            5324             629     223.701E-03     215.426E-03
            5323             629     223.701E-03     215.426E-03
            5283             630     53.1989E-03     57.4952E-03
            5289             630     53.1989E-03     57.4952E-03
            4106             630     53.1989E-03     57.4952E-03
            4146             630     53.1989E-03     57.4952E-03
            4186             631     79.5342E-03     86.1442E-03
            4146             631     79.5342E-03     86.1442E-03
            5289             631     79.5342E-03     86.1442E-03
            5295             631     79.5342E-03     86.1442E-03
            4186             632     105.053E-03     114.816E-03
            5295             632     105.053E-03     114.816E-03
            4226             632     105.053E-03     114.816E-03
            5301             632     105.053E-03     114.816E-03
            4226             633     126.898E-03     142.607E-03
            5307             633     126.898E-03     142.607E-03
            5301             633     126.898E-03     142.607E-03
            4266             633     126.898E-03     142.607E-03
            5313             634     143.301E-03     164.245E-03
            4266             634     143.301E-03     164.245E-03
            4306             634     143.301E-03     164.245E-03
            5307             634     143.301E-03     164.245E-03
            5319             635     154.791E-03     171.184E-03
            4306             635     154.791E-03     171.184E-03
            5313             635     154.791E-03     171.184E-03
            4346             635     154.791E-03     171.184E-03
            4346             636     172.666E-03     187.152E-03
            4345             636     172.666E-03     187.152E-03
            4345             637     194.946E-03     188.060E-03
            4344             637     194.946E-03     188.060E-03
            4344             638     184.387E-03     173.657E-03
            4343             638     184.387E-03     173.657E-03
            4342             639     164.521E-03     169.791E-03
            4343             639     164.521E-03     169.791E-03
            4341             640     160.618E-03     156.983E-03
            4342             640     160.618E-03     156.983E-03
            4341             641     152.064E-03     151.734E-03
            4340             641     152.064E-03     151.734E-03
            4339             642     145.071E-03     144.169E-03
            4340             642     145.071E-03     144.169E-03
            4338             643     138.247E-03     135.951E-03
            4339             643     138.247E-03     135.951E-03
            4337             644     129.128E-03     130.835E-03
            4338             644     129.128E-03     130.835E-03
            4336             645     127.120E-03     120.158E-03
            4337             645     127.120E-03     120.158E-03
            4335             646     120.872E-03     114.413E-03
            4336             646     120.872E-03     114.413E-03
            4335             647     121.807E-03     136.466E-03
            4334             647     121.807E-03     136.466E-03
            4333             648     140.572E-03     136.020E-03
            4334             648     140.572E-03     136.020E-03
            4332             649     131.261E-03     123.666E-03
            4333             649     131.261E-03     123.666E-03
            4332             650     114.985E-03     119.107E-03
            4331             650     114.985E-03     119.107E-03
            4330             651     110.672E-03     108.116E-03
            4331             651     110.672E-03     108.116E-03
            4329             652     102.902E-03     102.761E-03
            4330             652     102.902E-03     102.761E-03
            4328             653     96.3684E-03     95.6969E-03
            4329             653     96.3684E-03     95.6969E-03
            4328             654     89.7141E-03     89.1054E-03
            4327             654     89.7141E-03     89.1054E-03
            4326             655     83.1204E-03     81.7316E-03
            4327             655     83.1204E-03     81.7316E-03
            4326             656     75.1575E-03     75.7688E-03
            4325             656     75.1575E-03     75.7688E-03
            4324             657     70.4377E-03     66.6404E-03
            4325             657     70.4377E-03     66.6404E-03
            4324             658     63.8091E-03     59.8407E-03
            4323             658     63.8091E-03     59.8407E-03
            4323             659     68.0173E-03     76.1067E-03
            4322             659     68.0173E-03     76.1067E-03
            4321             660     82.1390E-03     80.0017E-03
            4322             660     82.1390E-03     80.0017E-03
            4320             661     73.8337E-03     69.5542E-03
            4321             661     73.8337E-03     69.5542E-03
            4320             662     61.2324E-03     63.9893E-03
            4319             662     61.2324E-03     63.9893E-03
            4319             663     56.1875E-03     54.6776E-03
            4318             663     56.1875E-03     54.6776E-03
            4318             664     48.9307E-03     49.0101E-03
            4317             664     48.9307E-03     49.0101E-03
            4317             665     42.5711E-03     42.1360E-03
            4316             665     42.5711E-03     42.1360E-03
            4316             666     35.8347E-03     35.5527E-03
            4315             666     35.8347E-03     35.5527E-03
            4315             667     28.9341E-03     28.5426E-03
            4314             667     28.9341E-03     28.5426E-03
            4314             668     21.2260E-03     20.8757E-03
            4313             668     21.2260E-03     20.8757E-03
            4313             669     13.9206E-03     12.4708E-03
            4312             669     13.9206E-03     12.4708E-03
            4312             670     19.2923E-03     21.4713E-03
            4311             670     19.2923E-03     21.4713E-03
            4310             671     27.1623E-03     27.3670E-03
            4311             671     27.1623E-03     27.3670E-03
            4309             672     19.3894E-03     17.6370E-03
            4310             672     19.3894E-03     17.6370E-03
            4308             673     10.4437E-03     11.9731E-03
            4309             673     10.4437E-03     11.9731E-03
            4308             674     8.16609E-03     10.2061E-03
            4307             674     8.16609E-03     10.2061E-03
            6604             765     701.378E-06     696.900E-06
            6603             765     701.378E-06     696.900E-06
            6605             766     522.980E-06     493.299E-06
            6604             766     522.980E-06     493.299E-06
            6606             767     312.899E-06     343.698E-06
            6605             767     312.899E-06     343.698E-06
            6607             768     221.105E-06     200.413E-06
            6606             768     221.105E-06     200.413E-06
            6608             769     176.841E-06     234.172E-06
            6607             769     176.841E-06     234.172E-06
            6578             825     643.977E-06     638.938E-06
            6572             825     643.977E-06     638.938E-06
            6584             826     586.042E-06     580.265E-06
            6578             826     586.042E-06     580.265E-06
            6584             827     496.421E-06     488.243E-06
            6590             827     496.421E-06     488.243E-06
            6596             828     361.171E-06     360.971E-06
            6590             828     361.171E-06     360.971E-06
            6596             829     214.143E-06     225.814E-06
            6602             829     214.143E-06     225.814E-06
            6608             830     170.349E-06     228.477E-06
            6602             830     170.349E-06     228.477E-06
               2             831     628.174E-06     624.082E-06
               5             831     628.174E-06     624.082E-06
               6             831     628.174E-06     624.082E-06
               1             831     628.174E-06     624.082E-06
               3             832     636.364E-06     627.315E-06
               6             832     636.364E-06     627.315E-06
               7             832     636.364E-06     627.315E-06
               2             832     636.364E-06     627.315E-06
               8             833     632.547E-06     621.633E-06
               3             833     632.547E-06     621.633E-06
               7             833     632.547E-06     621.633E-06
               4             833     632.547E-06     621.633E-06
               5             834     575.512E-06     572.367E-06
              10             834     575.512E-06     572.367E-06
               6             834     575.512E-06     572.367E-06
               9             834     575.512E-06     572.367E-06
              10             835     587.965E-06     577.850E-06
               6             835     587.965E-06     577.850E-06
               7             835     587.965E-06     577.850E-06
              11             835     587.965E-06     577.850E-06
               8             836     583.486E-06     576.813E-06
              11             836     583.486E-06     576.813E-06
               7             836     583.486E-06     576.813E-06
              12             836     583.486E-06     576.813E-06
               9             837     491.464E-06     490.046E-06
              13             837     491.464E-06     490.046E-06
              10             837     491.464E-06     490.046E-06
              14             837     491.464E-06     490.046E-06
              11             838     510.541E-06     496.016E-06
              14             838     510.541E-06     496.016E-06
              10             838     510.541E-06     496.016E-06
              15             838     510.541E-06     496.016E-06
              16             839     510.864E-06     507.907E-06
              15             839     510.864E-06     507.907E-06
              12             839     510.864E-06     507.907E-06
              11             839     510.864E-06     507.907E-06
              13             840     377.804E-06     385.431E-06
              17             840     377.804E-06     385.431E-06
              14             840     377.804E-06     385.431E-06
              18             840     377.804E-06     385.431E-06
              15             841     410.253E-06     396.137E-06
              18             841     410.253E-06     396.137E-06
              14             841     410.253E-06     396.137E-06
              19             841     410.253E-06     396.137E-06
              19             842     415.038E-06     418.698E-06
              20             842     415.038E-06     418.698E-06
              15             842     415.038E-06     418.698E-06
              16             842     415.038E-06     418.698E-06
              17             843     241.323E-06     259.563E-06
              21             843     241.323E-06     259.563E-06
              18             843     241.323E-06     259.563E-06
              22             843     241.323E-06     259.563E-06
              19             844     302.739E-06     275.460E-06
              22             844     302.739E-06     275.460E-06
              18             844     302.739E-06     275.460E-06
              23             844     302.739E-06     275.460E-06
              23             845     316.487E-06     324.635E-06
              24             845     316.487E-06     324.635E-06
              19             845     316.487E-06     324.635E-06
              20             845     316.487E-06     324.635E-06
              25             846     163.797E-06     216.392E-06
              21             846     163.797E-06     216.392E-06
              22             846     163.797E-06     216.392E-06
              26             846     163.797E-06     216.392E-06
              27             847     267.231E-06     227.605E-06
              22             847     267.231E-06     227.605E-06
              26             847     267.231E-06     227.605E-06
              23             847     267.231E-06     227.605E-06
              23             848     346.807E-06     356.476E-06
              27             848     346.807E-06     356.476E-06
              28             848     346.807E-06     356.476E-06
              24             848     346.807E-06     356.476E-06
              30             849     24.6272E-03     24.4578E-03
              80             849     24.6272E-03     24.4578E-03
              79             849     24.6272E-03     24.4578E-03
              29             849     24.6272E-03     24.4578E-03
              30             850     24.7900E-03     24.6288E-03
              81             850     24.7900E-03     24.6288E-03
              80             850     24.7900E-03     24.6288E-03
              31             850     24.7900E-03     24.6288E-03
              32             851     24.9028E-03     24.7483E-03
              81             851     24.9028E-03     24.7483E-03
              82             851     24.9028E-03     24.7483E-03
              31             851     24.9028E-03     24.7483E-03
              83             852     24.9784E-03     25.1679E-03
              82             852     24.9784E-03     25.1679E-03
              33             852     24.9784E-03     25.1679E-03
              32             852     24.9784E-03     25.1679E-03
              33             853     25.7518E-03     25.4160E-03
              34             853     25.7518E-03     25.4160E-03
              84             853     25.7518E-03     25.4160E-03
              83             853     25.7518E-03     25.4160E-03
              34             854     25.8211E-03     25.4206E-03
              35             854     25.8211E-03     25.4206E-03
              85             854     25.8211E-03     25.4206E-03
              84             854     25.8211E-03     25.4206E-03
              35             855     26.1917E-03     26.3455E-03
              86             855     26.1917E-03     26.3455E-03
              36             855     26.1917E-03     26.3455E-03
              85             855     26.1917E-03     26.3455E-03
              36             856     27.5958E-03     27.2058E-03
              87             856     27.5958E-03     27.2058E-03
              37             856     27.5958E-03     27.2058E-03
              86             856     27.5958E-03     27.2058E-03
              37             857     28.1857E-03     27.7013E-03
              88             857     28.1857E-03     27.7013E-03
              38             857     28.1857E-03     27.7013E-03
              87             857     28.1857E-03     27.7013E-03
              38             858     28.8164E-03     28.4728E-03
              88             858     28.8164E-03     28.4728E-03
              39             858     28.8164E-03     28.4728E-03
              89             858     28.8164E-03     28.4728E-03
              90             859     29.4982E-03     29.2080E-03
              39             859     29.4982E-03     29.2080E-03
              89             859     29.4982E-03     29.2080E-03
              40             859     29.4982E-03     29.2080E-03
              90             860     30.1603E-03     30.1837E-03
              41             860     30.1603E-03     30.1837E-03
              40             860     30.1603E-03     30.1837E-03
              91             860     30.1603E-03     30.1837E-03
              92             861     31.0532E-03     31.1054E-03
              41             861     31.0532E-03     31.1054E-03
              91             861     31.0532E-03     31.1054E-03
              42             861     31.0532E-03     31.1054E-03
              42             862     31.8287E-03     31.7982E-03
              93             862     31.8287E-03     31.7982E-03
              92             862     31.8287E-03     31.7982E-03
              43             862     31.8287E-03     31.7982E-03
              43             863     32.0034E-03     33.3003E-03
              44             863     32.0034E-03     33.3003E-03
              94             863     32.0034E-03     33.3003E-03
              93             863     32.0034E-03     33.3003E-03
              95             864     34.3886E-03     33.4641E-03
              94             864     34.3886E-03     33.4641E-03
              44             864     34.3886E-03     33.4641E-03
              45             864     34.3886E-03     33.4641E-03
              96             865     34.1864E-03     33.1360E-03
              46             865     34.1864E-03     33.1360E-03
              45             865     34.1864E-03     33.1360E-03
              95             865     34.1864E-03     33.1360E-03
              47             866     32.3340E-03     34.0103E-03
              46             866     32.3340E-03     34.0103E-03
              97             866     32.3340E-03     34.0103E-03
              96             866     32.3340E-03     34.0103E-03
              97             867     34.6668E-03     33.9097E-03
              47             867     34.6668E-03     33.9097E-03
              98             867     34.6668E-03     33.9097E-03
              48             867     34.6668E-03     33.9097E-03
              48             868     36.2596E-03     35.0659E-03
              98             868     36.2596E-03     35.0659E-03
              99             868     36.2596E-03     35.0659E-03
              49             868     36.2596E-03     35.0659E-03
              50             869     37.0834E-03     36.9534E-03
             100             869     37.0834E-03     36.9534E-03
              99             869     37.0834E-03     36.9534E-03
              49             869     37.0834E-03     36.9534E-03
             100             870     38.4817E-03     38.0343E-03
              50             870     38.4817E-03     38.0343E-03
             101             870     38.4817E-03     38.0343E-03
              51             870     38.4817E-03     38.0343E-03
             101             871     39.5364E-03     39.6743E-03
             102             871     39.5364E-03     39.6743E-03
              51             871     39.5364E-03     39.6743E-03
              52             871     39.5364E-03     39.6743E-03
              52             872     40.8032E-03     41.0264E-03
             102             872     40.8032E-03     41.0264E-03
             103             872     40.8032E-03     41.0264E-03
              53             872     40.8032E-03     41.0264E-03
             104             873     41.7891E-03     41.8027E-03
              53             873     41.7891E-03     41.8027E-03
              54             873     41.7891E-03     41.8027E-03
             103             873     41.7891E-03     41.8027E-03
              55             874     41.6368E-03     43.9656E-03
             105             874     41.6368E-03     43.9656E-03
             104             874     41.6368E-03     43.9656E-03
              54             874     41.6368E-03     43.9656E-03
              56             875     45.2050E-03     43.6162E-03
             105             875     45.2050E-03     43.6162E-03
              55             875     45.2050E-03     43.6162E-03
             106             875     45.2050E-03     43.6162E-03
              57             876     44.3332E-03     42.6877E-03
             107             876     44.3332E-03     42.6877E-03
             106             876     44.3332E-03     42.6877E-03
              56             876     44.3332E-03     42.6877E-03
             107             877     40.4370E-03     44.0686E-03
             108             877     40.4370E-03     44.0686E-03
              57             877     40.4370E-03     44.0686E-03
              58             877     40.4370E-03     44.0686E-03
              59             878     44.5763E-03     43.3366E-03
             109             878     44.5763E-03     43.3366E-03
             108             878     44.5763E-03     43.3366E-03
              58             878     44.5763E-03     43.3366E-03
              60             879     47.2271E-03     45.1295E-03
              59             879     47.2271E-03     45.1295E-03
             110             879     47.2271E-03     45.1295E-03
             109             879     47.2271E-03     45.1295E-03
             111             880     47.7584E-03     48.1023E-03
             110             880     47.7584E-03     48.1023E-03
              60             880     47.7584E-03     48.1023E-03
              61             880     47.7584E-03     48.1023E-03
              61             881     49.8129E-03     49.2239E-03
             112             881     49.8129E-03     49.2239E-03
             111             881     49.8129E-03     49.2239E-03
              62             881     49.8129E-03     49.2239E-03
              62             882     51.1041E-03     51.3811E-03
             112             882     51.1041E-03     51.3811E-03
             113             882     51.1041E-03     51.3811E-03
              63             882     51.1041E-03     51.3811E-03
              63             883     52.5685E-03     52.9857E-03
             113             883     52.5685E-03     52.9857E-03
              64             883     52.5685E-03     52.9857E-03
             114             883     52.5685E-03     52.9857E-03
              64             884     53.6317E-03     53.6618E-03
              65             884     53.6317E-03     53.6618E-03
             114             884     53.6317E-03     53.6618E-03
             115             884     53.6317E-03     53.6618E-03
              66             885     53.0171E-03     56.3420E-03
             116             885     53.0171E-03     56.3420E-03
             115             885     53.0171E-03     56.3420E-03
              65             885     53.0171E-03     56.3420E-03
             117             886     57.6423E-03     55.3039E-03
              66             886     57.6423E-03     55.3039E-03
              67             886     57.6423E-03     55.3039E-03
             116             886     57.6423E-03     55.3039E-03
              67             887     55.9458E-03     53.6889E-03
             117             887     55.9458E-03     53.6889E-03
             118             887     55.9458E-03     53.6889E-03
              68             887     55.9458E-03     53.6889E-03
             118             888     50.0608E-03     55.8444E-03
              68             888     50.0608E-03     55.8444E-03
              69             888     50.0608E-03     55.8444E-03
             119             888     50.0608E-03     55.8444E-03
             119             889     56.2928E-03     54.7450E-03
             120             889     56.2928E-03     54.7450E-03
              69             889     56.2928E-03     54.7450E-03
              70             889     56.2928E-03     54.7450E-03
             120             890     60.0300E-03     57.2233E-03
              70             890     60.0300E-03     57.2233E-03
             121             890     60.0300E-03     57.2233E-03
              71             890     60.0300E-03     57.2233E-03
              72             891     59.9474E-03     61.1439E-03
              71             891     59.9474E-03     61.1439E-03
             121             891     59.9474E-03     61.1439E-03
             122             891     59.9474E-03     61.1439E-03
             123             892     62.2446E-03     62.4537E-03
              73             892     62.2446E-03     62.4537E-03
              72             892     62.2446E-03     62.4537E-03
             122             892     62.2446E-03     62.4537E-03
              74             893     64.1429E-03     64.5729E-03
             123             893     64.1429E-03     64.5729E-03
              73             893     64.1429E-03     64.5729E-03
             124             893     64.1429E-03     64.5729E-03
              75             894     65.0642E-03     65.4616E-03
             125             894     65.0642E-03     65.4616E-03
             124             894     65.0642E-03     65.4616E-03
              74             894     65.0642E-03     65.4616E-03
              75             895     64.1364E-03     68.3848E-03
             126             895     64.1364E-03     68.3848E-03
             125             895     64.1364E-03     68.3848E-03
              76             895     64.1364E-03     68.3848E-03
             127             896     69.6230E-03     66.6897E-03
              76             896     69.6230E-03     66.6897E-03
             126             896     69.6230E-03     66.6897E-03
              77             896     69.6230E-03     66.6897E-03
              78             897     67.0784E-03     64.3843E-03
             127             897     67.0784E-03     64.3843E-03
             128             897     67.0784E-03     64.3843E-03
              77             897     67.0784E-03     64.3843E-03
              79             898     21.3871E-03     21.2755E-03
              80             898     21.3871E-03     21.2755E-03
             130             898     21.3871E-03     21.2755E-03
             129             898     21.3871E-03     21.2755E-03
              81             899     21.6931E-03     21.5668E-03
              80             899     21.6931E-03     21.5668E-03
             130             899     21.6931E-03     21.5668E-03
             131             899     21.6931E-03     21.5668E-03
              82             900     22.0828E-03     21.9198E-03
             131             900     22.0828E-03     21.9198E-03
             132             900     22.0828E-03     21.9198E-03
              81             900     22.0828E-03     21.9198E-03
              83             901     22.5534E-03     23.0077E-03
             132             901     22.5534E-03     23.0077E-03
             133             901     22.5534E-03     23.0077E-03
              82             901     22.5534E-03     23.0077E-03
             134             902     24.2501E-03     23.5680E-03
              83             902     24.2501E-03     23.5680E-03
             133             902     24.2501E-03     23.5680E-03
              84             902     24.2501E-03     23.5680E-03
              84             903     24.4683E-03     24.1988E-03
             134             903     24.4683E-03     24.1988E-03
              85             903     24.4683E-03     24.1988E-03
             135             903     24.4683E-03     24.1988E-03
             135             904     24.1222E-03     24.9695E-03
             136             904     24.1222E-03     24.9695E-03
              85             904     24.1222E-03     24.9695E-03
              86             904     24.1222E-03     24.9695E-03
              86             905     25.7459E-03     25.3498E-03
             137             905     25.7459E-03     25.3498E-03
             136             905     25.7459E-03     25.3498E-03
              87             905     25.7459E-03     25.3498E-03
             138             906     27.0034E-03     26.9280E-03
              88             906     27.0034E-03     26.9280E-03
             137             906     27.0034E-03     26.9280E-03
              87             906     27.0034E-03     26.9280E-03
              89             907     28.4025E-03     28.6692E-03
             139             907     28.4025E-03     28.6692E-03
              88             907     28.4025E-03     28.6692E-03
             138             907     28.4025E-03     28.6692E-03
             139             908     30.1951E-03     30.2536E-03
             140             908     30.1951E-03     30.2536E-03
              90             908     30.1951E-03     30.2536E-03
              89             908     30.1951E-03     30.2536E-03
             141             909     31.8426E-03     32.1499E-03
              90             909     31.8426E-03     32.1499E-03
             140             909     31.8426E-03     32.1499E-03
              91             909     31.8426E-03     32.1499E-03
              91             910     33.9680E-03     33.8201E-03
             142             910     33.9680E-03     33.8201E-03
             141             910     33.9680E-03     33.8201E-03
              92             910     33.9680E-03     33.8201E-03
              93             911     35.8537E-03     35.2906E-03
             143             911     35.8537E-03     35.2906E-03
              92             911     35.8537E-03     35.2906E-03
             142             911     35.8537E-03     35.2906E-03
             144             912     36.7998E-03     38.4530E-03
              93             912     36.7998E-03     38.4530E-03
              94             912     36.7998E-03     38.4530E-03
             143             912     36.7998E-03     38.4530E-03
             144             913     41.3410E-03     38.7633E-03
             145             913     41.3410E-03     38.7633E-03
              94             913     41.3410E-03     38.7633E-03
              95             913     41.3410E-03     38.7633E-03
              96             914     40.7803E-03     39.4530E-03
              95             914     40.7803E-03     39.4530E-03
             145             914     40.7803E-03     39.4530E-03
             146             914     40.7803E-03     39.4530E-03
             146             915     36.3423E-03     40.4833E-03
             147             915     36.3423E-03     40.4833E-03
              97             915     36.3423E-03     40.4833E-03
              96             915     36.3423E-03     40.4833E-03
              98             916     40.1491E-03     38.9008E-03
             148             916     40.1491E-03     38.9008E-03
             147             916     40.1491E-03     38.9008E-03
              97             916     40.1491E-03     38.9008E-03
              98             917     43.2064E-03     42.0434E-03
              99             917     43.2064E-03     42.0434E-03
             149             917     43.2064E-03     42.0434E-03
             148             917     43.2064E-03     42.0434E-03
              99             918     44.3299E-03     45.5665E-03
             150             918     44.3299E-03     45.5665E-03
             100             918     44.3299E-03     45.5665E-03
             149             918     44.3299E-03     45.5665E-03
             101             919     47.3826E-03     47.1938E-03
             100             919     47.3826E-03     47.1938E-03
             151             919     47.3826E-03     47.1938E-03
             150             919     47.3826E-03     47.1938E-03
             151             920     49.5893E-03     49.9089E-03
             152             920     49.5893E-03     49.9089E-03
             102             920     49.5893E-03     49.9089E-03
             101             920     49.5893E-03     49.9089E-03
             153             921     52.2881E-03     52.0527E-03
             102             921     52.2881E-03     52.0527E-03
             103             921     52.2881E-03     52.0527E-03
             152             921     52.2881E-03     52.0527E-03
             153             922     54.6025E-03     53.6605E-03
             154             922     54.6025E-03     53.6605E-03
             103             922     54.6025E-03     53.6605E-03
             104             922     54.6025E-03     53.6605E-03
             105             923     55.1343E-03     58.0523E-03
             155             923     55.1343E-03     58.0523E-03
             104             923     55.1343E-03     58.0523E-03
             154             923     55.1343E-03     58.0523E-03
             155             924     61.5371E-03     57.4300E-03
             106             924     61.5371E-03     57.4300E-03
             105             924     61.5371E-03     57.4300E-03
             156             924     61.5371E-03     57.4300E-03
             106             925     59.7227E-03     57.4678E-03
             157             925     59.7227E-03     57.4678E-03
             107             925     59.7227E-03     57.4678E-03
             156             925     59.7227E-03     57.4678E-03
             107             926     51.7517E-03     59.4417E-03
             108             926     51.7517E-03     59.4417E-03
             157             926     51.7517E-03     59.4417E-03
             158             926     51.7517E-03     59.4417E-03
             159             927     58.7115E-03     56.5684E-03
             158             927     58.7115E-03     56.5684E-03
             108             927     58.7115E-03     56.5684E-03
             109             927     58.7115E-03     56.5684E-03
             110             928     63.4552E-03     60.9010E-03
             160             928     63.4552E-03     60.9010E-03
             109             928     63.4552E-03     60.9010E-03
             159             928     63.4552E-03     60.9010E-03
             111             929     63.5949E-03     65.9666E-03
             160             929     63.5949E-03     65.9666E-03
             161             929     63.5949E-03     65.9666E-03
             110             929     63.5949E-03     65.9666E-03
             162             930     67.6501E-03     67.1721E-03
             111             930     67.6501E-03     67.1721E-03
             161             930     67.6501E-03     67.1721E-03
             112             930     67.6501E-03     67.1721E-03
             163             931     70.1227E-03     70.4434E-03
             112             931     70.1227E-03     70.4434E-03
             162             931     70.1227E-03     70.4434E-03
             113             931     70.1227E-03     70.4434E-03
             114             932     73.1030E-03     72.8183E-03
             113             932     73.1030E-03     72.8183E-03
             163             932     73.1030E-03     72.8183E-03
             164             932     73.1030E-03     72.8183E-03
             114             933     75.6341E-03     74.3347E-03
             115             933     75.6341E-03     74.3347E-03
             165             933     75.6341E-03     74.3347E-03
             164             933     75.6341E-03     74.3347E-03
             116             934     75.5707E-03     79.7529E-03
             165             934     75.5707E-03     79.7529E-03
             115             934     75.5707E-03     79.7529E-03
             166             934     75.5707E-03     79.7529E-03
             167             935     83.6755E-03     78.0183E-03
             116             935     83.6755E-03     78.0183E-03
             166             935     83.6755E-03     78.0183E-03
             117             935     83.6755E-03     78.0183E-03
             167             936     80.4667E-03     77.2613E-03
             118             936     80.4667E-03     77.2613E-03
             117             936     80.4667E-03     77.2613E-03
             168             936     80.4667E-03     77.2613E-03
             118             937     69.0465E-03     80.3557E-03
             119             937     69.0465E-03     80.3557E-03
             169             937     69.0465E-03     80.3557E-03
             168             937     69.0465E-03     80.3557E-03
             170             938     79.3978E-03     76.4161E-03
             120             938     79.3978E-03     76.4161E-03
             119             938     79.3978E-03     76.4161E-03
             169             938     79.3978E-03     76.4161E-03
             121             939     85.9331E-03     81.9627E-03
             170             939     85.9331E-03     81.9627E-03
             171             939     85.9331E-03     81.9627E-03
             120             939     85.9331E-03     81.9627E-03
             171             940     84.9575E-03     88.4102E-03
             172             940     84.9575E-03     88.4102E-03
             122             940     84.9575E-03     88.4102E-03
             121             940     84.9575E-03     88.4102E-03
             123             941     89.4740E-03     89.6440E-03
             172             941     89.4740E-03     89.6440E-03
             173             941     89.4740E-03     89.6440E-03
             122             941     89.4740E-03     89.6440E-03
             124             942     93.2064E-03     92.7611E-03
             173             942     93.2064E-03     92.7611E-03
             174             942     93.2064E-03     92.7611E-03
             123             942     93.2064E-03     92.7611E-03
             174             943     95.3101E-03     94.5539E-03
             125             943     95.3101E-03     94.5539E-03
             175             943     95.3101E-03     94.5539E-03
             124             943     95.3101E-03     94.5539E-03
             125             944     94.9329E-03     100.411E-03
             176             944     94.9329E-03     100.411E-03
             126             944     94.9329E-03     100.411E-03
             175             944     94.9329E-03     100.411E-03
             176             945     104.408E-03     97.5868E-03
             126             945     104.408E-03     97.5868E-03
             127             945     104.408E-03     97.5868E-03
             177             945     104.408E-03     97.5868E-03
             127             946     99.8031E-03     95.8674E-03
             128             946     99.8031E-03     95.8674E-03
             177             946     99.8031E-03     95.8674E-03
             178             946     99.8031E-03     95.8674E-03
             129             947     16.9253E-03     17.0150E-03
             180             947     16.9253E-03     17.0150E-03
             130             947     16.9253E-03     17.0150E-03
             179             947     16.9253E-03     17.0150E-03
             131             948     17.4214E-03     17.5570E-03
             181             948     17.4214E-03     17.5570E-03
             130             948     17.4214E-03     17.5570E-03
             180             948     17.4214E-03     17.5570E-03
             132             949     18.3571E-03     18.4063E-03
             182             949     18.3571E-03     18.4063E-03
             131             949     18.3571E-03     18.4063E-03
             181             949     18.3571E-03     18.4063E-03
             182             950     19.4369E-03     20.2584E-03
             133             950     19.4369E-03     20.2584E-03
             183             950     19.4369E-03     20.2584E-03
             132             950     19.4369E-03     20.2584E-03
             133             951     22.5963E-03     21.0611E-03
             183             951     22.5963E-03     21.0611E-03
             184             951     22.5963E-03     21.0611E-03
             134             951     22.5963E-03     21.0611E-03
             184             952     23.1698E-03     22.7977E-03
             185             952     23.1698E-03     22.7977E-03
             135             952     23.1698E-03     22.7977E-03
             134             952     23.1698E-03     22.7977E-03
             136             953     21.9818E-03     24.0125E-03
             135             953     21.9818E-03     24.0125E-03
             186             953     21.9818E-03     24.0125E-03
             185             953     21.9818E-03     24.0125E-03
             136             954     24.2942E-03     24.0579E-03
             137             954     24.2942E-03     24.0579E-03
             187             954     24.2942E-03     24.0579E-03
             186             954     24.2942E-03     24.0579E-03
             138             955     26.3814E-03     26.8060E-03
             188             955     26.3814E-03     26.8060E-03
             187             955     26.3814E-03     26.8060E-03
             137             955     26.3814E-03     26.8060E-03
             189             956     28.4716E-03     29.3586E-03
             139             956     28.4716E-03     29.3586E-03
             138             956     28.4716E-03     29.3586E-03
             188             956     28.4716E-03     29.3586E-03
             140             957     31.2563E-03     31.3616E-03
             190             957     31.2563E-03     31.3616E-03
             139             957     31.2563E-03     31.3616E-03
             189             957     31.2563E-03     31.3616E-03
             140             958     33.7430E-03     34.0582E-03
             190             958     33.7430E-03     34.0582E-03
             141             958     33.7430E-03     34.0582E-03
             191             958     33.7430E-03     34.0582E-03
             142             959     36.8917E-03     36.5470E-03
             141             959     36.8917E-03     36.5470E-03
             192             959     36.8917E-03     36.5470E-03
             191             959     36.8917E-03     36.5470E-03
             143             960     39.8270E-03     38.9016E-03
             193             960     39.8270E-03     38.9016E-03
             192             960     39.8270E-03     38.9016E-03
             142             960     39.8270E-03     38.9016E-03
             144             961     41.6730E-03     43.8536E-03
             143             961     41.6730E-03     43.8536E-03
             194             961     41.6730E-03     43.8536E-03
             193             961     41.6730E-03     43.8536E-03
             145             962     48.9966E-03     44.7021E-03
             194             962     48.9966E-03     44.7021E-03
             195             962     48.9966E-03     44.7021E-03
             144             962     48.9966E-03     44.7021E-03
             146             963     48.4789E-03     47.0752E-03
             196             963     48.4789E-03     47.0752E-03
             145             963     48.4789E-03     47.0752E-03
             195             963     48.4789E-03     47.0752E-03
             196             964     41.6907E-03     49.3771E-03
             146             964     41.6907E-03     49.3771E-03
             147             964     41.6907E-03     49.3771E-03
             197             964     41.6907E-03     49.3771E-03
             197             965     47.6941E-03     46.4296E-03
             198             965     47.6941E-03     46.4296E-03
             148             965     47.6941E-03     46.4296E-03
             147             965     47.6941E-03     46.4296E-03
             199             966     51.9319E-03     50.5625E-03
             148             966     51.9319E-03     50.5625E-03
             198             966     51.9319E-03     50.5625E-03
             149             966     51.9319E-03     50.5625E-03
             199             967     52.4599E-03     54.7484E-03
             149             967     52.4599E-03     54.7484E-03
             150             967     52.4599E-03     54.7484E-03
             200             967     52.4599E-03     54.7484E-03
             150             968     56.3497E-03     55.9481E-03
             201             968     56.3497E-03     55.9481E-03
             151             968     56.3497E-03     55.9481E-03
             200             968     56.3497E-03     55.9481E-03
             201             969     59.1117E-03     59.3231E-03
             151             969     59.1117E-03     59.3231E-03
             202             969     59.1117E-03     59.3231E-03
             152             969     59.1117E-03     59.3231E-03
             202             970     62.7517E-03     62.2101E-03
             153             970     62.7517E-03     62.2101E-03
             152             970     62.7517E-03     62.2101E-03
             203             970     62.7517E-03     62.2101E-03
             203             971     66.2814E-03     64.6961E-03
             154             971     66.2814E-03     64.6961E-03
             153             971     66.2814E-03     64.6961E-03
             204             971     66.2814E-03     64.6961E-03
             155             972     67.8427E-03     71.5094E-03
             205             972     67.8427E-03     71.5094E-03
             204             972     67.8427E-03     71.5094E-03
             154             972     67.8427E-03     71.5094E-03
             156             973     78.0743E-03     71.4980E-03
             205             973     78.0743E-03     71.4980E-03
             206             973     78.0743E-03     71.4980E-03
             155             973     78.0743E-03     71.4980E-03
             207             974     76.0141E-03     73.5944E-03
             157             974     76.0141E-03     73.5944E-03
             156             974     76.0141E-03     73.5944E-03
             206             974     76.0141E-03     73.5944E-03
             208             975     64.4933E-03     77.7476E-03
             157             975     64.4933E-03     77.7476E-03
             158             975     64.4933E-03     77.7476E-03
             207             975     64.4933E-03     77.7476E-03
             209             976     75.0014E-03     72.7645E-03
             159             976     75.0014E-03     72.7645E-03
             158             976     75.0014E-03     72.7645E-03
             208             976     75.0014E-03     72.7645E-03
             209             977     81.1449E-03     77.7451E-03
             210             977     81.1449E-03     77.7451E-03
             160             977     81.1449E-03     77.7451E-03
             159             977     81.1449E-03     77.7451E-03
             160             978     79.4988E-03     83.2888E-03
             211             978     79.4988E-03     83.2888E-03
             161             978     79.4988E-03     83.2888E-03
             210             978     79.4988E-03     83.2888E-03
             211             979     84.2254E-03     83.2810E-03
             212             979     84.2254E-03     83.2810E-03
             161             979     84.2254E-03     83.2810E-03
             162             979     84.2254E-03     83.2810E-03
             163             980     87.0099E-03     87.1032E-03
             213             980     87.0099E-03     87.1032E-03
             212             980     87.0099E-03     87.1032E-03
             162             980     87.0099E-03     87.1032E-03
             163             981     90.9070E-03     90.1959E-03
             164             981     90.9070E-03     90.1959E-03
             213             981     90.9070E-03     90.1959E-03
             214             981     90.9070E-03     90.1959E-03
             164             982     94.8644E-03     92.6474E-03
             214             982     94.8644E-03     92.6474E-03
             165             982     94.8644E-03     92.6474E-03
             215             982     94.8644E-03     92.6474E-03
             166             983     95.9951E-03     101.207E-03
             165             983     95.9951E-03     101.207E-03
             215             983     95.9951E-03     101.207E-03
             216             983     95.9951E-03     101.207E-03
             216             984     109.077E-03     100.202E-03
             217             984     109.077E-03     100.202E-03
             166             984     109.077E-03     100.202E-03
             167             984     109.077E-03     100.202E-03
             167             985     105.368E-03     101.919E-03
             168             985     105.368E-03     101.919E-03
             217             985     105.368E-03     101.919E-03
             218             985     105.368E-03     101.919E-03
             168             986     88.9303E-03     107.759E-03
             169             986     88.9303E-03     107.759E-03
             219             986     88.9303E-03     107.759E-03
             218             986     88.9303E-03     107.759E-03
             220             987     104.001E-03     100.755E-03
             169             987     104.001E-03     100.755E-03
             170             987     104.001E-03     100.755E-03
             219             987     104.001E-03     100.755E-03
             171             988     112.330E-03     106.615E-03
             220             988     112.330E-03     106.615E-03
             221             988     112.330E-03     106.615E-03
             170             988     112.330E-03     106.615E-03
             172             989     108.562E-03     113.439E-03
             221             989     108.562E-03     113.439E-03
             171             989     108.562E-03     113.439E-03
             222             989     108.562E-03     113.439E-03
             222             990     113.738E-03     113.111E-03
             173             990     113.738E-03     113.111E-03
             223             990     113.738E-03     113.111E-03
             172             990     113.738E-03     113.111E-03
             174             991     118.277E-03     116.579E-03
             224             991     118.277E-03     116.579E-03
             223             991     118.277E-03     116.579E-03
             173             991     118.277E-03     116.579E-03
             175             992     121.373E-03     119.291E-03
             225             992     121.373E-03     119.291E-03
             174             992     121.373E-03     119.291E-03
             224             992     121.373E-03     119.291E-03
             175             993     122.266E-03     128.606E-03
             176             993     122.266E-03     128.606E-03
             226             993     122.266E-03     128.606E-03
             225             993     122.266E-03     128.606E-03
             176             994     137.674E-03     126.620E-03
             226             994     137.674E-03     126.620E-03
             227             994     137.674E-03     126.620E-03
             177             994     137.674E-03     126.620E-03
             177             995     132.224E-03     127.809E-03
             227             995     132.224E-03     127.809E-03
             178             995     132.224E-03     127.809E-03
             228             995     132.224E-03     127.809E-03
             180             996     11.2933E-03     11.9949E-03
             179             996     11.2933E-03     11.9949E-03
             229             996     11.2933E-03     11.9949E-03
             230             996     11.2933E-03     11.9949E-03
             181             997     12.3971E-03     12.8881E-03
             230             997     12.3971E-03     12.8881E-03
             180             997     12.3971E-03     12.8881E-03
             231             997     12.3971E-03     12.8881E-03
             182             998     14.2962E-03     14.1955E-03
             231             998     14.2962E-03     14.1955E-03
             232             998     14.2962E-03     14.1955E-03
             181             998     14.2962E-03     14.1955E-03
             182             999     16.0920E-03     17.3767E-03
             232             999     16.0920E-03     17.3767E-03
             233             999     16.0920E-03     17.3767E-03
             183             999     16.0920E-03     17.3767E-03
             184            1000     20.9286E-03     18.5604E-03
             233            1000     20.9286E-03     18.5604E-03
             234            1000     20.9286E-03     18.5604E-03
             183            1000     20.9286E-03     18.5604E-03
             185            1001     21.9893E-03     21.7362E-03
             234            1001     21.9893E-03     21.7362E-03
             184            1001     21.9893E-03     21.7362E-03
             235            1001     21.9893E-03     21.7362E-03
             236            1002     20.2974E-03     24.4993E-03
             186            1002     20.2974E-03     24.4993E-03
             235            1002     20.2974E-03     24.4993E-03
             185            1002     20.2974E-03     24.4993E-03
             237            1003     23.9875E-03     23.9709E-03
             187            1003     23.9875E-03     23.9709E-03
             186            1003     23.9875E-03     23.9709E-03
             236            1003     23.9875E-03     23.9709E-03
             187            1004     26.6273E-03     26.9612E-03
             237            1004     26.6273E-03     26.9612E-03
             238            1004     26.6273E-03     26.9612E-03
             188            1004     26.6273E-03     26.9612E-03
             239            1005     28.6042E-03     29.8004E-03
             188            1005     28.6042E-03     29.8004E-03
             189            1005     28.6042E-03     29.8004E-03
             238            1005     28.6042E-03     29.8004E-03
             189            1006     32.1199E-03     32.1229E-03
             190            1006     32.1199E-03     32.1229E-03
             239            1006     32.1199E-03     32.1229E-03
             240            1006     32.1199E-03     32.1229E-03
             240            1007     35.1663E-03     35.9526E-03
             190            1007     35.1663E-03     35.9526E-03
             241            1007     35.1663E-03     35.9526E-03
             191            1007     35.1663E-03     35.9526E-03
             192            1008     39.3394E-03     39.4779E-03
             242            1008     39.3394E-03     39.4779E-03
             191            1008     39.3394E-03     39.4779E-03
             241            1008     39.3394E-03     39.4779E-03
             242            1009     43.2433E-03     42.8293E-03
             192            1009     43.2433E-03     42.8293E-03
             193            1009     43.2433E-03     42.8293E-03
             243            1009     43.2433E-03     42.8293E-03
             194            1010     45.7519E-03     49.5780E-03
             244            1010     45.7519E-03     49.5780E-03
             193            1010     45.7519E-03     49.5780E-03
             243            1010     45.7519E-03     49.5780E-03
             195            1011     55.7893E-03     50.3903E-03
             244            1011     55.7893E-03     50.3903E-03
             194            1011     55.7893E-03     50.3903E-03
             245            1011     55.7893E-03     50.3903E-03
             195            1012     55.7561E-03     54.7867E-03
             196            1012     55.7561E-03     54.7867E-03
             246            1012     55.7561E-03     54.7867E-03
             245            1012     55.7561E-03     54.7867E-03
             246            1013     47.3622E-03     59.9936E-03
             197            1013     47.3622E-03     59.9936E-03
             247            1013     47.3622E-03     59.9936E-03
             196            1013     47.3622E-03     59.9936E-03
             198            1014     55.7602E-03     54.9162E-03
             197            1014     55.7602E-03     54.9162E-03
             248            1014     55.7602E-03     54.9162E-03
             247            1014     55.7602E-03     54.9162E-03
             249            1015     60.1867E-03     57.9808E-03
             198            1015     60.1867E-03     57.9808E-03
             199            1015     60.1867E-03     57.9808E-03
             248            1015     60.1867E-03     57.9808E-03
             199            1016     58.9275E-03     62.2608E-03
             250            1016     58.9275E-03     62.2608E-03
             249            1016     58.9275E-03     62.2608E-03
             200            1016     58.9275E-03     62.2608E-03
             200            1017     63.2874E-03     63.0817E-03
             251            1017     63.2874E-03     63.0817E-03
             201            1017     63.2874E-03     63.0817E-03
             250            1017     63.2874E-03     63.0817E-03
             252            1018     66.2859E-03     67.5927E-03
             202            1018     66.2859E-03     67.5927E-03
             251            1018     66.2859E-03     67.5927E-03
             201            1018     66.2859E-03     67.5927E-03
             253            1019     70.8307E-03     71.4306E-03
             202            1019     70.8307E-03     71.4306E-03
             203            1019     70.8307E-03     71.4306E-03
             252            1019     70.8307E-03     71.4306E-03
             204            1020     75.4181E-03     74.7530E-03
             203            1020     75.4181E-03     74.7530E-03
             254            1020     75.4181E-03     74.7530E-03
             253            1020     75.4181E-03     74.7530E-03
             254            1021     77.6645E-03     83.8052E-03
             255            1021     77.6645E-03     83.8052E-03
             205            1021     77.6645E-03     83.8052E-03
             204            1021     77.6645E-03     83.8052E-03
             205            1022     91.9017E-03     83.6593E-03
             255            1022     91.9017E-03     83.6593E-03
             256            1022     91.9017E-03     83.6593E-03
             206            1022     91.9017E-03     83.6593E-03
             257            1023     90.5277E-03     88.7964E-03
             256            1023     90.5277E-03     88.7964E-03
             207            1023     90.5277E-03     88.7964E-03
             206            1023     90.5277E-03     88.7964E-03
             208            1024     76.4187E-03     97.5052E-03
             257            1024     76.4187E-03     97.5052E-03
             207            1024     76.4187E-03     97.5052E-03
             258            1024     76.4187E-03     97.5052E-03
             208            1025     90.4612E-03     88.8992E-03
             209            1025     90.4612E-03     88.8992E-03
             258            1025     90.4612E-03     88.8992E-03
             259            1025     90.4612E-03     88.8992E-03
             210            1026     96.5202E-03     91.6791E-03
             259            1026     96.5202E-03     91.6791E-03
             209            1026     96.5202E-03     91.6791E-03
             260            1026     96.5202E-03     91.6791E-03
             261            1027     91.6261E-03     97.2480E-03
             260            1027     91.6261E-03     97.2480E-03
             210            1027     91.6261E-03     97.2480E-03
             211            1027     91.6261E-03     97.2480E-03
             262            1028     96.6968E-03     96.2703E-03
             261            1028     96.6968E-03     96.2703E-03
             212            1028     96.6968E-03     96.2703E-03
             211            1028     96.6968E-03     96.2703E-03
             263            1029     99.4990E-03     101.325E-03
             212            1029     99.4990E-03     101.325E-03
             213            1029     99.4990E-03     101.325E-03
             262            1029     99.4990E-03     101.325E-03
             263            1030     104.294E-03     105.374E-03
             214            1030     104.294E-03     105.374E-03
             213            1030     104.294E-03     105.374E-03
             264            1030     104.294E-03     105.374E-03
             215            1031     109.499E-03     108.584E-03
             214            1031     109.499E-03     108.584E-03
             265            1031     109.499E-03     108.584E-03
             264            1031     109.499E-03     108.584E-03
             215            1032     111.401E-03     119.965E-03
             266            1032     111.401E-03     119.965E-03
             265            1032     111.401E-03     119.965E-03
             216            1032     111.401E-03     119.965E-03
             216            1033     129.935E-03     118.785E-03
             267            1033     129.935E-03     118.785E-03
             266            1033     129.935E-03     118.785E-03
             217            1033     129.935E-03     118.785E-03
             217            1034     127.141E-03     124.653E-03
             218            1034     127.141E-03     124.653E-03
             267            1034     127.141E-03     124.653E-03
             268            1034     127.141E-03     124.653E-03
             218            1035     106.906E-03     136.531E-03
             219            1035     106.906E-03     136.531E-03
             269            1035     106.906E-03     136.531E-03
             268            1035     106.906E-03     136.531E-03
             219            1036     126.404E-03     124.104E-03
             220            1036     126.404E-03     124.104E-03
             270            1036     126.404E-03     124.104E-03
             269            1036     126.404E-03     124.104E-03
             220            1037     134.543E-03     126.698E-03
             221            1037     134.543E-03     126.698E-03
             271            1037     134.543E-03     126.698E-03
             270            1037     134.543E-03     126.698E-03
             272            1038     126.138E-03     133.351E-03
             271            1038     126.138E-03     133.351E-03
             222            1038     126.138E-03     133.351E-03
             221            1038     126.138E-03     133.351E-03
             222            1039     131.356E-03     131.882E-03
             223            1039     131.356E-03     131.882E-03
             273            1039     131.356E-03     131.882E-03
             272            1039     131.356E-03     131.882E-03
             223            1040     136.603E-03     136.506E-03
             273            1040     136.603E-03     136.506E-03
             274            1040     136.603E-03     136.506E-03
             224            1040     136.603E-03     136.506E-03
             274            1041     140.503E-03     140.012E-03
             225            1041     140.503E-03     140.012E-03
             224            1041     140.503E-03     140.012E-03
             275            1041     140.503E-03     140.012E-03
             276            1042     142.461E-03     152.569E-03
             226            1042     142.461E-03     152.569E-03
             225            1042     142.461E-03     152.569E-03
             275            1042     142.461E-03     152.569E-03
             227            1043     164.705E-03     150.619E-03
             277            1043     164.705E-03     150.619E-03
             226            1043     164.705E-03     150.619E-03
             276            1043     164.705E-03     150.619E-03
             227            1044     160.375E-03     157.140E-03
             228            1044     160.375E-03     157.140E-03
             278            1044     160.375E-03     157.140E-03
             277            1044     160.375E-03     157.140E-03
             230            1045     5.49408E-03     6.70371E-03
             229            1045     5.49408E-03     6.70371E-03
             280            1045     5.49408E-03     6.70371E-03
             279            1045     5.49408E-03     6.70371E-03
             281            1046     7.36114E-03     7.55310E-03
             230            1046     7.36114E-03     7.55310E-03
             280            1046     7.36114E-03     7.55310E-03
             231            1046     7.36114E-03     7.55310E-03
             282            1047     10.7193E-03     10.0779E-03
             232            1047     10.7193E-03     10.0779E-03
             231            1047     10.7193E-03     10.0779E-03
             281            1047     10.7193E-03     10.0779E-03
             282            1048     13.6654E-03     15.7357E-03
             232            1048     13.6654E-03     15.7357E-03
             233            1048     13.6654E-03     15.7357E-03
             283            1048     13.6654E-03     15.7357E-03
             283            1049     20.7204E-03     18.4066E-03
             284            1049     20.7204E-03     18.4066E-03
             233            1049     20.7204E-03     18.4066E-03
             234            1049     20.7204E-03     18.4066E-03
             284            1050     22.4890E-03     22.6193E-03
             234            1050     22.4890E-03     22.6193E-03
             235            1050     22.4890E-03     22.6193E-03
             285            1050     22.4890E-03     22.6193E-03
             285            1051     19.8446E-03     25.6980E-03
             286            1051     19.8446E-03     25.6980E-03
             235            1051     19.8446E-03     25.6980E-03
             236            1051     19.8446E-03     25.6980E-03
             286            1052     23.8459E-03     23.7459E-03
             236            1052     23.8459E-03     23.7459E-03
             287            1052     23.8459E-03     23.7459E-03
             237            1052     23.8459E-03     23.7459E-03
             288            1053     26.2945E-03     26.4232E-03
             287            1053     26.2945E-03     26.4232E-03
             238            1053     26.2945E-03     26.4232E-03
             237            1053     26.2945E-03     26.4232E-03
             239            1054     28.3248E-03     30.0451E-03
             238            1054     28.3248E-03     30.0451E-03
             288            1054     28.3248E-03     30.0451E-03
             289            1054     28.3248E-03     30.0451E-03
             290            1055     32.8965E-03     33.4521E-03
             239            1055     32.8965E-03     33.4521E-03
             240            1055     32.8965E-03     33.4521E-03
             289            1055     32.8965E-03     33.4521E-03
             291            1056     36.6645E-03     38.4465E-03
             290            1056     36.6645E-03     38.4465E-03
             241            1056     36.6645E-03     38.4465E-03
             240            1056     36.6645E-03     38.4465E-03
             242            1057     41.7712E-03     43.0562E-03
             291            1057     41.7712E-03     43.0562E-03
             292            1057     41.7712E-03     43.0562E-03
             241            1057     41.7712E-03     43.0562E-03
             242            1058     46.8014E-03     47.1210E-03
             292            1058     46.8014E-03     47.1210E-03
             243            1058     46.8014E-03     47.1210E-03
             293            1058     46.8014E-03     47.1210E-03
             243            1059     49.5554E-03     55.3412E-03
             244            1059     49.5554E-03     55.3412E-03
             293            1059     49.5554E-03     55.3412E-03
             294            1059     49.5554E-03     55.3412E-03
             294            1060     61.6817E-03     56.8992E-03
             295            1060     61.6817E-03     56.8992E-03
             244            1060     61.6817E-03     56.8992E-03
             245            1060     61.6817E-03     56.8992E-03
             245            1061     62.3723E-03     62.0731E-03
             295            1061     62.3723E-03     62.0731E-03
             246            1061     62.3723E-03     62.0731E-03
             296            1061     62.3723E-03     62.0731E-03
             247            1062     52.4163E-03     68.1162E-03
             296            1062     52.4163E-03     68.1162E-03
             246            1062     52.4163E-03     68.1162E-03
             297            1062     52.4163E-03     68.1162E-03
             248            1063     61.3779E-03     60.8661E-03
             297            1063     61.3779E-03     60.8661E-03
             247            1063     61.3779E-03     60.8661E-03
             298            1063     61.3779E-03     60.8661E-03
             298            1064     64.8269E-03     62.8151E-03
             248            1064     64.8269E-03     62.8151E-03
             249            1064     64.8269E-03     62.8151E-03
             299            1064     64.8269E-03     62.8151E-03
             249            1065     62.6892E-03     67.7797E-03
             299            1065     62.6892E-03     67.7797E-03
             250            1065     62.6892E-03     67.7797E-03
             300            1065     62.6892E-03     67.7797E-03
             301            1066     68.4197E-03     69.4481E-03
             300            1066     68.4197E-03     69.4481E-03
             250            1066     68.4197E-03     69.4481E-03
             251            1066     68.4197E-03     69.4481E-03
             301            1067     71.9162E-03     75.2116E-03
             302            1067     71.9162E-03     75.2116E-03
             251            1067     71.9162E-03     75.2116E-03
             252            1067     71.9162E-03     75.2116E-03
             253            1068     77.3259E-03     80.0886E-03
             302            1068     77.3259E-03     80.0886E-03
             252            1068     77.3259E-03     80.0886E-03
             303            1068     77.3259E-03     80.0886E-03
             253            1069     83.1441E-03     83.9183E-03
             254            1069     83.1441E-03     83.9183E-03
             304            1069     83.1441E-03     83.9183E-03
             303            1069     83.1441E-03     83.9183E-03
             305            1070     85.2053E-03     94.5801E-03
             255            1070     85.2053E-03     94.5801E-03
             304            1070     85.2053E-03     94.5801E-03
             254            1070     85.2053E-03     94.5801E-03
             256            1071     102.325E-03     95.1683E-03
             255            1071     102.325E-03     95.1683E-03
             306            1071     102.325E-03     95.1683E-03
             305            1071     102.325E-03     95.1683E-03
             257            1072     102.250E-03     101.608E-03
             256            1072     102.250E-03     101.608E-03
             307            1072     102.250E-03     101.608E-03
             306            1072     102.250E-03     101.608E-03
             258            1073     86.0452E-03     112.029E-03
             257            1073     86.0452E-03     112.029E-03
             308            1073     86.0452E-03     112.029E-03
             307            1073     86.0452E-03     112.029E-03
             259            1074     101.186E-03     100.336E-03
             309            1074     101.186E-03     100.336E-03
             308            1074     101.186E-03     100.336E-03
             258            1074     101.186E-03     100.336E-03
             260            1075     105.603E-03     101.365E-03
             310            1075     105.603E-03     101.365E-03
             259            1075     105.603E-03     101.365E-03
             309            1075     105.603E-03     101.365E-03
             310            1076     98.9844E-03     107.620E-03
             261            1076     98.9844E-03     107.620E-03
             311            1076     98.9844E-03     107.620E-03
             260            1076     98.9844E-03     107.620E-03
             312            1077     105.846E-03     107.359E-03
             262            1077     105.846E-03     107.359E-03
             311            1077     105.846E-03     107.359E-03
             261            1077     105.846E-03     107.359E-03
             263            1078     108.999E-03     113.864E-03
             312            1078     108.999E-03     113.864E-03
             313            1078     108.999E-03     113.864E-03
             262            1078     108.999E-03     113.864E-03
             314            1079     114.677E-03     118.982E-03
             264            1079     114.677E-03     118.982E-03
             313            1079     114.677E-03     118.982E-03
             263            1079     114.677E-03     118.982E-03
             314            1080     121.297E-03     122.543E-03
             315            1080     121.297E-03     122.543E-03
             265            1080     121.297E-03     122.543E-03
             264            1080     121.297E-03     122.543E-03
             316            1081     122.614E-03     135.743E-03
             265            1081     122.614E-03     135.743E-03
             315            1081     122.614E-03     135.743E-03
             266            1081     122.614E-03     135.743E-03
             316            1082     144.940E-03     135.322E-03
             317            1082     144.940E-03     135.322E-03
             267            1082     144.940E-03     135.322E-03
             266            1082     144.940E-03     135.322E-03
             267            1083     144.060E-03     143.085E-03
             318            1083     144.060E-03     143.085E-03
             268            1083     144.060E-03     143.085E-03
             317            1083     144.060E-03     143.085E-03
             269            1084     121.069E-03     157.651E-03
             318            1084     121.069E-03     157.651E-03
             268            1084     121.069E-03     157.651E-03
             319            1084     121.069E-03     157.651E-03
             319            1085     142.266E-03     141.052E-03
             269            1085     142.266E-03     141.052E-03
             320            1085     142.266E-03     141.052E-03
             270            1085     142.266E-03     141.052E-03
             270            1086     147.846E-03     141.385E-03
             271            1086     147.846E-03     141.385E-03
             321            1086     147.846E-03     141.385E-03
             320            1086     147.846E-03     141.385E-03
             271            1087     137.196E-03     148.593E-03
             272            1087     137.196E-03     148.593E-03
             322            1087     137.196E-03     148.593E-03
             321            1087     137.196E-03     148.593E-03
             272            1088     144.100E-03     147.676E-03
             273            1088     144.100E-03     147.676E-03
             323            1088     144.100E-03     147.676E-03
             322            1088     144.100E-03     147.676E-03
             274            1089     149.778E-03     154.359E-03
             273            1089     149.778E-03     154.359E-03
             323            1089     149.778E-03     154.359E-03
             324            1089     149.778E-03     154.359E-03
             275            1090     155.392E-03     158.004E-03
             324            1090     155.392E-03     158.004E-03
             274            1090     155.392E-03     158.004E-03
             325            1090     155.392E-03     158.004E-03
             275            1091     156.832E-03     172.809E-03
             276            1091     156.832E-03     172.809E-03
             325            1091     156.832E-03     172.809E-03
             326            1091     156.832E-03     172.809E-03
             277            1092     183.735E-03     171.871E-03
             276            1092     183.735E-03     171.871E-03
             326            1092     183.735E-03     171.871E-03
             327            1092     183.735E-03     171.871E-03
             277            1093     182.173E-03     180.928E-03
             278            1093     182.173E-03     180.928E-03
             328            1093     182.173E-03     180.928E-03
             327            1093     182.173E-03     180.928E-03
             280            1094     5.34036E-03     6.85693E-03
             330            1094     5.34036E-03     6.85693E-03
             279            1094     5.34036E-03     6.85693E-03
             329            1094     5.34036E-03     6.85693E-03
             281            1095     7.09436E-03     7.08093E-03
             331            1095     7.09436E-03     7.08093E-03
             280            1095     7.09436E-03     7.08093E-03
             330            1095     7.09436E-03     7.08093E-03
             281            1096     11.1669E-03     10.4324E-03
             332            1096     11.1669E-03     10.4324E-03
             282            1096     11.1669E-03     10.4324E-03
             331            1096     11.1669E-03     10.4324E-03
             333            1097     15.0192E-03     16.9816E-03
             283            1097     15.0192E-03     16.9816E-03
             282            1097     15.0192E-03     16.9816E-03
             332            1097     15.0192E-03     16.9816E-03
             283            1098     23.1068E-03     21.3551E-03
             333            1098     23.1068E-03     21.3551E-03
             284            1098     23.1068E-03     21.3551E-03
             334            1098     23.1068E-03     21.3551E-03
             285            1099     27.3274E-03     27.2601E-03
             334            1099     27.3274E-03     27.2601E-03
             335            1099     27.3274E-03     27.2601E-03
             284            1099     27.3274E-03     27.2601E-03
             285            1100     21.4851E-03     25.8444E-03
             335            1100     21.4851E-03     25.8444E-03
             286            1100     21.4851E-03     25.8444E-03
             336            1100     21.4851E-03     25.8444E-03
             287            1101     20.9410E-03     20.1887E-03
             286            1101     20.9410E-03     20.1887E-03
             336            1101     20.9410E-03     20.1887E-03
             337            1101     20.9410E-03     20.1887E-03
             287            1102     25.1807E-03     24.9743E-03
             288            1102     25.1807E-03     24.9743E-03
             338            1102     25.1807E-03     24.9743E-03
             337            1102     25.1807E-03     24.9743E-03
             338            1103     29.4153E-03     30.4293E-03
             288            1103     29.4153E-03     30.4293E-03
             289            1103     29.4153E-03     30.4293E-03
             339            1103     29.4153E-03     30.4293E-03
             289            1104     34.8872E-03     35.2679E-03
             340            1104     34.8872E-03     35.2679E-03
             290            1104     34.8872E-03     35.2679E-03
             339            1104     34.8872E-03     35.2679E-03
             291            1105     39.7409E-03     40.6787E-03
             340            1105     39.7409E-03     40.6787E-03
             290            1105     39.7409E-03     40.6787E-03
             341            1105     39.7409E-03     40.6787E-03
             341            1106     45.0125E-03     46.0167E-03
             342            1106     45.0125E-03     46.0167E-03
             291            1106     45.0125E-03     46.0167E-03
             292            1106     45.0125E-03     46.0167E-03
             293            1107     50.8375E-03     50.4013E-03
             342            1107     50.8375E-03     50.4013E-03
             292            1107     50.8375E-03     50.4013E-03
             343            1107     50.8375E-03     50.4013E-03
             344            1108     54.1650E-03     58.5879E-03
             294            1108     54.1650E-03     58.5879E-03
             293            1108     54.1650E-03     58.5879E-03
             343            1108     54.1650E-03     58.5879E-03
             294            1109     65.9518E-03     62.1738E-03
             344            1109     65.9518E-03     62.1738E-03
             295            1109     65.9518E-03     62.1738E-03
             345            1109     65.9518E-03     62.1738E-03
             346            1110     70.1320E-03     68.9990E-03
             295            1110     70.1320E-03     68.9990E-03
             345            1110     70.1320E-03     68.9990E-03
             296            1110     70.1320E-03     68.9990E-03
             297            1111     58.5106E-03     70.1177E-03
             346            1111     58.5106E-03     70.1177E-03
             347            1111     58.5106E-03     70.1177E-03
             296            1111     58.5106E-03     70.1177E-03
             298            1112     61.2287E-03     59.3802E-03
             297            1112     61.2287E-03     59.3802E-03
             347            1112     61.2287E-03     59.3802E-03
             348            1112     61.2287E-03     59.3802E-03
             298            1113     65.4963E-03     63.3124E-03
             348            1113     65.4963E-03     63.3124E-03
             349            1113     65.4963E-03     63.3124E-03
             299            1113     65.4963E-03     63.3124E-03
             350            1114     66.5711E-03     69.9516E-03
             300            1114     66.5711E-03     69.9516E-03
             349            1114     66.5711E-03     69.9516E-03
             299            1114     66.5711E-03     69.9516E-03
             350            1115     73.2579E-03     73.6354E-03
             351            1115     73.2579E-03     73.6354E-03
             300            1115     73.2579E-03     73.6354E-03
             301            1115     73.2579E-03     73.6354E-03
             302            1116     77.9990E-03     79.8244E-03
             351            1116     77.9990E-03     79.8244E-03
             301            1116     77.9990E-03     79.8244E-03
             352            1116     77.9990E-03     79.8244E-03
             353            1117     83.5783E-03     85.4797E-03
             302            1117     83.5783E-03     85.4797E-03
             352            1117     83.5783E-03     85.4797E-03
             303            1117     83.5783E-03     85.4797E-03
             304            1118     90.1492E-03     89.6664E-03
             303            1118     90.1492E-03     89.6664E-03
             354            1118     90.1492E-03     89.6664E-03
             353            1118     90.1492E-03     89.6664E-03
             305            1119     92.7763E-03     99.7707E-03
             304            1119     92.7763E-03     99.7707E-03
             354            1119     92.7763E-03     99.7707E-03
             355            1119     92.7763E-03     99.7707E-03
             355            1120     108.567E-03     102.739E-03
             305            1120     108.567E-03     102.739E-03
             356            1120     108.567E-03     102.739E-03
             306            1120     108.567E-03     102.739E-03
             306            1121     113.074E-03     110.945E-03
             356            1121     113.074E-03     110.945E-03
             307            1121     113.074E-03     110.945E-03
             357            1121     113.074E-03     110.945E-03
             307            1122     96.5878E-03     115.809E-03
             357            1122     96.5878E-03     115.809E-03
             358            1122     96.5878E-03     115.809E-03
             308            1122     96.5878E-03     115.809E-03
             359            1123     103.708E-03     100.806E-03
             309            1123     103.708E-03     100.806E-03
             308            1123     103.708E-03     100.806E-03
             358            1123     103.708E-03     100.806E-03
             360            1124     108.051E-03     103.881E-03
             359            1124     108.051E-03     103.881E-03
             310            1124     108.051E-03     103.881E-03
             309            1124     108.051E-03     103.881E-03
             360            1125     105.779E-03     111.670E-03
             311            1125     105.779E-03     111.670E-03
             310            1125     105.779E-03     111.670E-03
             361            1125     105.779E-03     111.670E-03
             361            1126     113.698E-03     114.070E-03
             312            1126     113.698E-03     114.070E-03
             362            1126     113.698E-03     114.070E-03
             311            1126     113.698E-03     114.070E-03
             362            1127     118.262E-03     121.024E-03
             312            1127     118.262E-03     121.024E-03
             313            1127     118.262E-03     121.024E-03
             363            1127     118.262E-03     121.024E-03
             363            1128     124.121E-03     126.965E-03
             364            1128     124.121E-03     126.965E-03
             313            1128     124.121E-03     126.965E-03
             314            1128     124.121E-03     126.965E-03
             364            1129     131.437E-03     130.910E-03
             365            1129     131.437E-03     130.910E-03
             314            1129     131.437E-03     130.910E-03
             315            1129     131.437E-03     130.910E-03
             316            1130     133.296E-03     142.986E-03
             315            1130     133.296E-03     142.986E-03
             366            1130     133.296E-03     142.986E-03
             365            1130     133.296E-03     142.986E-03
             316            1131     153.243E-03     145.281E-03
             317            1131     153.243E-03     145.281E-03
             367            1131     153.243E-03     145.281E-03
             366            1131     153.243E-03     145.281E-03
             317            1132     158.068E-03     154.908E-03
             318            1132     158.068E-03     154.908E-03
             367            1132     158.068E-03     154.908E-03
             368            1132     158.068E-03     154.908E-03
             318            1133     136.245E-03     163.419E-03
             369            1133     136.245E-03     163.419E-03
             319            1133     136.245E-03     163.419E-03
             368            1133     136.245E-03     163.419E-03
             320            1134     147.762E-03     143.901E-03
             319            1134     147.762E-03     143.901E-03
             369            1134     147.762E-03     143.901E-03
             370            1134     147.762E-03     143.901E-03
             320            1135     152.374E-03     146.248E-03
             321            1135     152.374E-03     146.248E-03
             370            1135     152.374E-03     146.248E-03
             371            1135     152.374E-03     146.248E-03
             322            1136     146.964E-03     155.167E-03
             371            1136     146.964E-03     155.167E-03
             372            1136     146.964E-03     155.167E-03
             321            1136     146.964E-03     155.167E-03
             322            1137     155.737E-03     156.798E-03
             373            1137     155.737E-03     156.798E-03
             323            1137     155.737E-03     156.798E-03
             372            1137     155.737E-03     156.798E-03
             323            1138     161.227E-03     164.899E-03
             373            1138     161.227E-03     164.899E-03
             374            1138     161.227E-03     164.899E-03
             324            1138     161.227E-03     164.899E-03
             325            1139     168.765E-03     168.681E-03
             324            1139     168.765E-03     168.681E-03
             375            1139     168.765E-03     168.681E-03
             374            1139     168.765E-03     168.681E-03
             375            1140     170.412E-03     182.402E-03
             326            1140     170.412E-03     182.402E-03
             376            1140     170.412E-03     182.402E-03
             325            1140     170.412E-03     182.402E-03
             326            1141     194.255E-03     184.353E-03
             377            1141     194.255E-03     184.353E-03
             376            1141     194.255E-03     184.353E-03
             327            1141     194.255E-03     184.353E-03
             378            1142     199.516E-03     195.487E-03
             327            1142     199.516E-03     195.487E-03
             377            1142     199.516E-03     195.487E-03
             328            1142     199.516E-03     195.487E-03
             379            1143     55.2661E-03     66.5969E-03
             385            1143     55.2661E-03     66.5969E-03
             380            1143     55.2661E-03     66.5969E-03
             386            1143     55.2661E-03     66.5969E-03
             380            1144     63.5212E-03     62.3695E-03
             387            1144     63.5212E-03     62.3695E-03
             381            1144     63.5212E-03     62.3695E-03
             386            1144     63.5212E-03     62.3695E-03
             388            1145     60.2558E-03     56.4030E-03
             381            1145     60.2558E-03     56.4030E-03
             382            1145     60.2558E-03     56.4030E-03
             387            1145     60.2558E-03     56.4030E-03
             383            1146     47.8883E-03     52.4508E-03
             388            1146     47.8883E-03     52.4508E-03
             382            1146     47.8883E-03     52.4508E-03
             389            1146     47.8883E-03     52.4508E-03
             390            1147     45.1876E-03     46.9764E-03
             383            1147     45.1876E-03     46.9764E-03
             384            1147     45.1876E-03     46.9764E-03
             389            1147     45.1876E-03     46.9764E-03
             386            1148     81.1976E-03     95.7042E-03
             385            1148     81.1976E-03     95.7042E-03
             391            1148     81.1976E-03     95.7042E-03
             392            1148     81.1976E-03     95.7042E-03
             387            1149     91.7207E-03     91.5689E-03
             393            1149     91.7207E-03     91.5689E-03
             386            1149     91.7207E-03     91.5689E-03
             392            1149     91.7207E-03     91.5689E-03
             394            1150     91.8995E-03     86.5218E-03
             388            1150     91.8995E-03     86.5218E-03
             393            1150     91.8995E-03     86.5218E-03
             387            1150     91.8995E-03     86.5218E-03
             389            1151     78.3932E-03     82.3210E-03
             395            1151     78.3932E-03     82.3210E-03
             394            1151     78.3932E-03     82.3210E-03
             388            1151     78.3932E-03     82.3210E-03
             390            1152     71.4507E-03     67.9282E-03
             389            1152     71.4507E-03     67.9282E-03
             395            1152     71.4507E-03     67.9282E-03
             396            1152     71.4507E-03     67.9282E-03
             397            1153     109.084E-03     125.435E-03
             391            1153     109.084E-03     125.435E-03
             392            1153     109.084E-03     125.435E-03
             398            1153     109.084E-03     125.435E-03
             393            1154     122.581E-03     120.421E-03
             399            1154     122.581E-03     120.421E-03
             392            1154     122.581E-03     120.421E-03
             398            1154     122.581E-03     120.421E-03
             394            1155     127.441E-03     120.846E-03
             393            1155     127.441E-03     120.846E-03
             400            1155     127.441E-03     120.846E-03
             399            1155     127.441E-03     120.846E-03
             401            1156     118.020E-03     118.015E-03
             400            1156     118.020E-03     118.015E-03
             395            1156     118.020E-03     118.015E-03
             394            1156     118.020E-03     118.015E-03
             401            1157     108.006E-03     102.132E-03
             402            1157     108.006E-03     102.132E-03
             396            1157     108.006E-03     102.132E-03
             395            1157     108.006E-03     102.132E-03
             398            1158     132.983E-03     153.426E-03
             404            1158     132.983E-03     153.426E-03
             403            1158     132.983E-03     153.426E-03
             397            1158     132.983E-03     153.426E-03
             404            1159     149.476E-03     146.241E-03
             398            1159     149.476E-03     146.241E-03
             405            1159     149.476E-03     146.241E-03
             399            1159     149.476E-03     146.241E-03
             399            1160     156.769E-03     147.502E-03
             405            1160     156.769E-03     147.502E-03
             400            1160     156.769E-03     147.502E-03
             406            1160     156.769E-03     147.502E-03
             406            1161     151.783E-03     145.572E-03
             407            1161     151.783E-03     145.572E-03
             400            1161     151.783E-03     145.572E-03
             401            1161     151.783E-03     145.572E-03
             407            1162     141.672E-03     135.041E-03
             402            1162     141.672E-03     135.041E-03
             401            1162     141.672E-03     135.041E-03
             408            1162     141.672E-03     135.041E-03
             403            1163     151.313E-03     174.822E-03
             404            1163     151.313E-03     174.822E-03
             409            1163     151.313E-03     174.822E-03
             410            1163     151.313E-03     174.822E-03
             411            1164     169.610E-03     166.267E-03
             404            1164     169.610E-03     166.267E-03
             410            1164     169.610E-03     166.267E-03
             405            1164     169.610E-03     166.267E-03
             412            1165     174.061E-03     168.693E-03
             411            1165     174.061E-03     168.693E-03
             406            1165     174.061E-03     168.693E-03
             405            1165     174.061E-03     168.693E-03
             412            1166     173.985E-03     168.239E-03
             407            1166     173.985E-03     168.239E-03
             413            1166     173.985E-03     168.239E-03
             406            1166     173.985E-03     168.239E-03
             408            1167     168.570E-03     163.985E-03
             414            1167     168.570E-03     163.985E-03
             407            1167     168.570E-03     163.985E-03
             413            1167     168.570E-03     163.985E-03
             410            1168     164.768E-03     181.989E-03
             415            1168     164.768E-03     181.989E-03
             416            1168     164.768E-03     181.989E-03
             409            1168     164.768E-03     181.989E-03
             410            1169     179.925E-03     172.819E-03
             416            1169     179.925E-03     172.819E-03
             411            1169     179.925E-03     172.819E-03
             417            1169     179.925E-03     172.819E-03
             411            1170     181.518E-03     178.581E-03
             412            1170     181.518E-03     178.581E-03
             417            1170     181.518E-03     178.581E-03
             418            1170     181.518E-03     178.581E-03
             412            1171     187.371E-03     182.381E-03
             419            1171     187.371E-03     182.381E-03
             413            1171     187.371E-03     182.381E-03
             418            1171     187.371E-03     182.381E-03
             420            1172     191.258E-03     186.278E-03
             419            1172     191.258E-03     186.278E-03
             413            1172     191.258E-03     186.278E-03
             414            1172     191.258E-03     186.278E-03
             421            1173     47.3604E-03     43.8893E-03
             428            1173     47.3604E-03     43.8893E-03
             427            1173     47.3604E-03     43.8893E-03
             422            1173     47.3604E-03     43.8893E-03
             423            1174     48.5519E-03     47.4370E-03
             428            1174     48.5519E-03     47.4370E-03
             422            1174     48.5519E-03     47.4370E-03
             429            1174     48.5519E-03     47.4370E-03
             423            1175     45.9230E-03     48.4651E-03
             424            1175     45.9230E-03     48.4651E-03
             429            1175     45.9230E-03     48.4651E-03
             430            1175     45.9230E-03     48.4651E-03
             424            1176     47.8786E-03     46.1471E-03
             425            1176     47.8786E-03     46.1471E-03
             431            1176     47.8786E-03     46.1471E-03
             430            1176     47.8786E-03     46.1471E-03
             432            1177     46.7589E-03     48.2597E-03
             426            1177     46.7589E-03     48.2597E-03
             431            1177     46.7589E-03     48.2597E-03
             425            1177     46.7589E-03     48.2597E-03
             433            1178     76.4940E-03     73.5882E-03
             427            1178     76.4940E-03     73.5882E-03
             434            1178     76.4940E-03     73.5882E-03
             428            1178     76.4940E-03     73.5882E-03
             428            1179     80.2215E-03     76.4435E-03
             434            1179     80.2215E-03     76.4435E-03
             429            1179     80.2215E-03     76.4435E-03
             435            1179     80.2215E-03     76.4435E-03
             429            1180     73.2737E-03     80.6353E-03
             435            1180     73.2737E-03     80.6353E-03
             430            1180     73.2737E-03     80.6353E-03
             436            1180     73.2737E-03     80.6353E-03
             430            1181     77.7721E-03     73.5389E-03
             437            1181     77.7721E-03     73.5389E-03
             436            1181     77.7721E-03     73.5389E-03
             431            1181     77.7721E-03     73.5389E-03
             437            1182     73.6070E-03     71.8525E-03
             431            1182     73.6070E-03     71.8525E-03
             432            1182     73.6070E-03     71.8525E-03
             438            1182     73.6070E-03     71.8525E-03
             439            1183     111.282E-03     106.576E-03
             433            1183     111.282E-03     106.576E-03
             434            1183     111.282E-03     106.576E-03
             440            1183     111.282E-03     106.576E-03
             440            1184     117.576E-03     107.813E-03
             434            1184     117.576E-03     107.813E-03
             441            1184     117.576E-03     107.813E-03
             435            1184     117.576E-03     107.813E-03
             441            1185     104.673E-03     114.879E-03
             436            1185     104.673E-03     114.879E-03
             435            1185     104.673E-03     114.879E-03
             442            1185     104.673E-03     114.879E-03
             437            1186     110.849E-03     103.606E-03
             443            1186     110.849E-03     103.606E-03
             436            1186     110.849E-03     103.606E-03
             442            1186     110.849E-03     103.606E-03
             444            1187     102.872E-03     99.3597E-03
             437            1187     102.872E-03     99.3597E-03
             443            1187     102.872E-03     99.3597E-03
             438            1187     102.872E-03     99.3597E-03
             446            1188     142.520E-03     137.157E-03
             439            1188     142.520E-03     137.157E-03
             440            1188     142.520E-03     137.157E-03
             445            1188     142.520E-03     137.157E-03
             447            1189     149.113E-03     132.188E-03
             440            1189     149.113E-03     132.188E-03
             446            1189     149.113E-03     132.188E-03
             441            1189     149.113E-03     132.188E-03
             447            1190     128.981E-03     142.531E-03
             448            1190     128.981E-03     142.531E-03
             442            1190     128.981E-03     142.531E-03
             441            1190     128.981E-03     142.531E-03
             442            1191     139.326E-03     128.115E-03
             448            1191     139.326E-03     128.115E-03
             449            1191     139.326E-03     128.115E-03
             443            1191     139.326E-03     128.115E-03
             443            1192     129.895E-03     126.427E-03
             449            1192     129.895E-03     126.427E-03
             444            1192     129.895E-03     126.427E-03
             450            1192     129.895E-03     126.427E-03
             445            1193     167.411E-03     165.594E-03
             452            1193     167.411E-03     165.594E-03
             451            1193     167.411E-03     165.594E-03
             446            1193     167.411E-03     165.594E-03
             446            1194     171.744E-03     155.105E-03
             453            1194     171.744E-03     155.105E-03
             447            1194     171.744E-03     155.105E-03
             452            1194     171.744E-03     155.105E-03
             453            1195     143.749E-03     164.793E-03
             448            1195     143.749E-03     164.793E-03
             454            1195     143.749E-03     164.793E-03
             447            1195     143.749E-03     164.793E-03
             448            1196     158.933E-03     147.696E-03
             454            1196     158.933E-03     147.696E-03
             455            1196     158.933E-03     147.696E-03
             449            1196     158.933E-03     147.696E-03
             456            1197     151.652E-03     149.392E-03
             450            1197     151.652E-03     149.392E-03
             449            1197     151.652E-03     149.392E-03
             455            1197     151.652E-03     149.392E-03
             451            1198     189.931E-03     187.462E-03
             452            1198     189.931E-03     187.462E-03
             458            1198     189.931E-03     187.462E-03
             457            1198     189.931E-03     187.462E-03
             453            1199     186.720E-03     172.760E-03
             459            1199     186.720E-03     172.760E-03
             458            1199     186.720E-03     172.760E-03
             452            1199     186.720E-03     172.760E-03
             460            1200     158.832E-03     176.360E-03
             459            1200     158.832E-03     176.360E-03
             453            1200     158.832E-03     176.360E-03
             454            1200     158.832E-03     176.360E-03
             454            1201     168.951E-03     158.181E-03
             460            1201     168.951E-03     158.181E-03
             461            1201     168.951E-03     158.181E-03
             455            1201     168.951E-03     158.181E-03
             455            1202     162.328E-03     157.813E-03
             462            1202     162.328E-03     157.813E-03
             456            1202     162.328E-03     157.813E-03
             461            1202     162.328E-03     157.813E-03
             469            1203     648.901E-06     641.173E-06
             464            1203     648.901E-06     641.173E-06
             470            1203     648.901E-06     641.173E-06
             463            1203     648.901E-06     641.173E-06
             470            1204     652.196E-06     644.700E-06
             464            1204     652.196E-06     644.700E-06
             465            1204     652.196E-06     644.700E-06
             471            1204     652.196E-06     644.700E-06
             465            1205     648.899E-06     649.761E-06
             471            1205     648.899E-06     649.761E-06
             466            1205     648.899E-06     649.761E-06
             472            1205     648.899E-06     649.761E-06
             467            1206     659.003E-06     651.685E-06
             472            1206     659.003E-06     651.685E-06
             473            1206     659.003E-06     651.685E-06
             466            1206     659.003E-06     651.685E-06
             467            1207     658.520E-06     644.182E-06
             468            1207     658.520E-06     644.182E-06
             474            1207     658.520E-06     644.182E-06
             473            1207     658.520E-06     644.182E-06
             476            1208     592.650E-06     585.073E-06
             469            1208     592.650E-06     585.073E-06
             475            1208     592.650E-06     585.073E-06
             470            1208     592.650E-06     585.073E-06
             471            1209     598.553E-06     591.331E-06
             470            1209     598.553E-06     591.331E-06
             477            1209     598.553E-06     591.331E-06
             476            1209     598.553E-06     591.331E-06
             477            1210     600.697E-06     604.153E-06
             472            1210     600.697E-06     604.153E-06
             478            1210     600.697E-06     604.153E-06
             471            1210     600.697E-06     604.153E-06
             473            1211     624.852E-06     613.229E-06
             478            1211     624.852E-06     613.229E-06
             472            1211     624.852E-06     613.229E-06
             479            1211     624.852E-06     613.229E-06
             473            1212     626.578E-06     617.197E-06
             480            1212     626.578E-06     617.197E-06
             479            1212     626.578E-06     617.197E-06
             474            1212     626.578E-06     617.197E-06
             475            1213     499.926E-06     495.476E-06
             481            1213     499.926E-06     495.476E-06
             476            1213     499.926E-06     495.476E-06
             482            1213     499.926E-06     495.476E-06
             482            1214     507.694E-06     508.476E-06
             477            1214     507.694E-06     508.476E-06
             476            1214     507.694E-06     508.476E-06
             483            1214     507.694E-06     508.476E-06
             483            1215     521.338E-06     534.038E-06
             484            1215     521.338E-06     534.038E-06
             478            1215     521.338E-06     534.038E-06
             477            1215     521.338E-06     534.038E-06
             484            1216     574.452E-06     548.530E-06
             485            1216     574.452E-06     548.530E-06
             478            1216     574.452E-06     548.530E-06
             479            1216     574.452E-06     548.530E-06
             486            1217     585.636E-06     573.725E-06
             479            1217     585.636E-06     573.725E-06
             485            1217     585.636E-06     573.725E-06
             480            1217     585.636E-06     573.725E-06
             482            1218     369.735E-06     375.428E-06
             488            1218     369.735E-06     375.428E-06
             481            1218     369.735E-06     375.428E-06
             487            1218     369.735E-06     375.428E-06
             488            1219     389.341E-06     398.753E-06
             489            1219     389.341E-06     398.753E-06
             483            1219     389.341E-06     398.753E-06
             482            1219     389.341E-06     398.753E-06
             490            1220     420.350E-06     442.998E-06
             483            1220     420.350E-06     442.998E-06
             484            1220     420.350E-06     442.998E-06
             489            1220     420.350E-06     442.998E-06
             485            1221     510.868E-06     463.168E-06
             484            1221     510.868E-06     463.168E-06
             491            1221     510.868E-06     463.168E-06
             490            1221     510.868E-06     463.168E-06
             486            1222     530.996E-06     523.403E-06
             492            1222     530.996E-06     523.403E-06
             491            1222     530.996E-06     523.403E-06
             485            1222     530.996E-06     523.403E-06
             493            1223     216.252E-06     234.555E-06
             494            1223     216.252E-06     234.555E-06
             487            1223     216.252E-06     234.555E-06
             488            1223     216.252E-06     234.555E-06
             495            1224     248.301E-06     247.372E-06
             494            1224     248.301E-06     247.372E-06
             488            1224     248.301E-06     247.372E-06
             489            1224     248.301E-06     247.372E-06
             490            1225     310.268E-06     336.560E-06
             495            1225     310.268E-06     336.560E-06
             489            1225     310.268E-06     336.560E-06
             496            1225     310.268E-06     336.560E-06
             496            1226     463.353E-06     410.369E-06
             497            1226     463.353E-06     410.369E-06
             491            1226     463.353E-06     410.369E-06
             490            1226     463.353E-06     410.369E-06
             492            1227     505.050E-06     512.485E-06
             491            1227     505.050E-06     512.485E-06
             498            1227     505.050E-06     512.485E-06
             497            1227     505.050E-06     512.485E-06
             500            1228     157.504E-06     197.561E-06
             493            1228     157.504E-06     197.561E-06
             499            1228     157.504E-06     197.561E-06
             494            1228     157.504E-06     197.561E-06
             495            1229     195.969E-06     179.074E-06
             500            1229     195.969E-06     179.074E-06
             501            1229     195.969E-06     179.074E-06
             494            1229     195.969E-06     179.074E-06
             495            1230     283.655E-06     312.636E-06
             501            1230     283.655E-06     312.636E-06
             502            1230     283.655E-06     312.636E-06
             496            1230     283.655E-06     312.636E-06
             502            1231     486.570E-06     447.993E-06
             496            1231     486.570E-06     447.993E-06
             503            1231     486.570E-06     447.993E-06
             497            1231     486.570E-06     447.993E-06
             498            1232     607.351E-06     611.671E-06
             503            1232     607.351E-06     611.671E-06
             497            1232     607.351E-06     611.671E-06
             504            1232     607.351E-06     611.671E-06
             546            1233     41.2321E-03     41.2877E-03
             505            1233     41.2321E-03     41.2877E-03
             545            1233     41.2321E-03     41.2877E-03
             506            1233     41.2321E-03     41.2877E-03
             507            1234     48.5500E-03     45.9006E-03
             546            1234     48.5500E-03     45.9006E-03
             547            1234     48.5500E-03     45.9006E-03
             506            1234     48.5500E-03     45.9006E-03
             508            1235     49.2932E-03     49.0929E-03
             507            1235     49.2932E-03     49.0929E-03
             547            1235     49.2932E-03     49.0929E-03
             548            1235     49.2932E-03     49.0929E-03
             509            1236     46.9153E-03     49.4899E-03
             549            1236     46.9153E-03     49.4899E-03
             508            1236     46.9153E-03     49.4899E-03
             548            1236     46.9153E-03     49.4899E-03
             509            1237     47.9043E-03     48.3429E-03
             510            1237     47.9043E-03     48.3429E-03
             549            1237     47.9043E-03     48.3429E-03
             550            1237     47.9043E-03     48.3429E-03
             550            1238     47.7754E-03     48.1502E-03
             551            1238     47.7754E-03     48.1502E-03
             511            1238     47.7754E-03     48.1502E-03
             510            1238     47.7754E-03     48.1502E-03
             511            1239     47.3095E-03     47.1983E-03
             551            1239     47.3095E-03     47.1983E-03
             552            1239     47.3095E-03     47.1983E-03
             512            1239     47.3095E-03     47.1983E-03
             552            1240     46.8767E-03     46.1474E-03
             513            1240     46.8767E-03     46.1474E-03
             512            1240     46.8767E-03     46.1474E-03
             553            1240     46.8767E-03     46.1474E-03
             514            1241     46.3795E-03     45.3496E-03
             513            1241     46.3795E-03     45.3496E-03
             554            1241     46.3795E-03     45.3496E-03
             553            1241     46.3795E-03     45.3496E-03
             554            1242     45.6626E-03     43.6832E-03
             555            1242     45.6626E-03     43.6832E-03
             515            1242     45.6626E-03     43.6832E-03
             514            1242     45.6626E-03     43.6832E-03
             515            1243     44.3154E-03     44.1213E-03
             555            1243     44.3154E-03     44.1213E-03
             556            1243     44.3154E-03     44.1213E-03
             516            1243     44.3154E-03     44.1213E-03
             556            1244     41.8730E-03     42.7105E-03
             557            1244     41.8730E-03     42.7105E-03
             517            1244     41.8730E-03     42.7105E-03
             516            1244     41.8730E-03     42.7105E-03
             557            1245     43.1186E-03     41.0372E-03
             558            1245     43.1186E-03     41.0372E-03
             518            1245     43.1186E-03     41.0372E-03
             517            1245     43.1186E-03     41.0372E-03
             519            1246     43.4426E-03     43.2739E-03
             558            1246     43.4426E-03     43.2739E-03
             518            1246     43.4426E-03     43.2739E-03
             559            1246     43.4426E-03     43.2739E-03
             560            1247     41.5938E-03     43.3181E-03
             520            1247     41.5938E-03     43.3181E-03
             519            1247     41.5938E-03     43.3181E-03
             559            1247     41.5938E-03     43.3181E-03
             560            1248     42.1407E-03     42.3935E-03
             561            1248     42.1407E-03     42.3935E-03
             521            1248     42.1407E-03     42.3935E-03
             520            1248     42.1407E-03     42.3935E-03
             562            1249     41.8942E-03     42.1656E-03
             561            1249     41.8942E-03     42.1656E-03
             521            1249     41.8942E-03     42.1656E-03
             522            1249     41.8942E-03     42.1656E-03
             562            1250     41.4856E-03     41.5485E-03
             523            1250     41.4856E-03     41.5485E-03
             563            1250     41.4856E-03     41.5485E-03
             522            1250     41.4856E-03     41.5485E-03
             524            1251     41.2142E-03     40.7508E-03
             563            1251     41.2142E-03     40.7508E-03
             564            1251     41.2142E-03     40.7508E-03
             523            1251     41.2142E-03     40.7508E-03
             524            1252     40.8211E-03     40.1275E-03
             564            1252     40.8211E-03     40.1275E-03
             565            1252     40.8211E-03     40.1275E-03
             525            1252     40.8211E-03     40.1275E-03
             525            1253     40.4937E-03     39.5283E-03
             566            1253     40.4937E-03     39.5283E-03
             526            1253     40.4937E-03     39.5283E-03
             565            1253     40.4937E-03     39.5283E-03
             526            1254     40.0019E-03     38.6992E-03
             527            1254     40.0019E-03     38.6992E-03
             567            1254     40.0019E-03     38.6992E-03
             566            1254     40.0019E-03     38.6992E-03
             527            1255     39.2456E-03     39.0040E-03
             568            1255     39.2456E-03     39.0040E-03
             567            1255     39.2456E-03     39.0040E-03
             528            1255     39.2456E-03     39.0040E-03
             529            1256     37.7825E-03     37.7703E-03
             569            1256     37.7825E-03     37.7703E-03
             528            1256     37.7825E-03     37.7703E-03
             568            1256     37.7825E-03     37.7703E-03
             570            1257     37.9981E-03     36.6637E-03
             529            1257     37.9981E-03     36.6637E-03
             530            1257     37.9981E-03     36.6637E-03
             569            1257     37.9981E-03     36.6637E-03
             570            1258     38.0652E-03     37.9616E-03
             530            1258     38.0652E-03     37.9616E-03
             571            1258     38.0652E-03     37.9616E-03
             531            1258     38.0652E-03     37.9616E-03
             572            1259     37.0200E-03     37.8205E-03
             531            1259     37.0200E-03     37.8205E-03
             532            1259     37.0200E-03     37.8205E-03
             571            1259     37.0200E-03     37.8205E-03
             532            1260     37.2452E-03     37.2681E-03
             573            1260     37.2452E-03     37.2681E-03
             572            1260     37.2452E-03     37.2681E-03
             533            1260     37.2452E-03     37.2681E-03
             574            1261     37.0603E-03     37.1164E-03
             573            1261     37.0603E-03     37.1164E-03
             534            1261     37.0603E-03     37.1164E-03
             533            1261     37.0603E-03     37.1164E-03
             574            1262     36.8471E-03     36.7574E-03
             575            1262     36.8471E-03     36.7574E-03
             534            1262     36.8471E-03     36.7574E-03
             535            1262     36.8471E-03     36.7574E-03
             535            1263     36.7553E-03     36.4116E-03
             536            1263     36.7553E-03     36.4116E-03
             575            1263     36.7553E-03     36.4116E-03
             576            1263     36.7553E-03     36.4116E-03
             537            1264     36.6739E-03     36.2137E-03
             536            1264     36.6739E-03     36.2137E-03
             576            1264     36.6739E-03     36.2137E-03
             577            1264     36.6739E-03     36.2137E-03
             577            1265     36.5489E-03     35.9404E-03
             538            1265     36.5489E-03     35.9404E-03
             578            1265     36.5489E-03     35.9404E-03
             537            1265     36.5489E-03     35.9404E-03
             578            1266     36.2970E-03     35.8943E-03
             538            1266     36.2970E-03     35.8943E-03
             539            1266     36.2970E-03     35.8943E-03
             579            1266     36.2970E-03     35.8943E-03
             580            1267     34.6965E-03     34.3738E-03
             579            1267     34.6965E-03     34.3738E-03
             540            1267     34.6965E-03     34.3738E-03
             539            1267     34.6965E-03     34.3738E-03
             581            1268     33.6856E-03     33.1008E-03
             580            1268     33.6856E-03     33.1008E-03
             540            1268     33.6856E-03     33.1008E-03
             541            1268     33.6856E-03     33.1008E-03
             541            1269     33.7473E-03     33.5950E-03
             582            1269     33.7473E-03     33.5950E-03
             581            1269     33.7473E-03     33.5950E-03
             542            1269     33.7473E-03     33.5950E-03
             542            1270     33.5471E-03     33.5172E-03
             543            1270     33.5471E-03     33.5172E-03
             583            1270     33.5471E-03     33.5172E-03
             582            1270     33.5471E-03     33.5172E-03
             543            1271     33.5556E-03     33.2728E-03
             544            1271     33.5556E-03     33.2728E-03
             584            1271     33.5556E-03     33.2728E-03
             583            1271     33.5556E-03     33.2728E-03
             545            1272     63.1514E-03     67.6366E-03
             546            1272     63.1514E-03     67.6366E-03
             586            1272     63.1514E-03     67.6366E-03
             585            1272     63.1514E-03     67.6366E-03
             586            1273     72.4216E-03     68.6826E-03
             547            1273     72.4216E-03     68.6826E-03
             587            1273     72.4216E-03     68.6826E-03
             546            1273     72.4216E-03     68.6826E-03
             588            1274     75.1951E-03     70.6471E-03
             547            1274     75.1951E-03     70.6471E-03
             548            1274     75.1951E-03     70.6471E-03
             587            1274     75.1951E-03     70.6471E-03
             548            1275     69.0336E-03     72.0046E-03
             588            1275     69.0336E-03     72.0046E-03
             549            1275     69.0336E-03     72.0046E-03
             589            1275     69.0336E-03     72.0046E-03
             589            1276     69.2665E-03     68.0086E-03
             590            1276     69.2665E-03     68.0086E-03
             549            1276     69.2665E-03     68.0086E-03
             550            1276     69.2665E-03     68.0086E-03
             550            1277     67.4450E-03     66.9713E-03
             591            1277     67.4450E-03     66.9713E-03
             551            1277     67.4450E-03     66.9713E-03
             590            1277     67.4450E-03     66.9713E-03
             551            1278     65.0509E-03     65.2149E-03
             591            1278     65.0509E-03     65.2149E-03
             552            1278     65.0509E-03     65.2149E-03
             592            1278     65.0509E-03     65.2149E-03
             552            1279     63.0170E-03     62.8923E-03
             593            1279     63.0170E-03     62.8923E-03
             592            1279     63.0170E-03     62.8923E-03
             553            1279     63.0170E-03     62.8923E-03
             593            1280     60.1647E-03     61.7402E-03
             594            1280     60.1647E-03     61.7402E-03
             553            1280     60.1647E-03     61.7402E-03
             554            1280     60.1647E-03     61.7402E-03
             554            1281     59.7246E-03     57.6378E-03
             594            1281     59.7246E-03     57.6378E-03
             555            1281     59.7246E-03     57.6378E-03
             595            1281     59.7246E-03     57.6378E-03
             555            1282     56.1852E-03     55.2297E-03
             595            1282     56.1852E-03     55.2297E-03
             596            1282     56.1852E-03     55.2297E-03
             556            1282     56.1852E-03     55.2297E-03
             597            1283     51.2448E-03     56.3353E-03
             596            1283     51.2448E-03     56.3353E-03
             556            1283     51.2448E-03     56.3353E-03
             557            1283     51.2448E-03     56.3353E-03
             598            1284     57.0364E-03     54.1999E-03
             597            1284     57.0364E-03     54.1999E-03
             558            1284     57.0364E-03     54.1999E-03
             557            1284     57.0364E-03     54.1999E-03
             558            1285     58.5669E-03     55.2224E-03
             599            1285     58.5669E-03     55.2224E-03
             559            1285     58.5669E-03     55.2224E-03
             598            1285     58.5669E-03     55.2224E-03
             599            1286     53.8024E-03     55.5565E-03
             600            1286     53.8024E-03     55.5565E-03
             559            1286     53.8024E-03     55.5565E-03
             560            1286     53.8024E-03     55.5565E-03
             600            1287     53.5795E-03     52.3991E-03
             561            1287     53.5795E-03     52.3991E-03
             560            1287     53.5795E-03     52.3991E-03
             601            1287     53.5795E-03     52.3991E-03
             561            1288     52.0319E-03     51.3379E-03
             602            1288     52.0319E-03     51.3379E-03
             562            1288     52.0319E-03     51.3379E-03
             601            1288     52.0319E-03     51.3379E-03
             603            1289     49.9526E-03     50.0714E-03
             563            1289     49.9526E-03     50.0714E-03
             602            1289     49.9526E-03     50.0714E-03
             562            1289     49.9526E-03     50.0714E-03
             564            1290     48.4778E-03     48.4544E-03
             563            1290     48.4778E-03     48.4544E-03
             603            1290     48.4778E-03     48.4544E-03
             604            1290     48.4778E-03     48.4544E-03
             605            1291     46.7106E-03     46.9455E-03
             564            1291     46.7106E-03     46.9455E-03
             565            1291     46.7106E-03     46.9455E-03
             604            1291     46.7106E-03     46.9455E-03
             606            1292     44.8850E-03     45.6507E-03
             605            1292     44.8850E-03     45.6507E-03
             566            1292     44.8850E-03     45.6507E-03
             565            1292     44.8850E-03     45.6507E-03
             606            1293     43.9816E-03     43.2276E-03
             566            1293     43.9816E-03     43.2276E-03
             567            1293     43.9816E-03     43.2276E-03
             607            1293     43.9816E-03     43.2276E-03
             607            1294     42.1246E-03     41.8241E-03
             568            1294     42.1246E-03     41.8241E-03
             608            1294     42.1246E-03     41.8241E-03
             567            1294     42.1246E-03     41.8241E-03
             609            1295     39.8125E-03     41.8016E-03
             608            1295     39.8125E-03     41.8016E-03
             569            1295     39.8125E-03     41.8016E-03
             568            1295     39.8125E-03     41.8016E-03
             570            1296     42.3197E-03     40.6149E-03
             569            1296     42.3197E-03     40.6149E-03
             609            1296     42.3197E-03     40.6149E-03
             610            1296     42.3197E-03     40.6149E-03
             570            1297     42.7569E-03     41.0558E-03
             611            1297     42.7569E-03     41.0558E-03
             571            1297     42.7569E-03     41.0558E-03
             610            1297     42.7569E-03     41.0558E-03
             571            1298     39.9457E-03     40.7577E-03
             612            1298     39.9457E-03     40.7577E-03
             572            1298     39.9457E-03     40.7577E-03
             611            1298     39.9457E-03     40.7577E-03
             613            1299     39.4710E-03     38.9863E-03
             612            1299     39.4710E-03     38.9863E-03
             572            1299     39.4710E-03     38.9863E-03
             573            1299     39.4710E-03     38.9863E-03
             574            1300     38.3878E-03     38.3204E-03
             573            1300     38.3878E-03     38.3204E-03
             613            1300     38.3878E-03     38.3204E-03
             614            1300     38.3878E-03     38.3204E-03
             574            1301     37.1637E-03     37.4633E-03
             614            1301     37.1637E-03     37.4633E-03
             615            1301     37.1637E-03     37.4633E-03
             575            1301     37.1637E-03     37.4633E-03
             616            1302     36.3013E-03     36.4807E-03
             576            1302     36.3013E-03     36.4807E-03
             575            1302     36.3013E-03     36.4807E-03
             615            1302     36.3013E-03     36.4807E-03
             616            1303     35.4729E-03     35.6049E-03
             576            1303     35.4729E-03     35.6049E-03
             617            1303     35.4729E-03     35.6049E-03
             577            1303     35.4729E-03     35.6049E-03
             617            1304     34.8492E-03     34.7158E-03
             577            1304     34.8492E-03     34.7158E-03
             618            1304     34.8492E-03     34.7158E-03
             578            1304     34.8492E-03     34.7158E-03
             619            1305     34.2786E-03     34.0819E-03
             618            1305     34.2786E-03     34.0819E-03
             578            1305     34.2786E-03     34.0819E-03
             579            1305     34.2786E-03     34.0819E-03
             580            1306     32.9254E-03     32.9439E-03
             620            1306     32.9254E-03     32.9439E-03
             619            1306     32.9254E-03     32.9439E-03
             579            1306     32.9254E-03     32.9439E-03
             621            1307     32.4312E-03     32.0143E-03
             620            1307     32.4312E-03     32.0143E-03
             580            1307     32.4312E-03     32.0143E-03
             581            1307     32.4312E-03     32.0143E-03
             622            1308     32.4995E-03     32.2212E-03
             581            1308     32.4995E-03     32.2212E-03
             582            1308     32.4995E-03     32.2212E-03
             621            1308     32.4995E-03     32.2212E-03
             622            1309     32.0586E-03     32.0338E-03
             623            1309     32.0586E-03     32.0338E-03
             583            1309     32.0586E-03     32.0338E-03
             582            1309     32.0586E-03     32.0338E-03
             624            1310     31.9505E-03     31.6356E-03
             584            1310     31.9505E-03     31.6356E-03
             623            1310     31.9505E-03     31.6356E-03
             583            1310     31.9505E-03     31.6356E-03
             625            1311     88.7272E-03     99.3003E-03
             585            1311     88.7272E-03     99.3003E-03
             626            1311     88.7272E-03     99.3003E-03
             586            1311     88.7272E-03     99.3003E-03
             586            1312     102.337E-03     98.2049E-03
             627            1312     102.337E-03     98.2049E-03
             626            1312     102.337E-03     98.2049E-03
             587            1312     102.337E-03     98.2049E-03
             588            1313     106.035E-03     96.7331E-03
             587            1313     106.035E-03     96.7331E-03
             628            1313     106.035E-03     96.7331E-03
             627            1313     106.035E-03     96.7331E-03
             629            1314     93.5338E-03     97.5170E-03
             628            1314     93.5338E-03     97.5170E-03
             588            1314     93.5338E-03     97.5170E-03
             589            1314     93.5338E-03     97.5170E-03
             630            1315     92.1838E-03     89.6086E-03
             629            1315     92.1838E-03     89.6086E-03
             589            1315     92.1838E-03     89.6086E-03
             590            1315     92.1838E-03     89.6086E-03
             590            1316     88.5877E-03     87.3679E-03
             631            1316     88.5877E-03     87.3679E-03
             591            1316     88.5877E-03     87.3679E-03
             630            1316     88.5877E-03     87.3679E-03
             631            1317     84.9187E-03     84.7605E-03
             591            1317     84.9187E-03     84.7605E-03
             632            1317     84.9187E-03     84.7605E-03
             592            1317     84.9187E-03     84.7605E-03
             632            1318     82.2022E-03     81.7580E-03
             633            1318     82.2022E-03     81.7580E-03
             593            1318     82.2022E-03     81.7580E-03
             592            1318     82.2022E-03     81.7580E-03
             634            1319     78.1688E-03     81.9519E-03
             594            1319     78.1688E-03     81.9519E-03
             633            1319     78.1688E-03     81.9519E-03
             593            1319     78.1688E-03     81.9519E-03
             594            1320     79.5956E-03     76.8661E-03
             595            1320     79.5956E-03     76.8661E-03
             634            1320     79.5956E-03     76.8661E-03
             635            1320     79.5956E-03     76.8661E-03
             595            1321     74.0390E-03     73.1295E-03
             636            1321     74.0390E-03     73.1295E-03
             635            1321     74.0390E-03     73.1295E-03
             596            1321     74.0390E-03     73.1295E-03
             596            1322     64.9964E-03     77.3171E-03
             637            1322     64.9964E-03     77.3171E-03
             636            1322     64.9964E-03     77.3171E-03
             597            1322     64.9964E-03     77.3171E-03
             597            1323     75.8872E-03     72.8658E-03
             598            1323     75.8872E-03     72.8658E-03
             638            1323     75.8872E-03     72.8658E-03
             637            1323     75.8872E-03     72.8658E-03
             639            1324     77.8944E-03     71.0714E-03
             598            1324     77.8944E-03     71.0714E-03
             638            1324     77.8944E-03     71.0714E-03
             599            1324     77.8944E-03     71.0714E-03
             600            1325     68.1991E-03     70.8934E-03
             640            1325     68.1991E-03     70.8934E-03
             639            1325     68.1991E-03     70.8934E-03
             599            1325     68.1991E-03     70.8934E-03
             640            1326     66.5893E-03     64.7234E-03
             600            1326     66.5893E-03     64.7234E-03
             601            1326     66.5893E-03     64.7234E-03
             641            1326     66.5893E-03     64.7234E-03
             601            1327     63.4918E-03     62.3028E-03
             642            1327     63.4918E-03     62.3028E-03
             602            1327     63.4918E-03     62.3028E-03
             641            1327     63.4918E-03     62.3028E-03
             603            1328     59.8511E-03     60.0244E-03
             602            1328     59.8511E-03     60.0244E-03
             642            1328     59.8511E-03     60.0244E-03
             643            1328     59.8511E-03     60.0244E-03
             644            1329     57.4975E-03     57.3581E-03
             604            1329     57.4975E-03     57.3581E-03
             643            1329     57.4975E-03     57.3581E-03
             603            1329     57.4975E-03     57.3581E-03
             645            1330     54.8740E-03     55.3073E-03
             605            1330     54.8740E-03     55.3073E-03
             644            1330     54.8740E-03     55.3073E-03
             604            1330     54.8740E-03     55.3073E-03
             605            1331     51.8116E-03     54.3102E-03
             645            1331     51.8116E-03     54.3102E-03
             606            1331     51.8116E-03     54.3102E-03
             646            1331     51.8116E-03     54.3102E-03
             607            1332     51.2402E-03     50.8546E-03
             606            1332     51.2402E-03     50.8546E-03
             646            1332     51.2402E-03     50.8546E-03
             647            1332     51.2402E-03     50.8546E-03
             608            1333     47.9981E-03     48.0907E-03
             647            1333     47.9981E-03     48.0907E-03
             648            1333     47.9981E-03     48.0907E-03
             607            1333     47.9981E-03     48.0907E-03
             608            1334     43.5914E-03     49.5424E-03
             648            1334     43.5914E-03     49.5424E-03
             609            1334     43.5914E-03     49.5424E-03
             649            1334     43.5914E-03     49.5424E-03
             609            1335     48.8945E-03     46.9926E-03
             649            1335     48.8945E-03     46.9926E-03
             610            1335     48.8945E-03     46.9926E-03
             650            1335     48.8945E-03     46.9926E-03
             610            1336     49.2627E-03     45.3545E-03
             651            1336     49.2627E-03     45.3545E-03
             650            1336     49.2627E-03     45.3545E-03
             611            1336     49.2627E-03     45.3545E-03
             612            1337     43.3377E-03     44.5549E-03
             611            1337     43.3377E-03     44.5549E-03
             652            1337     43.3377E-03     44.5549E-03
             651            1337     43.3377E-03     44.5549E-03
             652            1338     41.8646E-03     40.9266E-03
             653            1338     41.8646E-03     40.9266E-03
             613            1338     41.8646E-03     40.9266E-03
             612            1338     41.8646E-03     40.9266E-03
             614            1339     39.7212E-03     39.3237E-03
             653            1339     39.7212E-03     39.3237E-03
             654            1339     39.7212E-03     39.3237E-03
             613            1339     39.7212E-03     39.3237E-03
             654            1340     37.3998E-03     37.6959E-03
             615            1340     37.3998E-03     37.6959E-03
             614            1340     37.3998E-03     37.6959E-03
             655            1340     37.3998E-03     37.6959E-03
             616            1341     35.5759E-03     36.0207E-03
             655            1341     35.5759E-03     36.0207E-03
             615            1341     35.5759E-03     36.0207E-03
             656            1341     35.5759E-03     36.0207E-03
             657            1342     33.7418E-03     34.6707E-03
             656            1342     33.7418E-03     34.6707E-03
             616            1342     33.7418E-03     34.6707E-03
             617            1342     33.7418E-03     34.6707E-03
             617            1343     32.2167E-03     33.0487E-03
             657            1343     32.2167E-03     33.0487E-03
             658            1343     32.2167E-03     33.0487E-03
             618            1343     32.2167E-03     33.0487E-03
             658            1344     31.1366E-03     31.5369E-03
             659            1344     31.1366E-03     31.5369E-03
             619            1344     31.1366E-03     31.5369E-03
             618            1344     31.1366E-03     31.5369E-03
             619            1345     30.0326E-03     30.6667E-03
             620            1345     30.0326E-03     30.6667E-03
             660            1345     30.0326E-03     30.6667E-03
             659            1345     30.0326E-03     30.6667E-03
             621            1346     30.2756E-03     29.8416E-03
             660            1346     30.2756E-03     29.8416E-03
             620            1346     30.2756E-03     29.8416E-03
             661            1346     30.2756E-03     29.8416E-03
             661            1347     29.9634E-03     29.4325E-03
             621            1347     29.9634E-03     29.4325E-03
             662            1347     29.9634E-03     29.4325E-03
             622            1347     29.9634E-03     29.4325E-03
             663            1348     28.7939E-03     29.0974E-03
             662            1348     28.7939E-03     29.0974E-03
             622            1348     28.7939E-03     29.0974E-03
             623            1348     28.7939E-03     29.0974E-03
             663            1349     28.6930E-03     28.4760E-03
             624            1349     28.6930E-03     28.4760E-03
             664            1349     28.6930E-03     28.4760E-03
             623            1349     28.6930E-03     28.4760E-03
             626            1350     112.002E-03     130.358E-03
             665            1350     112.002E-03     130.358E-03
             625            1350     112.002E-03     130.358E-03
             666            1350     112.002E-03     130.358E-03
             627            1351     130.098E-03     127.316E-03
             626            1351     130.098E-03     127.316E-03
             666            1351     130.098E-03     127.316E-03
             667            1351     130.098E-03     127.316E-03
             668            1352     132.965E-03     120.525E-03
             628            1352     132.965E-03     120.525E-03
             627            1352     132.965E-03     120.525E-03
             667            1352     132.965E-03     120.525E-03
             628            1353     113.316E-03     121.684E-03
             668            1353     113.316E-03     121.684E-03
             629            1353     113.316E-03     121.684E-03
             669            1353     113.316E-03     121.684E-03
             670            1354     110.893E-03     109.946E-03
             669            1354     110.893E-03     109.946E-03
             630            1354     110.893E-03     109.946E-03
             629            1354     110.893E-03     109.946E-03
             631            1355     105.733E-03     106.529E-03
             671            1355     105.733E-03     106.529E-03
             670            1355     105.733E-03     106.529E-03
             630            1355     105.733E-03     106.529E-03
             631            1356     100.900E-03     102.617E-03
             672            1356     100.900E-03     102.617E-03
             671            1356     100.900E-03     102.617E-03
             632            1356     100.900E-03     102.617E-03
             633            1357     98.1319E-03     98.0480E-03
             673            1357     98.1319E-03     98.0480E-03
             672            1357     98.1319E-03     98.0480E-03
             632            1357     98.1319E-03     98.0480E-03
             633            1358     93.6507E-03     99.5626E-03
             634            1358     93.6507E-03     99.5626E-03
             673            1358     93.6507E-03     99.5626E-03
             674            1358     93.6507E-03     99.5626E-03
             675            1359     99.0064E-03     94.5406E-03
             674            1359     99.0064E-03     94.5406E-03
             635            1359     99.0064E-03     94.5406E-03
             634            1359     99.0064E-03     94.5406E-03
             676            1360     93.1025E-03     93.1902E-03
             635            1360     93.1025E-03     93.1902E-03
             675            1360     93.1025E-03     93.1902E-03
             636            1360     93.1025E-03     93.1902E-03
             637            1361     79.3765E-03     101.953E-03
             676            1361     79.3765E-03     101.953E-03
             636            1361     79.3765E-03     101.953E-03
             677            1361     79.3765E-03     101.953E-03
             677            1362     93.9637E-03     91.9472E-03
             637            1362     93.9637E-03     91.9472E-03
             678            1362     93.9637E-03     91.9472E-03
             638            1362     93.9637E-03     91.9472E-03
             639            1363     95.4184E-03     86.3749E-03
             678            1363     95.4184E-03     86.3749E-03
             638            1363     95.4184E-03     86.3749E-03
             679            1363     95.4184E-03     86.3749E-03
             680            1364     80.4477E-03     86.5638E-03
             679            1364     80.4477E-03     86.5638E-03
             639            1364     80.4477E-03     86.5638E-03
             640            1364     80.4477E-03     86.5638E-03
             681            1365     77.8363E-03     77.4294E-03
             641            1365     77.8363E-03     77.4294E-03
             680            1365     77.8363E-03     77.4294E-03
             640            1365     77.8363E-03     77.4294E-03
             682            1366     73.4369E-03     73.6185E-03
             642            1366     73.4369E-03     73.6185E-03
             681            1366     73.4369E-03     73.6185E-03
             641            1366     73.4369E-03     73.6185E-03
             682            1367     68.1816E-03     69.9835E-03
             642            1367     68.1816E-03     69.9835E-03
             643            1367     68.1816E-03     69.9835E-03
             683            1367     68.1816E-03     69.9835E-03
             643            1368     65.2584E-03     65.8027E-03
             684            1368     65.2584E-03     65.8027E-03
             644            1368     65.2584E-03     65.8027E-03
             683            1368     65.2584E-03     65.8027E-03
             685            1369     62.1086E-03     62.6096E-03
             645            1369     62.1086E-03     62.6096E-03
             684            1369     62.1086E-03     62.6096E-03
             644            1369     62.1086E-03     62.6096E-03
             645            1370     58.4370E-03     61.9627E-03
             686            1370     58.4370E-03     61.9627E-03
             685            1370     58.4370E-03     61.9627E-03
             646            1370     58.4370E-03     61.9627E-03
             686            1371     59.7243E-03     58.5376E-03
             687            1371     59.7243E-03     58.5376E-03
             647            1371     59.7243E-03     58.5376E-03
             646            1371     59.7243E-03     58.5376E-03
             688            1372     55.8244E-03     56.6846E-03
             648            1372     55.8244E-03     56.6846E-03
             687            1372     55.8244E-03     56.6846E-03
             647            1372     55.8244E-03     56.6846E-03
             648            1373     48.3843E-03     60.3996E-03
             649            1373     48.3843E-03     60.3996E-03
             689            1373     48.3843E-03     60.3996E-03
             688            1373     48.3843E-03     60.3996E-03
             690            1374     55.6465E-03     54.3423E-03
             650            1374     55.6465E-03     54.3423E-03
             689            1374     55.6465E-03     54.3423E-03
             649            1374     55.6465E-03     54.3423E-03
             650            1375     55.5763E-03     50.2096E-03
             690            1375     55.5763E-03     50.2096E-03
             691            1375     55.5763E-03     50.2096E-03
             651            1375     55.5763E-03     50.2096E-03
             652            1376     46.2049E-03     49.4347E-03
             691            1376     46.2049E-03     49.4347E-03
             692            1376     46.2049E-03     49.4347E-03
             651            1376     46.2049E-03     49.4347E-03
             692            1377     43.8292E-03     43.3366E-03
             652            1377     43.8292E-03     43.3366E-03
             693            1377     43.8292E-03     43.3366E-03
             653            1377     43.8292E-03     43.3366E-03
             693            1378     40.4595E-03     40.2772E-03
             654            1378     40.4595E-03     40.2772E-03
             653            1378     40.4595E-03     40.2772E-03
             694            1378     40.4595E-03     40.2772E-03
             654            1379     36.8314E-03     37.3285E-03
             655            1379     36.8314E-03     37.3285E-03
             694            1379     36.8314E-03     37.3285E-03
             695            1379     36.8314E-03     37.3285E-03
             696            1380     34.3052E-03     34.4026E-03
             695            1380     34.3052E-03     34.4026E-03
             656            1380     34.3052E-03     34.4026E-03
             655            1380     34.3052E-03     34.4026E-03
             697            1381     31.6399E-03     32.7403E-03
             696            1381     31.6399E-03     32.7403E-03
             657            1381     31.6399E-03     32.7403E-03
             656            1381     31.6399E-03     32.7403E-03
             658            1382     29.7572E-03     31.0493E-03
             698            1382     29.7572E-03     31.0493E-03
             657            1382     29.7572E-03     31.0493E-03
             697            1382     29.7572E-03     31.0493E-03
             659            1383     28.0477E-03     29.1801E-03
             658            1383     28.0477E-03     29.1801E-03
             699            1383     28.0477E-03     29.1801E-03
             698            1383     28.0477E-03     29.1801E-03
             659            1384     26.1740E-03     28.2356E-03
             700            1384     26.1740E-03     28.2356E-03
             699            1384     26.1740E-03     28.2356E-03
             660            1384     26.1740E-03     28.2356E-03
             700            1385     26.8078E-03     26.3376E-03
             701            1385     26.8078E-03     26.3376E-03
             661            1385     26.8078E-03     26.3376E-03
             660            1385     26.8078E-03     26.3376E-03
             661            1386     26.2905E-03     25.3081E-03
             702            1386     26.2905E-03     25.3081E-03
             662            1386     26.2905E-03     25.3081E-03
             701            1386     26.2905E-03     25.3081E-03
             663            1387     24.1012E-03     25.1324E-03
             702            1387     24.1012E-03     25.1324E-03
             662            1387     24.1012E-03     25.1324E-03
             703            1387     24.1012E-03     25.1324E-03
             703            1388     23.6859E-03     23.7818E-03
             663            1388     23.6859E-03     23.7818E-03
             664            1388     23.6859E-03     23.7818E-03
             704            1388     23.6859E-03     23.7818E-03
             706            1389     130.546E-03     154.570E-03
             705            1389     130.546E-03     154.570E-03
             666            1389     130.546E-03     154.570E-03
             665            1389     130.546E-03     154.570E-03
             666            1390     152.543E-03     152.217E-03
             667            1390     152.543E-03     152.217E-03
             707            1390     152.543E-03     152.217E-03
             706            1390     152.543E-03     152.217E-03
             707            1391     153.630E-03     142.883E-03
             667            1391     153.630E-03     142.883E-03
             708            1391     153.630E-03     142.883E-03
             668            1391     153.630E-03     142.883E-03
             669            1392     128.863E-03     143.330E-03
             668            1392     128.863E-03     143.330E-03
             708            1392     128.863E-03     143.330E-03
             709            1392     128.863E-03     143.330E-03
             669            1393     126.962E-03     128.944E-03
             710            1393     126.962E-03     128.944E-03
             670            1393     126.962E-03     128.944E-03
             709            1393     126.962E-03     128.944E-03
             670            1394     119.958E-03     124.808E-03
             671            1394     119.958E-03     124.808E-03
             711            1394     119.958E-03     124.808E-03
             710            1394     119.958E-03     124.808E-03
             671            1395     113.921E-03     119.373E-03
             672            1395     113.921E-03     119.373E-03
             712            1395     113.921E-03     119.373E-03
             711            1395     113.921E-03     119.373E-03
             672            1396     110.698E-03     112.732E-03
             712            1396     110.698E-03     112.732E-03
             673            1396     110.698E-03     112.732E-03
             713            1396     110.698E-03     112.732E-03
             713            1397     104.190E-03     113.382E-03
             674            1397     104.190E-03     113.382E-03
             714            1397     104.190E-03     113.382E-03
             673            1397     104.190E-03     113.382E-03
             675            1398     112.096E-03     107.723E-03
             714            1398     112.096E-03     107.723E-03
             715            1398     112.096E-03     107.723E-03
             674            1398     112.096E-03     107.723E-03
             716            1399     108.449E-03     108.564E-03
             676            1399     108.449E-03     108.564E-03
             715            1399     108.449E-03     108.564E-03
             675            1399     108.449E-03     108.564E-03
             677            1400     92.1908E-03     121.245E-03
             717            1400     92.1908E-03     121.245E-03
             676            1400     92.1908E-03     121.245E-03
             716            1400     92.1908E-03     121.245E-03
             718            1401     109.023E-03     108.796E-03
             717            1401     109.023E-03     108.796E-03
             678            1401     109.023E-03     108.796E-03
             677            1401     109.023E-03     108.796E-03
             719            1402     109.462E-03     101.511E-03
             718            1402     109.462E-03     101.511E-03
             679            1402     109.462E-03     101.511E-03
             678            1402     109.462E-03     101.511E-03
             679            1403     90.6611E-03     100.985E-03
             719            1403     90.6611E-03     100.985E-03
             720            1403     90.6611E-03     100.985E-03
             680            1403     90.6611E-03     100.985E-03
             681            1404     88.0677E-03     89.5611E-03
             721            1404     88.0677E-03     89.5611E-03
             720            1404     88.0677E-03     89.5611E-03
             680            1404     88.0677E-03     89.5611E-03
             722            1405     82.1728E-03     84.9341E-03
             721            1405     82.1728E-03     84.9341E-03
             682            1405     82.1728E-03     84.9341E-03
             681            1405     82.1728E-03     84.9341E-03
             683            1406     75.7011E-03     79.7983E-03
             682            1406     75.7011E-03     79.7983E-03
             723            1406     75.7011E-03     79.7983E-03
             722            1406     75.7011E-03     79.7983E-03
             723            1407     71.8042E-03     74.2841E-03
             724            1407     71.8042E-03     74.2841E-03
             683            1407     71.8042E-03     74.2841E-03
             684            1407     71.8042E-03     74.2841E-03
             684            1408     67.6450E-03     69.3208E-03
             725            1408     67.6450E-03     69.3208E-03
             724            1408     67.6450E-03     69.3208E-03
             685            1408     67.6450E-03     69.3208E-03
             685            1409     62.7544E-03     67.5112E-03
             726            1409     62.7544E-03     67.5112E-03
             725            1409     62.7544E-03     67.5112E-03
             686            1409     62.7544E-03     67.5112E-03
             687            1410     65.2195E-03     63.6243E-03
             726            1410     65.2195E-03     63.6243E-03
             686            1410     65.2195E-03     63.6243E-03
             727            1410     65.2195E-03     63.6243E-03
             687            1411     62.7870E-03     63.1056E-03
             727            1411     62.7870E-03     63.1056E-03
             728            1411     62.7870E-03     63.1056E-03
             688            1411     62.7870E-03     63.1056E-03
             688            1412     53.5604E-03     69.5098E-03
             689            1412     53.5604E-03     69.5098E-03
             728            1412     53.5604E-03     69.5098E-03
             729            1412     53.5604E-03     69.5098E-03
             689            1413     62.2091E-03     62.1741E-03
             729            1413     62.2091E-03     62.1741E-03
             690            1413     62.2091E-03     62.1741E-03
             730            1413     62.2091E-03     62.1741E-03
             691            1414     61.6755E-03     56.7812E-03
             731            1414     61.6755E-03     56.7812E-03
             690            1414     61.6755E-03     56.7812E-03
             730            1414     61.6755E-03     56.7812E-03
             732            1415     49.2705E-03     54.9956E-03
             731            1415     49.2705E-03     54.9956E-03
             691            1415     49.2705E-03     54.9956E-03
             692            1415     49.2705E-03     54.9956E-03
             692            1416     46.1470E-03     46.5419E-03
             733            1416     46.1470E-03     46.5419E-03
             732            1416     46.1470E-03     46.5419E-03
             693            1416     46.1470E-03     46.5419E-03
             734            1417     41.0808E-03     42.0938E-03
             693            1417     41.0808E-03     42.0938E-03
             694            1417     41.0808E-03     42.0938E-03
             733            1417     41.0808E-03     42.0938E-03
             694            1418     35.9767E-03     37.4607E-03
             735            1418     35.9767E-03     37.4607E-03
             734            1418     35.9767E-03     37.4607E-03
             695            1418     35.9767E-03     37.4607E-03
             735            1419     32.4472E-03     32.7888E-03
             695            1419     32.4472E-03     32.7888E-03
             696            1419     32.4472E-03     32.7888E-03
             736            1419     32.4472E-03     32.7888E-03
             697            1420     28.7733E-03     29.6923E-03
             696            1420     28.7733E-03     29.6923E-03
             737            1420     28.7733E-03     29.6923E-03
             736            1420     28.7733E-03     29.6923E-03
             738            1421     27.0035E-03     27.6400E-03
             697            1421     27.0035E-03     27.6400E-03
             737            1421     27.0035E-03     27.6400E-03
             698            1421     27.0035E-03     27.6400E-03
             699            1422     25.8874E-03     26.3339E-03
             698            1422     25.8874E-03     26.3339E-03
             738            1422     25.8874E-03     26.3339E-03
             739            1422     25.8874E-03     26.3339E-03
             699            1423     22.4097E-03     26.1128E-03
             740            1423     22.4097E-03     26.1128E-03
             739            1423     22.4097E-03     26.1128E-03
             700            1423     22.4097E-03     26.1128E-03
             700            1424     22.7409E-03     22.9627E-03
             740            1424     22.7409E-03     22.9627E-03
             701            1424     22.7409E-03     22.9627E-03
             741            1424     22.7409E-03     22.9627E-03
             701            1425     21.7731E-03     19.8032E-03
             742            1425     21.7731E-03     19.8032E-03
             702            1425     21.7731E-03     19.8032E-03
             741            1425     21.7731E-03     19.8032E-03
             702            1426     17.9214E-03     18.9796E-03
             743            1426     17.9214E-03     18.9796E-03
             742            1426     17.9214E-03     18.9796E-03
             703            1426     17.9214E-03     18.9796E-03
             704            1427     17.4397E-03     17.6066E-03
             703            1427     17.4397E-03     17.6066E-03
             744            1427     17.4397E-03     17.6066E-03
             743            1427     17.4397E-03     17.6066E-03
             705            1428     149.473E-03     169.140E-03
             746            1428     149.473E-03     169.140E-03
             745            1428     149.473E-03     169.140E-03
             706            1428     149.473E-03     169.140E-03
             747            1429     171.861E-03     169.320E-03
             746            1429     171.861E-03     169.320E-03
             706            1429     171.861E-03     169.320E-03
             707            1429     171.861E-03     169.320E-03
             747            1430     166.888E-03     157.831E-03
             748            1430     166.888E-03     157.831E-03
             708            1430     166.888E-03     157.831E-03
             707            1430     166.888E-03     157.831E-03
             708            1431     144.369E-03     155.348E-03
             748            1431     144.369E-03     155.348E-03
             749            1431     144.369E-03     155.348E-03
             709            1431     144.369E-03     155.348E-03
             710            1432     141.796E-03     141.714E-03
             749            1432     141.796E-03     141.714E-03
             750            1432     141.796E-03     141.714E-03
             709            1432     141.796E-03     141.714E-03
             750            1433     133.673E-03     136.945E-03
             711            1433     133.673E-03     136.945E-03
             751            1433     133.673E-03     136.945E-03
             710            1433     133.673E-03     136.945E-03
             752            1434     127.127E-03     130.256E-03
             711            1434     127.127E-03     130.256E-03
             751            1434     127.127E-03     130.256E-03
             712            1434     127.127E-03     130.256E-03
             753            1435     122.087E-03     122.641E-03
             713            1435     122.087E-03     122.641E-03
             712            1435     122.087E-03     122.641E-03
             752            1435     122.087E-03     122.641E-03
             714            1436     113.896E-03     120.031E-03
             754            1436     113.896E-03     120.031E-03
             713            1436     113.896E-03     120.031E-03
             753            1436     113.896E-03     120.031E-03
             754            1437     117.223E-03     112.298E-03
             714            1437     117.223E-03     112.298E-03
             755            1437     117.223E-03     112.298E-03
             715            1437     117.223E-03     112.298E-03
             756            1438     114.117E-03     110.371E-03
             715            1438     114.117E-03     110.371E-03
             716            1438     114.117E-03     110.371E-03
             755            1438     114.117E-03     110.371E-03
             756            1439     106.085E-03     127.521E-03
             716            1439     106.085E-03     127.521E-03
             757            1439     106.085E-03     127.521E-03
             717            1439     106.085E-03     127.521E-03
             717            1440     123.202E-03     121.668E-03
             718            1440     123.202E-03     121.668E-03
             758            1440     123.202E-03     121.668E-03
             757            1440     123.202E-03     121.668E-03
             718            1441     118.773E-03     112.132E-03
             758            1441     118.773E-03     112.132E-03
             759            1441     118.773E-03     112.132E-03
             719            1441     118.773E-03     112.132E-03
             719            1442     101.069E-03     109.000E-03
             759            1442     101.069E-03     109.000E-03
             720            1442     101.069E-03     109.000E-03
             760            1442     101.069E-03     109.000E-03
             721            1443     97.7853E-03     97.6876E-03
             761            1443     97.7853E-03     97.6876E-03
             720            1443     97.7853E-03     97.6876E-03
             760            1443     97.7853E-03     97.6876E-03
             721            1444     90.6687E-03     92.6276E-03
             762            1444     90.6687E-03     92.6276E-03
             761            1444     90.6687E-03     92.6276E-03
             722            1444     90.6687E-03     92.6276E-03
             762            1445     84.1916E-03     86.3222E-03
             723            1445     84.1916E-03     86.3222E-03
             722            1445     84.1916E-03     86.3222E-03
             763            1445     84.1916E-03     86.3222E-03
             764            1446     78.7055E-03     80.1665E-03
             723            1446     78.7055E-03     80.1665E-03
             763            1446     78.7055E-03     80.1665E-03
             724            1446     78.7055E-03     80.1665E-03
             765            1447     73.2773E-03     73.8052E-03
             724            1447     73.2773E-03     73.8052E-03
             764            1447     73.2773E-03     73.8052E-03
             725            1447     73.2773E-03     73.8052E-03
             725            1448     66.7172E-03     69.6157E-03
             765            1448     66.7172E-03     69.6157E-03
             766            1448     66.7172E-03     69.6157E-03
             726            1448     66.7172E-03     69.6157E-03
             767            1449     66.0228E-03     63.4685E-03
             766            1449     66.0228E-03     63.4685E-03
             726            1449     66.0228E-03     63.4685E-03
             727            1449     66.0228E-03     63.4685E-03
             728            1450     63.2132E-03     60.5824E-03
             768            1450     63.2132E-03     60.5824E-03
             767            1450     63.2132E-03     60.5824E-03
             727            1450     63.2132E-03     60.5824E-03
             769            1451     60.2743E-03     72.0091E-03
             728            1451     60.2743E-03     72.0091E-03
             768            1451     60.2743E-03     72.0091E-03
             729            1451     60.2743E-03     72.0091E-03
             770            1452     70.8377E-03     70.3942E-03
             729            1452     70.8377E-03     70.3942E-03
             769            1452     70.8377E-03     70.3942E-03
             730            1452     70.8377E-03     70.3942E-03
             770            1453     66.5649E-03     62.5203E-03
             730            1453     66.5649E-03     62.5203E-03
             771            1453     66.5649E-03     62.5203E-03
             731            1453     66.5649E-03     62.5203E-03
             731            1454     53.7582E-03     58.4036E-03
             772            1454     53.7582E-03     58.4036E-03
             732            1454     53.7582E-03     58.4036E-03
             771            1454     53.7582E-03     58.4036E-03
             732            1455     49.5378E-03     49.2685E-03
             772            1455     49.5378E-03     49.2685E-03
             773            1455     49.5378E-03     49.2685E-03
             733            1455     49.5378E-03     49.2685E-03
             773            1456     43.0452E-03     43.9923E-03
             774            1456     43.0452E-03     43.9923E-03
             734            1456     43.0452E-03     43.9923E-03
             733            1456     43.0452E-03     43.9923E-03
             734            1457     37.1271E-03     37.9315E-03
             775            1457     37.1271E-03     37.9315E-03
             735            1457     37.1271E-03     37.9315E-03
             774            1457     37.1271E-03     37.9315E-03
             735            1458     31.7864E-03     32.0296E-03
             776            1458     31.7864E-03     32.0296E-03
             736            1458     31.7864E-03     32.0296E-03
             775            1458     31.7864E-03     32.0296E-03
             777            1459     26.5144E-03     26.5777E-03
             776            1459     26.5144E-03     26.5777E-03
             737            1459     26.5144E-03     26.5777E-03
             736            1459     26.5144E-03     26.5777E-03
             737            1460     22.5477E-03     22.0296E-03
             777            1460     22.5477E-03     22.0296E-03
             738            1460     22.5477E-03     22.0296E-03
             778            1460     22.5477E-03     22.0296E-03
             779            1461     20.5529E-03     19.2495E-03
             778            1461     20.5529E-03     19.2495E-03
             738            1461     20.5529E-03     19.2495E-03
             739            1461     20.5529E-03     19.2495E-03
             779            1462     20.4414E-03     23.7385E-03
             780            1462     20.4414E-03     23.7385E-03
             739            1462     20.4414E-03     23.7385E-03
             740            1462     20.4414E-03     23.7385E-03
             741            1463     22.3633E-03     23.0542E-03
             780            1463     22.3633E-03     23.0542E-03
             740            1463     22.3633E-03     23.0542E-03
             781            1463     22.3633E-03     23.0542E-03
             781            1464     17.6374E-03     15.1279E-03
             782            1464     17.6374E-03     15.1279E-03
             742            1464     17.6374E-03     15.1279E-03
             741            1464     17.6374E-03     15.1279E-03
             782            1465     9.78743E-03     10.8821E-03
             743            1465     9.78743E-03     10.8821E-03
             742            1465     9.78743E-03     10.8821E-03
             783            1465     9.78743E-03     10.8821E-03
             743            1466     9.21529E-03     10.6513E-03
             744            1466     9.21529E-03     10.6513E-03
             783            1466     9.21529E-03     10.6513E-03
             784            1466     9.21529E-03     10.6513E-03
            1761            2351     632.547E-06     621.633E-06
            1757            2351     632.547E-06     621.633E-06
            1762            2351     632.547E-06     621.633E-06
            1758            2351     632.547E-06     621.633E-06
            1759            2352     636.364E-06     627.315E-06
            1758            2352     636.364E-06     627.315E-06
            1763            2352     636.364E-06     627.315E-06
            1762            2352     636.364E-06     627.315E-06
            1760            2353     628.174E-06     624.082E-06
            1759            2353     628.174E-06     624.082E-06
            1763            2353     628.174E-06     624.082E-06
            1764            2353     628.174E-06     624.082E-06
            1765            2354     583.486E-06     576.813E-06
            1762            2354     583.486E-06     576.813E-06
            1766            2354     583.486E-06     576.813E-06
            1761            2354     583.486E-06     576.813E-06
            1766            2355     587.965E-06     577.850E-06
            1767            2355     587.965E-06     577.850E-06
            1762            2355     587.965E-06     577.850E-06
            1763            2355     587.965E-06     577.850E-06
            1767            2356     575.512E-06     572.367E-06
            1768            2356     575.512E-06     572.367E-06
            1763            2356     575.512E-06     572.367E-06
            1764            2356     575.512E-06     572.367E-06
            1769            2357     510.864E-06     507.907E-06
            1765            2357     510.864E-06     507.907E-06
            1770            2357     510.864E-06     507.907E-06
            1766            2357     510.864E-06     507.907E-06
            1766            2358     510.541E-06     496.016E-06
            1770            2358     510.541E-06     496.016E-06
            1771            2358     510.541E-06     496.016E-06
            1767            2358     510.541E-06     496.016E-06
            1771            2359     491.464E-06     490.046E-06
            1767            2359     491.464E-06     490.046E-06
            1772            2359     491.464E-06     490.046E-06
            1768            2359     491.464E-06     490.046E-06
            1773            2360     415.038E-06     418.698E-06
            1769            2360     415.038E-06     418.698E-06
            1770            2360     415.038E-06     418.698E-06
            1774            2360     415.038E-06     418.698E-06
            1770            2361     410.253E-06     396.137E-06
            1775            2361     410.253E-06     396.137E-06
            1774            2361     410.253E-06     396.137E-06
            1771            2361     410.253E-06     396.137E-06
            1772            2362     377.804E-06     385.431E-06
            1775            2362     377.804E-06     385.431E-06
            1771            2362     377.804E-06     385.431E-06
            1776            2362     377.804E-06     385.431E-06
            1773            2363     316.487E-06     324.635E-06
            1777            2363     316.487E-06     324.635E-06
            1774            2363     316.487E-06     324.635E-06
            1778            2363     316.487E-06     324.635E-06
            1775            2364     302.739E-06     275.460E-06
            1774            2364     302.739E-06     275.460E-06
            1779            2364     302.739E-06     275.460E-06
            1778            2364     302.739E-06     275.460E-06
            1779            2365     241.323E-06     259.563E-06
            1775            2365     241.323E-06     259.563E-06
            1776            2365     241.323E-06     259.563E-06
            1780            2365     241.323E-06     259.563E-06
            1782            2366     346.807E-06     356.476E-06
            1781            2366     346.807E-06     356.476E-06
            1777            2366     346.807E-06     356.476E-06
            1778            2366     346.807E-06     356.476E-06
            1778            2367     267.231E-06     227.605E-06
            1782            2367     267.231E-06     227.605E-06
            1783            2367     267.231E-06     227.605E-06
            1779            2367     267.231E-06     227.605E-06
            1780            2368     163.797E-06     216.392E-06
            1779            2368     163.797E-06     216.392E-06
            1783            2368     163.797E-06     216.392E-06
            1784            2368     163.797E-06     216.392E-06
            2349            2836     87.9487E-03     93.7670E-03
            2344            2836     87.9487E-03     93.7670E-03
            2343            2836     87.9487E-03     93.7670E-03
            2350            2836     87.9487E-03     93.7670E-03
            2351            2837     86.0787E-03     83.2737E-03
            2344            2837     86.0787E-03     83.2737E-03
            2350            2837     86.0787E-03     83.2737E-03
            2345            2837     86.0787E-03     83.2737E-03
            2351            2838     77.2691E-03     81.4932E-03
            2345            2838     77.2691E-03     81.4932E-03
            2352            2838     77.2691E-03     81.4932E-03
            2346            2838     77.2691E-03     81.4932E-03
            2347            2839     73.7294E-03     71.5058E-03
            2346            2839     73.7294E-03     71.5058E-03
            2353            2839     73.7294E-03     71.5058E-03
            2352            2839     73.7294E-03     71.5058E-03
            2353            2840     60.9141E-03     55.9771E-03
            2347            2840     60.9141E-03     55.9771E-03
            2354            2840     60.9141E-03     55.9771E-03
            2348            2840     60.9141E-03     55.9771E-03
            2356            2841     130.914E-03     133.922E-03
            2355            2841     130.914E-03     133.922E-03
            2349            2841     130.914E-03     133.922E-03
            2350            2841     130.914E-03     133.922E-03
            2351            2842     129.589E-03     124.725E-03
            2356            2842     129.589E-03     124.725E-03
            2357            2842     129.589E-03     124.725E-03
            2350            2842     129.589E-03     124.725E-03
            2351            2843     117.146E-03     122.511E-03
            2352            2843     117.146E-03     122.511E-03
            2357            2843     117.146E-03     122.511E-03
            2358            2843     117.146E-03     122.511E-03
            2353            2844     111.087E-03     107.539E-03
            2358            2844     111.087E-03     107.539E-03
            2359            2844     111.087E-03     107.539E-03
            2352            2844     111.087E-03     107.539E-03
            2359            2845     92.1082E-03     90.3491E-03
            2360            2845     92.1082E-03     90.3491E-03
            2354            2845     92.1082E-03     90.3491E-03
            2353            2845     92.1082E-03     90.3491E-03
            2361            2846     169.565E-03     171.294E-03
            2355            2846     169.565E-03     171.294E-03
            2356            2846     169.565E-03     171.294E-03
            2362            2846     169.565E-03     171.294E-03
            2362            2847     171.704E-03     164.943E-03
            2357            2847     171.704E-03     164.943E-03
            2356            2847     171.704E-03     164.943E-03
            2363            2847     171.704E-03     164.943E-03
            2358            2848     160.465E-03     163.329E-03
            2357            2848     160.465E-03     163.329E-03
            2363            2848     160.465E-03     163.329E-03
            2364            2848     160.465E-03     163.329E-03
            2364            2849     152.140E-03     145.966E-03
            2365            2849     152.140E-03     145.966E-03
            2359            2849     152.140E-03     145.966E-03
            2358            2849     152.140E-03     145.966E-03
            2360            2850     125.401E-03     125.944E-03
            2365            2850     125.401E-03     125.944E-03
            2359            2850     125.401E-03     125.944E-03
            2366            2850     125.401E-03     125.944E-03
            2367            2851     203.657E-03     207.494E-03
            2368            2851     203.657E-03     207.494E-03
            2362            2851     203.657E-03     207.494E-03
            2361            2851     203.657E-03     207.494E-03
            2368            2852     207.634E-03     199.040E-03
            2363            2852     207.634E-03     199.040E-03
            2369            2852     207.634E-03     199.040E-03
            2362            2852     207.634E-03     199.040E-03
            2370            2853     198.022E-03     195.878E-03
            2363            2853     198.022E-03     195.878E-03
            2364            2853     198.022E-03     195.878E-03
            2369            2853     198.022E-03     195.878E-03
            2371            2854     188.958E-03     178.619E-03
            2365            2854     188.958E-03     178.619E-03
            2370            2854     188.958E-03     178.619E-03
            2364            2854     188.958E-03     178.619E-03
            2365            2855     154.875E-03     158.103E-03
            2371            2855     154.875E-03     158.103E-03
            2366            2855     154.875E-03     158.103E-03
            2372            2855     154.875E-03     158.103E-03
            2374            2856     240.454E-03     241.371E-03
            2367            2856     240.454E-03     241.371E-03
            2373            2856     240.454E-03     241.371E-03
            2368            2856     240.454E-03     241.371E-03
            2374            2857     236.623E-03     230.447E-03
            2375            2857     236.623E-03     230.447E-03
            2368            2857     236.623E-03     230.447E-03
            2369            2857     236.623E-03     230.447E-03
            2369            2858     221.140E-03     221.921E-03
            2375            2858     221.140E-03     221.921E-03
            2376            2858     221.140E-03     221.921E-03
            2370            2858     221.140E-03     221.921E-03
            2371            2859     210.737E-03     203.902E-03
            2370            2859     210.737E-03     203.902E-03
            2376            2859     210.737E-03     203.902E-03
            2377            2859     210.737E-03     203.902E-03
            2377            2860     174.229E-03     184.300E-03
            2372            2860     174.229E-03     184.300E-03
            2378            2860     174.229E-03     184.300E-03
            2371            2860     174.229E-03     184.300E-03
            2373            2861     278.817E-03     270.671E-03
            2379            2861     278.817E-03     270.671E-03
            2380            2861     278.817E-03     270.671E-03
            2374            2861     278.817E-03     270.671E-03
            2375            2862     261.561E-03     255.809E-03
            2381            2862     261.561E-03     255.809E-03
            2374            2862     261.561E-03     255.809E-03
            2380            2862     261.561E-03     255.809E-03
            2382            2863     234.635E-03     238.620E-03
            2381            2863     234.635E-03     238.620E-03
            2376            2863     234.635E-03     238.620E-03
            2375            2863     234.635E-03     238.620E-03
            2383            2864     216.447E-03     218.016E-03
            2377            2864     216.447E-03     218.016E-03
            2382            2864     216.447E-03     218.016E-03
            2376            2864     216.447E-03     218.016E-03
            2377            2865     182.382E-03     197.678E-03
            2383            2865     182.382E-03     197.678E-03
            2378            2865     182.382E-03     197.678E-03
            2384            2865     182.382E-03     197.678E-03
            3502            3869     40.8923E-03     38.4075E-03
            3551            3869     40.8923E-03     38.4075E-03
            3552            3869     40.8923E-03     38.4075E-03
            3501            3869     40.8923E-03     38.4075E-03
            3502            3870     41.5106E-03     41.7957E-03
            3553            3870     41.5106E-03     41.7957E-03
            3552            3870     41.5106E-03     41.7957E-03
            3503            3870     41.5106E-03     41.7957E-03
            3503            3871     39.6142E-03     42.0780E-03
            3554            3871     39.6142E-03     42.0780E-03
            3504            3871     39.6142E-03     42.0780E-03
            3553            3871     39.6142E-03     42.0780E-03
            3504            3872     40.8618E-03     41.2354E-03
            3554            3872     40.8618E-03     41.2354E-03
            3555            3872     40.8618E-03     41.2354E-03
            3505            3872     40.8618E-03     41.2354E-03
            3555            3873     40.8501E-03     40.9959E-03
            3556            3873     40.8501E-03     40.9959E-03
            3506            3873     40.8501E-03     40.9959E-03
            3505            3873     40.8501E-03     40.9959E-03
            3557            3874     40.5165E-03     40.2750E-03
            3507            3874     40.5165E-03     40.2750E-03
            3506            3874     40.5165E-03     40.2750E-03
            3556            3874     40.5165E-03     40.2750E-03
            3558            3875     40.4084E-03     39.4614E-03
            3507            3875     40.4084E-03     39.4614E-03
            3557            3875     40.4084E-03     39.4614E-03
            3508            3875     40.4084E-03     39.4614E-03
            3509            3876     39.8480E-03     37.9005E-03
            3559            3876     39.8480E-03     37.9005E-03
            3558            3876     39.8480E-03     37.9005E-03
            3508            3876     39.8480E-03     37.9005E-03
            3510            3877     38.5388E-03     38.7220E-03
            3559            3877     38.5388E-03     38.7220E-03
            3560            3877     38.5388E-03     38.7220E-03
            3509            3877     38.5388E-03     38.7220E-03
            3511            3878     36.0854E-03     36.9011E-03
            3561            3878     36.0854E-03     36.9011E-03
            3510            3878     36.0854E-03     36.9011E-03
            3560            3878     36.0854E-03     36.9011E-03
            3511            3879     37.0641E-03     34.9460E-03
            3561            3879     37.0641E-03     34.9460E-03
            3562            3879     37.0641E-03     34.9460E-03
            3512            3879     37.0641E-03     34.9460E-03
            3562            3880     37.3812E-03     37.6388E-03
            3563            3880     37.3812E-03     37.6388E-03
            3513            3880     37.3812E-03     37.6388E-03
            3512            3880     37.3812E-03     37.6388E-03
            3513            3881     35.8052E-03     37.7204E-03
            3563            3881     35.8052E-03     37.7204E-03
            3564            3881     35.8052E-03     37.7204E-03
            3514            3881     35.8052E-03     37.7204E-03
            3514            3882     36.6338E-03     36.9725E-03
            3565            3882     36.6338E-03     36.9725E-03
            3515            3882     36.6338E-03     36.9725E-03
            3564            3882     36.6338E-03     36.9725E-03
            3516            3883     36.5819E-03     36.8559E-03
            3565            3883     36.5819E-03     36.8559E-03
            3515            3883     36.5819E-03     36.8559E-03
            3566            3883     36.5819E-03     36.8559E-03
            3516            3884     36.3474E-03     36.1475E-03
            3517            3884     36.3474E-03     36.1475E-03
            3567            3884     36.3474E-03     36.1475E-03
            3566            3884     36.3474E-03     36.1475E-03
            3568            3885     36.1299E-03     35.4702E-03
            3517            3885     36.1299E-03     35.4702E-03
            3518            3885     36.1299E-03     35.4702E-03
            3567            3885     36.1299E-03     35.4702E-03
            3518            3886     35.9706E-03     34.9073E-03
            3569            3886     35.9706E-03     34.9073E-03
            3568            3886     35.9706E-03     34.9073E-03
            3519            3886     35.9706E-03     34.9073E-03
            3570            3887     35.3840E-03     33.7964E-03
            3519            3887     35.3840E-03     33.7964E-03
            3520            3887     35.3840E-03     33.7964E-03
            3569            3887     35.3840E-03     33.7964E-03
            3520            3888     34.5234E-03     34.5095E-03
            3571            3888     34.5234E-03     34.5095E-03
            3570            3888     34.5234E-03     34.5095E-03
            3521            3888     34.5234E-03     34.5095E-03
            3522            3889     32.7511E-03     33.0247E-03
            3571            3889     32.7511E-03     33.0247E-03
            3521            3889     32.7511E-03     33.0247E-03
            3572            3889     32.7511E-03     33.0247E-03
            3572            3890     33.2127E-03     31.5890E-03
            3523            3890     33.2127E-03     31.5890E-03
            3522            3890     33.2127E-03     31.5890E-03
            3573            3890     33.2127E-03     31.5890E-03
            3574            3891     33.3355E-03     33.5300E-03
            3573            3891     33.3355E-03     33.5300E-03
            3523            3891     33.3355E-03     33.5300E-03
            3524            3891     33.3355E-03     33.5300E-03
            3524            3892     32.1748E-03     33.4500E-03
            3574            3892     32.1748E-03     33.4500E-03
            3575            3892     32.1748E-03     33.4500E-03
            3525            3892     32.1748E-03     33.4500E-03
            3525            3893     32.6895E-03     32.8761E-03
            3526            3893     32.6895E-03     32.8761E-03
            3576            3893     32.6895E-03     32.8761E-03
            3575            3893     32.6895E-03     32.8761E-03
            3526            3894     32.5887E-03     32.7550E-03
            3576            3894     32.5887E-03     32.7550E-03
            3527            3894     32.5887E-03     32.7550E-03
            3577            3894     32.5887E-03     32.7550E-03
            3528            3895     32.3997E-03     32.2505E-03
            3578            3895     32.3997E-03     32.2505E-03
            3527            3895     32.3997E-03     32.2505E-03
            3577            3895     32.3997E-03     32.2505E-03
            3528            3896     32.2744E-03     31.7941E-03
            3529            3896     32.2744E-03     31.7941E-03
            3578            3896     32.2744E-03     31.7941E-03
            3579            3896     32.2744E-03     31.7941E-03
            3529            3897     32.2220E-03     31.4258E-03
            3530            3897     32.2220E-03     31.4258E-03
            3580            3897     32.2220E-03     31.4258E-03
            3579            3897     32.2220E-03     31.4258E-03
            3530            3898     31.8423E-03     30.8026E-03
            3531            3898     31.8423E-03     30.8026E-03
            3580            3898     31.8423E-03     30.8026E-03
            3581            3898     31.8423E-03     30.8026E-03
            3532            3899     31.3537E-03     31.2564E-03
            3582            3899     31.3537E-03     31.2564E-03
            3581            3899     31.3537E-03     31.2564E-03
            3531            3899     31.3537E-03     31.2564E-03
            3532            3900     30.1060E-03     29.9875E-03
            3533            3900     30.1060E-03     29.9875E-03
            3582            3900     30.1060E-03     29.9875E-03
            3583            3900     30.1060E-03     29.9875E-03
            3584            3901     30.0513E-03     28.9165E-03
            3534            3901     30.0513E-03     28.9165E-03
            3583            3901     30.0513E-03     28.9165E-03
            3533            3901     30.0513E-03     28.9165E-03
            3534            3902     30.0654E-03     30.1385E-03
            3535            3902     30.0654E-03     30.1385E-03
            3584            3902     30.0654E-03     30.1385E-03
            3585            3902     30.0654E-03     30.1385E-03
            3586            3903     29.3240E-03     29.9941E-03
            3535            3903     29.3240E-03     29.9941E-03
            3536            3903     29.3240E-03     29.9941E-03
            3585            3903     29.3240E-03     29.9941E-03
            3586            3904     29.5824E-03     29.6222E-03
            3587            3904     29.5824E-03     29.6222E-03
            3537            3904     29.5824E-03     29.6222E-03
            3536            3904     29.5824E-03     29.6222E-03
            3587            3905     29.4747E-03     29.5476E-03
            3538            3905     29.4747E-03     29.5476E-03
            3588            3905     29.4747E-03     29.5476E-03
            3537            3905     29.4747E-03     29.5476E-03
            3538            3906     29.3635E-03     29.2718E-03
            3589            3906     29.3635E-03     29.2718E-03
            3588            3906     29.3635E-03     29.2718E-03
            3539            3906     29.3635E-03     29.2718E-03
            3590            3907     29.3364E-03     29.0278E-03
            3540            3907     29.3364E-03     29.0278E-03
            3589            3907     29.3364E-03     29.0278E-03
            3539            3907     29.3364E-03     29.0278E-03
            3591            3908     29.3300E-03     28.8830E-03
            3541            3908     29.3300E-03     28.8830E-03
            3540            3908     29.3300E-03     28.8830E-03
            3590            3908     29.3300E-03     28.8830E-03
            3541            3909     29.2299E-03     28.6572E-03
            3542            3909     29.2299E-03     28.6572E-03
            3592            3909     29.2299E-03     28.6572E-03
            3591            3909     29.2299E-03     28.6572E-03
            3593            3910     29.0248E-03     28.7432E-03
            3592            3910     29.0248E-03     28.7432E-03
            3543            3910     29.0248E-03     28.7432E-03
            3542            3910     29.0248E-03     28.7432E-03
            3543            3911     27.8492E-03     27.5779E-03
            3544            3911     27.8492E-03     27.5779E-03
            3594            3911     27.8492E-03     27.5779E-03
            3593            3911     27.8492E-03     27.5779E-03
            3594            3912     27.1920E-03     26.6472E-03
            3595            3912     27.1920E-03     26.6472E-03
            3544            3912     27.1920E-03     26.6472E-03
            3545            3912     27.1920E-03     26.6472E-03
            3546            3913     27.2490E-03     27.1501E-03
            3595            3913     27.2490E-03     27.1501E-03
            3596            3913     27.2490E-03     27.1501E-03
            3545            3913     27.2490E-03     27.1501E-03
            3597            3914     27.0125E-03     27.0548E-03
            3547            3914     27.0125E-03     27.0548E-03
            3546            3914     27.0125E-03     27.0548E-03
            3596            3914     27.0125E-03     27.0548E-03
            3548            3915     27.1189E-03     26.9803E-03
            3547            3915     27.1189E-03     26.9803E-03
            3597            3915     27.1189E-03     26.9803E-03
            3598            3915     27.1189E-03     26.9803E-03
            3599            3916     27.1740E-03     26.9989E-03
            3548            3916     27.1740E-03     26.9989E-03
            3549            3916     27.1740E-03     26.9989E-03
            3598            3916     27.1740E-03     26.9989E-03
            3550            3917     27.0744E-03     26.8331E-03
            3600            3917     27.0744E-03     26.8331E-03
            3549            3917     27.0744E-03     26.8331E-03
            3599            3917     27.0744E-03     26.8331E-03
            3551            3918     65.3791E-03     61.7373E-03
            3552            3918     65.3791E-03     61.7373E-03
            3601            3918     65.3791E-03     61.7373E-03
            3602            3918     65.3791E-03     61.7373E-03
            3552            3919     68.1040E-03     64.4334E-03
            3602            3919     68.1040E-03     64.4334E-03
            3603            3919     68.1040E-03     64.4334E-03
            3553            3919     68.1040E-03     64.4334E-03
            3604            3920     62.9765E-03     65.9183E-03
            3554            3920     62.9765E-03     65.9183E-03
            3603            3920     62.9765E-03     65.9183E-03
            3553            3920     62.9765E-03     65.9183E-03
            3604            3921     63.5103E-03     62.7427E-03
            3605            3921     63.5103E-03     62.7427E-03
            3554            3921     63.5103E-03     62.7427E-03
            3555            3921     63.5103E-03     62.7427E-03
            3556            3922     62.2477E-03     61.8189E-03
            3605            3922     62.2477E-03     61.8189E-03
            3606            3922     62.2477E-03     61.8189E-03
            3555            3922     62.2477E-03     61.8189E-03
            3557            3923     59.9293E-03     60.1277E-03
            3556            3923     59.9293E-03     60.1277E-03
            3607            3923     59.9293E-03     60.1277E-03
            3606            3923     59.9293E-03     60.1277E-03
            3608            3924     57.5913E-03     59.1209E-03
            3558            3924     57.5913E-03     59.1209E-03
            3607            3924     57.5913E-03     59.1209E-03
            3557            3924     57.5913E-03     59.1209E-03
            3559            3925     57.5172E-03     55.1505E-03
            3608            3925     57.5172E-03     55.1505E-03
            3609            3925     57.5172E-03     55.1505E-03
            3558            3925     57.5172E-03     55.1505E-03
            3609            3926     53.8835E-03     52.9727E-03
            3560            3926     53.8835E-03     52.9727E-03
            3610            3926     53.8835E-03     52.9727E-03
            3559            3926     53.8835E-03     52.9727E-03
            3561            3927     48.4956E-03     53.6827E-03
            3610            3927     48.4956E-03     53.6827E-03
            3560            3927     48.4956E-03     53.6827E-03
            3611            3927     48.4956E-03     53.6827E-03
            3562            3928     54.3852E-03     51.2672E-03
            3612            3928     54.3852E-03     51.2672E-03
            3611            3928     54.3852E-03     51.2672E-03
            3561            3928     54.3852E-03     51.2672E-03
            3562            3929     56.2336E-03     53.1553E-03
            3612            3929     56.2336E-03     53.1553E-03
            3563            3929     56.2336E-03     53.1553E-03
            3613            3929     56.2336E-03     53.1553E-03
            3563            3930     51.9608E-03     53.8976E-03
            3613            3930     51.9608E-03     53.8976E-03
            3614            3930     51.9608E-03     53.8976E-03
            3564            3930     51.9608E-03     53.8976E-03
            3564            3931     52.2514E-03     51.0814E-03
            3615            3931     52.2514E-03     51.0814E-03
            3614            3931     52.2514E-03     51.0814E-03
            3565            3931     52.2514E-03     51.0814E-03
            3565            3932     50.8835E-03     50.4570E-03
            3615            3932     50.8835E-03     50.4570E-03
            3616            3932     50.8835E-03     50.4570E-03
            3566            3932     50.8835E-03     50.4570E-03
            3566            3933     49.1593E-03     49.2166E-03
            3617            3933     49.1593E-03     49.2166E-03
            3567            3933     49.1593E-03     49.2166E-03
            3616            3933     49.1593E-03     49.2166E-03
            3618            3934     47.7220E-03     47.6292E-03
            3568            3934     47.7220E-03     47.6292E-03
            3617            3934     47.7220E-03     47.6292E-03
            3567            3934     47.7220E-03     47.6292E-03
            3569            3935     45.7417E-03     46.7999E-03
            3619            3935     45.7417E-03     46.7999E-03
            3618            3935     45.7417E-03     46.7999E-03
            3568            3935     45.7417E-03     46.7999E-03
            3619            3936     45.3132E-03     43.8865E-03
            3620            3936     45.3132E-03     43.8865E-03
            3569            3936     45.3132E-03     43.8865E-03
            3570            3936     45.3132E-03     43.8865E-03
            3620            3937     42.8893E-03     42.4550E-03
            3570            3937     42.8893E-03     42.4550E-03
            3621            3937     42.8893E-03     42.4550E-03
            3571            3937     42.8893E-03     42.4550E-03
            3572            3938     39.4469E-03     42.6166E-03
            3621            3938     39.4469E-03     42.6166E-03
            3571            3938     39.4469E-03     42.6166E-03
            3622            3938     39.4469E-03     42.6166E-03
            3573            3939     43.2166E-03     40.8700E-03
            3572            3939     43.2166E-03     40.8700E-03
            3623            3939     43.2166E-03     40.8700E-03
            3622            3939     43.2166E-03     40.8700E-03
            3574            3940     44.2310E-03     42.1134E-03
            3573            3940     44.2310E-03     42.1134E-03
            3623            3940     44.2310E-03     42.1134E-03
            3624            3940     44.2310E-03     42.1134E-03
            3625            3941     41.0497E-03     42.2506E-03
            3574            3941     41.0497E-03     42.2506E-03
            3575            3941     41.0497E-03     42.2506E-03
            3624            3941     41.0497E-03     42.2506E-03
            3575            3942     41.0014E-03     40.1575E-03
            3576            3942     41.0014E-03     40.1575E-03
            3625            3942     41.0014E-03     40.1575E-03
            3626            3942     41.0014E-03     40.1575E-03
            3627            3943     39.8462E-03     39.5840E-03
            3576            3943     39.8462E-03     39.5840E-03
            3577            3943     39.8462E-03     39.5840E-03
            3626            3943     39.8462E-03     39.5840E-03
            3578            3944     38.4515E-03     38.6030E-03
            3577            3944     38.4515E-03     38.6030E-03
            3627            3944     38.4515E-03     38.6030E-03
            3628            3944     38.4515E-03     38.6030E-03
            3579            3945     37.3437E-03     37.4300E-03
            3578            3945     37.3437E-03     37.4300E-03
            3629            3945     37.3437E-03     37.4300E-03
            3628            3945     37.3437E-03     37.4300E-03
            3580            3946     36.0298E-03     36.5713E-03
            3579            3946     36.0298E-03     36.5713E-03
            3630            3946     36.0298E-03     36.5713E-03
            3629            3946     36.0298E-03     36.5713E-03
            3581            3947     35.3721E-03     34.7547E-03
            3580            3947     35.3721E-03     34.7547E-03
            3631            3947     35.3721E-03     34.7547E-03
            3630            3947     35.3721E-03     34.7547E-03
            3582            3948     33.9992E-03     33.8837E-03
            3631            3948     33.9992E-03     33.8837E-03
            3632            3948     33.9992E-03     33.8837E-03
            3581            3948     33.9992E-03     33.8837E-03
            3583            3949     32.1458E-03     33.4874E-03
            3633            3949     32.1458E-03     33.4874E-03
            3582            3949     32.1458E-03     33.4874E-03
            3632            3949     32.1458E-03     33.4874E-03
            3583            3950     33.9060E-03     32.3539E-03
            3633            3950     33.9060E-03     32.3539E-03
            3634            3950     33.9060E-03     32.3539E-03
            3584            3950     33.9060E-03     32.3539E-03
            3634            3951     34.2602E-03     33.0307E-03
            3584            3951     34.2602E-03     33.0307E-03
            3635            3951     34.2602E-03     33.0307E-03
            3585            3951     34.2602E-03     33.0307E-03
            3635            3952     32.2398E-03     32.7891E-03
            3586            3952     32.2398E-03     32.7891E-03
            3585            3952     32.2398E-03     32.7891E-03
            3636            3952     32.2398E-03     32.7891E-03
            3587            3953     32.0075E-03     31.5266E-03
            3636            3953     32.0075E-03     31.5266E-03
            3637            3953     32.0075E-03     31.5266E-03
            3586            3953     32.0075E-03     31.5266E-03
            3587            3954     31.2060E-03     31.1373E-03
            3637            3954     31.2060E-03     31.1373E-03
            3588            3954     31.2060E-03     31.1373E-03
            3638            3954     31.2060E-03     31.1373E-03
            3588            3955     30.3107E-03     30.5285E-03
            3589            3955     30.3107E-03     30.5285E-03
            3639            3955     30.3107E-03     30.5285E-03
            3638            3955     30.3107E-03     30.5285E-03
            3590            3956     29.6699E-03     29.8330E-03
            3639            3956     29.6699E-03     29.8330E-03
            3589            3956     29.6699E-03     29.8330E-03
            3640            3956     29.6699E-03     29.8330E-03
            3591            3957     29.0389E-03     29.1966E-03
            3640            3957     29.0389E-03     29.1966E-03
            3641            3957     29.0389E-03     29.1966E-03
            3590            3957     29.0389E-03     29.1966E-03
            3641            3958     28.5727E-03     28.4385E-03
            3591            3958     28.5727E-03     28.4385E-03
            3642            3958     28.5727E-03     28.4385E-03
            3592            3958     28.5727E-03     28.4385E-03
            3642            3959     28.0874E-03     28.0038E-03
            3593            3959     28.0874E-03     28.0038E-03
            3592            3959     28.0874E-03     28.0038E-03
            3643            3959     28.0874E-03     28.0038E-03
            3593            3960     27.0974E-03     27.1274E-03
            3594            3960     27.0974E-03     27.1274E-03
            3644            3960     27.0974E-03     27.1274E-03
            3643            3960     27.0974E-03     27.1274E-03
            3644            3961     26.9820E-03     26.4523E-03
            3645            3961     26.9820E-03     26.4523E-03
            3595            3961     26.9820E-03     26.4523E-03
            3594            3961     26.9820E-03     26.4523E-03
            3645            3962     26.9986E-03     26.8070E-03
            3646            3962     26.9986E-03     26.8070E-03
            3595            3962     26.9986E-03     26.8070E-03
            3596            3962     26.9986E-03     26.8070E-03
            3597            3963     26.3759E-03     26.5501E-03
            3596            3963     26.3759E-03     26.5501E-03
            3647            3963     26.3759E-03     26.5501E-03
            3646            3963     26.3759E-03     26.5501E-03
            3648            3964     26.3181E-03     26.2022E-03
            3597            3964     26.3181E-03     26.2022E-03
            3647            3964     26.3181E-03     26.2022E-03
            3598            3964     26.3181E-03     26.2022E-03
            3649            3965     26.3058E-03     26.1465E-03
            3599            3965     26.3058E-03     26.1465E-03
            3598            3965     26.3058E-03     26.1465E-03
            3648            3965     26.3058E-03     26.1465E-03
            3650            3966     26.1445E-03     25.8784E-03
            3649            3966     26.1445E-03     25.8784E-03
            3599            3966     26.1445E-03     25.8784E-03
            3600            3966     26.1445E-03     25.8784E-03
            3652            3967     98.0974E-03     93.8309E-03
            3601            3967     98.0974E-03     93.8309E-03
            3602            3967     98.0974E-03     93.8309E-03
            3651            3967     98.0974E-03     93.8309E-03
            3653            3968     101.876E-03     93.1836E-03
            3652            3968     101.876E-03     93.1836E-03
            3602            3968     101.876E-03     93.1836E-03
            3603            3968     101.876E-03     93.1836E-03
            3654            3969     90.5020E-03     94.1203E-03
            3653            3969     90.5020E-03     94.1203E-03
            3603            3969     90.5020E-03     94.1203E-03
            3604            3969     90.5020E-03     94.1203E-03
            3655            3970     89.6555E-03     87.4031E-03
            3604            3970     89.6555E-03     87.4031E-03
            3605            3970     89.6555E-03     87.4031E-03
            3654            3970     89.6555E-03     87.4031E-03
            3656            3971     87.2811E-03     85.5958E-03
            3655            3971     87.2811E-03     85.5958E-03
            3605            3971     87.2811E-03     85.5958E-03
            3606            3971     87.2811E-03     85.5958E-03
            3657            3972     83.9122E-03     83.5557E-03
            3656            3972     83.9122E-03     83.5557E-03
            3606            3972     83.9122E-03     83.5557E-03
            3607            3972     83.9122E-03     83.5557E-03
            3658            3973     80.4557E-03     84.0653E-03
            3657            3973     80.4557E-03     84.0653E-03
            3607            3973     80.4557E-03     84.0653E-03
            3608            3973     80.4557E-03     84.0653E-03
            3659            3974     82.9952E-03     79.3783E-03
            3608            3974     82.9952E-03     79.3783E-03
            3609            3974     82.9952E-03     79.3783E-03
            3658            3974     82.9952E-03     79.3783E-03
            3660            3975     77.2497E-03     76.1550E-03
            3659            3975     77.2497E-03     76.1550E-03
            3609            3975     77.2497E-03     76.1550E-03
            3610            3975     77.2497E-03     76.1550E-03
            3660            3976     67.1550E-03     80.3611E-03
            3610            3976     67.1550E-03     80.3611E-03
            3611            3976     67.1550E-03     80.3611E-03
            3661            3976     67.1550E-03     80.3611E-03
            3662            3977     78.8684E-03     75.3699E-03
            3661            3977     78.8684E-03     75.3699E-03
            3611            3977     78.8684E-03     75.3699E-03
            3612            3977     78.8684E-03     75.3699E-03
            3663            3978     81.3530E-03     74.3956E-03
            3662            3978     81.3530E-03     74.3956E-03
            3612            3978     81.3530E-03     74.3956E-03
            3613            3978     81.3530E-03     74.3956E-03
            3664            3979     71.8531E-03     74.6383E-03
            3663            3979     71.8531E-03     74.6383E-03
            3613            3979     71.8531E-03     74.6383E-03
            3614            3979     71.8531E-03     74.6383E-03
            3665            3980     70.8860E-03     68.5936E-03
            3614            3980     70.8860E-03     68.5936E-03
            3615            3980     70.8860E-03     68.5936E-03
            3664            3980     70.8860E-03     68.5936E-03
            3666            3981     68.0096E-03     67.0349E-03
            3665            3981     68.0096E-03     67.0349E-03
            3615            3981     68.0096E-03     67.0349E-03
            3616            3981     68.0096E-03     67.0349E-03
            3667            3982     65.2347E-03     65.1016E-03
            3616            3982     65.2347E-03     65.1016E-03
            3617            3982     65.2347E-03     65.1016E-03
            3666            3982     65.2347E-03     65.1016E-03
            3668            3983     63.2678E-03     62.9336E-03
            3667            3983     63.2678E-03     62.9336E-03
            3617            3983     63.2678E-03     62.9336E-03
            3618            3983     63.2678E-03     62.9336E-03
            3669            3984     60.2509E-03     63.2384E-03
            3668            3984     60.2509E-03     63.2384E-03
            3618            3984     60.2509E-03     63.2384E-03
            3619            3984     60.2509E-03     63.2384E-03
            3670            3985     61.3251E-03     59.5598E-03
            3619            3985     61.3251E-03     59.5598E-03
            3620            3985     61.3251E-03     59.5598E-03
            3669            3985     61.3251E-03     59.5598E-03
            3670            3986     57.3210E-03     56.9684E-03
            3620            3986     57.3210E-03     56.9684E-03
            3671            3986     57.3210E-03     56.9684E-03
            3621            3986     57.3210E-03     56.9684E-03
            3622            3987     50.5412E-03     59.4895E-03
            3671            3987     50.5412E-03     59.4895E-03
            3672            3987     50.5412E-03     59.4895E-03
            3621            3987     50.5412E-03     59.4895E-03
            3672            3988     58.4233E-03     55.7467E-03
            3623            3988     58.4233E-03     55.7467E-03
            3622            3988     58.4233E-03     55.7467E-03
            3673            3988     58.4233E-03     55.7467E-03
            3624            3989     59.7356E-03     54.6834E-03
            3674            3989     59.7356E-03     54.6834E-03
            3623            3989     59.7356E-03     54.6834E-03
            3673            3989     59.7356E-03     54.6834E-03
            3625            3990     52.6082E-03     54.3717E-03
            3624            3990     52.6082E-03     54.3717E-03
            3674            3990     52.6082E-03     54.3717E-03
            3675            3990     52.6082E-03     54.3717E-03
            3676            3991     51.5145E-03     49.8681E-03
            3625            3991     51.5145E-03     49.8681E-03
            3675            3991     51.5145E-03     49.8681E-03
            3626            3991     51.5145E-03     49.8681E-03
            3677            3992     49.1266E-03     48.4460E-03
            3676            3992     49.1266E-03     48.4460E-03
            3626            3992     49.1266E-03     48.4460E-03
            3627            3992     49.1266E-03     48.4460E-03
            3628            3993     46.7107E-03     46.7760E-03
            3627            3993     46.7107E-03     46.7760E-03
            3678            3993     46.7107E-03     46.7760E-03
            3677            3993     46.7107E-03     46.7760E-03
            3628            3994     44.8870E-03     44.9809E-03
            3629            3994     44.8870E-03     44.9809E-03
            3678            3994     44.8870E-03     44.9809E-03
            3679            3994     44.8870E-03     44.9809E-03
            3629            3995     42.5378E-03     44.4577E-03
            3680            3995     42.5378E-03     44.4577E-03
            3630            3995     42.5378E-03     44.4577E-03
            3679            3995     42.5378E-03     44.4577E-03
            3631            3996     42.1488E-03     41.8536E-03
            3630            3996     42.1488E-03     41.8536E-03
            3681            3996     42.1488E-03     41.8536E-03
            3680            3996     42.1488E-03     41.8536E-03
            3631            3997     39.6369E-03     39.8342E-03
            3632            3997     39.6369E-03     39.8342E-03
            3681            3997     39.6369E-03     39.8342E-03
            3682            3997     39.6369E-03     39.8342E-03
            3682            3998     36.0754E-03     40.7832E-03
            3683            3998     36.0754E-03     40.7832E-03
            3632            3998     36.0754E-03     40.7832E-03
            3633            3998     36.0754E-03     40.7832E-03
            3684            3999     40.3428E-03     38.5483E-03
            3683            3999     40.3428E-03     38.5483E-03
            3633            3999     40.3428E-03     38.5483E-03
            3634            3999     40.3428E-03     38.5483E-03
            3635            4000     40.6396E-03     37.5309E-03
            3634            4000     40.6396E-03     37.5309E-03
            3684            4000     40.6396E-03     37.5309E-03
            3685            4000     40.6396E-03     37.5309E-03
            3635            4001     36.0129E-03     36.8814E-03
            3686            4001     36.0129E-03     36.8814E-03
            3636            4001     36.0129E-03     36.8814E-03
            3685            4001     36.0129E-03     36.8814E-03
            3637            4002     35.0002E-03     34.0685E-03
            3636            4002     35.0002E-03     34.0685E-03
            3687            4002     35.0002E-03     34.0685E-03
            3686            4002     35.0002E-03     34.0685E-03
            3637            4003     33.3242E-03     32.9663E-03
            3638            4003     33.3242E-03     32.9663E-03
            3687            4003     33.3242E-03     32.9663E-03
            3688            4003     33.3242E-03     32.9663E-03
            3638            4004     31.5649E-03     31.7621E-03
            3689            4004     31.5649E-03     31.7621E-03
            3639            4004     31.5649E-03     31.7621E-03
            3688            4004     31.5649E-03     31.7621E-03
            3689            4005     30.1836E-03     30.5448E-03
            3690            4005     30.1836E-03     30.5448E-03
            3639            4005     30.1836E-03     30.5448E-03
            3640            4005     30.1836E-03     30.5448E-03
            3691            4006     28.7302E-03     29.6450E-03
            3690            4006     28.7302E-03     29.6450E-03
            3641            4006     28.7302E-03     29.6450E-03
            3640            4006     28.7302E-03     29.6450E-03
            3642            4007     27.6280E-03     28.2952E-03
            3641            4007     27.6280E-03     28.2952E-03
            3691            4007     27.6280E-03     28.2952E-03
            3692            4007     27.6280E-03     28.2952E-03
            3693            4008     26.6555E-03     27.0990E-03
            3642            4008     26.6555E-03     27.0990E-03
            3643            4008     26.6555E-03     27.0990E-03
            3692            4008     26.6555E-03     27.0990E-03
            3694            4009     25.6261E-03     26.4382E-03
            3643            4009     25.6261E-03     26.4382E-03
            3644            4009     25.6261E-03     26.4382E-03
            3693            4009     25.6261E-03     26.4382E-03
            3644            4010     26.3003E-03     25.5530E-03
            3695            4010     26.3003E-03     25.5530E-03
            3694            4010     26.3003E-03     25.5530E-03
            3645            4010     26.3003E-03     25.5530E-03
            3646            4011     26.0760E-03     25.2846E-03
            3696            4011     26.0760E-03     25.2846E-03
            3645            4011     26.0760E-03     25.2846E-03
            3695            4011     26.0760E-03     25.2846E-03
            3697            4012     24.5856E-03     25.0140E-03
            3647            4012     24.5856E-03     25.0140E-03
            3696            4012     24.5856E-03     25.0140E-03
            3646            4012     24.5856E-03     25.0140E-03
            3647            4013     24.1936E-03     24.3423E-03
            3698            4013     24.1936E-03     24.3423E-03
            3648            4013     24.1936E-03     24.3423E-03
            3697            4013     24.1936E-03     24.3423E-03
            3648            4014     23.9153E-03     23.9942E-03
            3649            4014     23.9153E-03     23.9942E-03
            3699            4014     23.9153E-03     23.9942E-03
            3698            4014     23.9153E-03     23.9942E-03
            3700            4015     23.7117E-03     23.5666E-03
            3650            4015     23.7117E-03     23.5666E-03
            3649            4015     23.7117E-03     23.5666E-03
            3699            4015     23.7117E-03     23.5666E-03
            3702            4016     128.508E-03     125.546E-03
            3651            4016     128.508E-03     125.546E-03
            3652            4016     128.508E-03     125.546E-03
            3701            4016     128.508E-03     125.546E-03
            3702            4017     131.284E-03     119.363E-03
            3652            4017     131.284E-03     119.363E-03
            3653            4017     131.284E-03     119.363E-03
            3703            4017     131.284E-03     119.363E-03
            3654            4018     112.585E-03     120.355E-03
            3653            4018     112.585E-03     120.355E-03
            3703            4018     112.585E-03     120.355E-03
            3704            4018     112.585E-03     120.355E-03
            3655            4019     110.680E-03     110.018E-03
            3654            4019     110.680E-03     110.018E-03
            3704            4019     110.680E-03     110.018E-03
            3705            4019     110.680E-03     110.018E-03
            3655            4020     107.452E-03     107.290E-03
            3705            4020     107.452E-03     107.290E-03
            3706            4020     107.452E-03     107.290E-03
            3656            4020     107.452E-03     107.290E-03
            3657            4021     103.401E-03     103.995E-03
            3656            4021     103.401E-03     103.995E-03
            3706            4021     103.401E-03     103.995E-03
            3707            4021     103.401E-03     103.995E-03
            3708            4022     99.8367E-03     105.808E-03
            3658            4022     99.8367E-03     105.808E-03
            3657            4022     99.8367E-03     105.808E-03
            3707            4022     99.8367E-03     105.808E-03
            3658            4023     107.071E-03     101.451E-03
            3659            4023     107.071E-03     101.451E-03
            3708            4023     107.071E-03     101.451E-03
            3709            4023     107.071E-03     101.451E-03
            3710            4024     101.198E-03     101.167E-03
            3659            4024     101.198E-03     101.167E-03
            3660            4024     101.198E-03     101.167E-03
            3709            4024     101.198E-03     101.167E-03
            3661            4025     86.1165E-03     110.903E-03
            3710            4025     86.1165E-03     110.903E-03
            3711            4025     86.1165E-03     110.903E-03
            3660            4025     86.1165E-03     110.903E-03
            3661            4026     102.105E-03     99.7107E-03
            3662            4026     102.105E-03     99.7107E-03
            3712            4026     102.105E-03     99.7107E-03
            3711            4026     102.105E-03     99.7107E-03
            3663            4027     103.771E-03     94.4064E-03
            3662            4027     103.771E-03     94.4064E-03
            3713            4027     103.771E-03     94.4064E-03
            3712            4027     103.771E-03     94.4064E-03
            3663            4028     88.3487E-03     94.9147E-03
            3713            4028     88.3487E-03     94.9147E-03
            3664            4028     88.3487E-03     94.9147E-03
            3714            4028     88.3487E-03     94.9147E-03
            3714            4029     86.5860E-03     85.6525E-03
            3715            4029     86.5860E-03     85.6525E-03
            3665            4029     86.5860E-03     85.6525E-03
            3664            4029     86.5860E-03     85.6525E-03
            3715            4030     82.3626E-03     83.1479E-03
            3666            4030     82.3626E-03     83.1479E-03
            3665            4030     82.3626E-03     83.1479E-03
            3716            4030     82.3626E-03     83.1479E-03
            3667            4031     78.6376E-03     80.1073E-03
            3716            4031     78.6376E-03     80.1073E-03
            3666            4031     78.6376E-03     80.1073E-03
            3717            4031     78.6376E-03     80.1073E-03
            3668            4032     76.6861E-03     76.5946E-03
            3667            4032     76.6861E-03     76.5946E-03
            3717            4032     76.6861E-03     76.5946E-03
            3718            4032     76.6861E-03     76.5946E-03
            3668            4033     73.2325E-03     77.9908E-03
            3719            4033     73.2325E-03     77.9908E-03
            3669            4033     73.2325E-03     77.9908E-03
            3718            4033     73.2325E-03     77.9908E-03
            3670            4034     77.5382E-03     74.4320E-03
            3719            4034     77.5382E-03     74.4320E-03
            3720            4034     77.5382E-03     74.4320E-03
            3669            4034     77.5382E-03     74.4320E-03
            3671            4035     73.3054E-03     73.7540E-03
            3670            4035     73.3054E-03     73.7540E-03
            3721            4035     73.3054E-03     73.7540E-03
            3720            4035     73.3054E-03     73.7540E-03
            3721            4036     62.5573E-03     79.9463E-03
            3722            4036     62.5573E-03     79.9463E-03
            3672            4036     62.5573E-03     79.9463E-03
            3671            4036     62.5573E-03     79.9463E-03
            3722            4037     73.3927E-03     71.5088E-03
            3723            4037     73.3927E-03     71.5088E-03
            3672            4037     73.3927E-03     71.5088E-03
            3673            4037     73.3927E-03     71.5088E-03
            3674            4038     74.0976E-03     67.2520E-03
            3723            4038     74.0976E-03     67.2520E-03
            3724            4038     74.0976E-03     67.2520E-03
            3673            4038     74.0976E-03     67.2520E-03
            3725            4039     62.5667E-03     67.1363E-03
            3724            4039     62.5667E-03     67.1363E-03
            3675            4039     62.5667E-03     67.1363E-03
            3674            4039     62.5667E-03     67.1363E-03
            3676            4040     60.7532E-03     60.0219E-03
            3725            4040     60.7532E-03     60.0219E-03
            3726            4040     60.7532E-03     60.0219E-03
            3675            4040     60.7532E-03     60.0219E-03
            3727            4041     57.2077E-03     57.5698E-03
            3677            4041     57.2077E-03     57.5698E-03
            3726            4041     57.2077E-03     57.5698E-03
            3676            4041     57.2077E-03     57.5698E-03
            3678            4042     53.8196E-03     54.8056E-03
            3677            4042     53.8196E-03     54.8056E-03
            3728            4042     53.8196E-03     54.8056E-03
            3727            4042     53.8196E-03     54.8056E-03
            3729            4043     51.7573E-03     51.7958E-03
            3679            4043     51.7573E-03     51.7958E-03
            3678            4043     51.7573E-03     51.7958E-03
            3728            4043     51.7573E-03     51.7958E-03
            3680            4044     48.8472E-03     51.7177E-03
            3730            4044     48.8472E-03     51.7177E-03
            3729            4044     48.8472E-03     51.7177E-03
            3679            4044     48.8472E-03     51.7177E-03
            3731            4045     50.0792E-03     49.1400E-03
            3681            4045     50.0792E-03     49.1400E-03
            3730            4045     50.0792E-03     49.1400E-03
            3680            4045     50.0792E-03     49.1400E-03
            3732            4046     47.1227E-03     47.9407E-03
            3681            4046     47.1227E-03     47.9407E-03
            3682            4046     47.1227E-03     47.9407E-03
            3731            4046     47.1227E-03     47.9407E-03
            3683            4047     40.9714E-03     50.9625E-03
            3733            4047     40.9714E-03     50.9625E-03
            3682            4047     40.9714E-03     50.9625E-03
            3732            4047     40.9714E-03     50.9625E-03
            3734            4048     47.0654E-03     45.7765E-03
            3683            4048     47.0654E-03     45.7765E-03
            3733            4048     47.0654E-03     45.7765E-03
            3684            4048     47.0654E-03     45.7765E-03
            3684            4049     46.9367E-03     42.6481E-03
            3734            4049     46.9367E-03     42.6481E-03
            3735            4049     46.9367E-03     42.6481E-03
            3685            4049     46.9367E-03     42.6481E-03
            3686            4050     39.3426E-03     42.0210E-03
            3735            4050     39.3426E-03     42.0210E-03
            3736            4050     39.3426E-03     42.0210E-03
            3685            4050     39.3426E-03     42.0210E-03
            3736            4051     37.6503E-03     37.1317E-03
            3737            4051     37.6503E-03     37.1317E-03
            3686            4051     37.6503E-03     37.1317E-03
            3687            4051     37.6503E-03     37.1317E-03
            3738            4052     34.9687E-03     34.9094E-03
            3688            4052     34.9687E-03     34.9094E-03
            3687            4052     34.9687E-03     34.9094E-03
            3737            4052     34.9687E-03     34.9094E-03
            3689            4053     32.2084E-03     32.6499E-03
            3688            4053     32.2084E-03     32.6499E-03
            3739            4053     32.2084E-03     32.6499E-03
            3738            4053     32.2084E-03     32.6499E-03
            3689            4054     30.3478E-03     30.4248E-03
            3740            4054     30.3478E-03     30.4248E-03
            3739            4054     30.3478E-03     30.4248E-03
            3690            4054     30.3478E-03     30.4248E-03
            3691            4055     28.2650E-03     29.3868E-03
            3740            4055     28.2650E-03     29.3868E-03
            3741            4055     28.2650E-03     29.3868E-03
            3690            4055     28.2650E-03     29.3868E-03
            3742            4056     27.1329E-03     28.0341E-03
            3691            4056     27.1329E-03     28.0341E-03
            3741            4056     27.1329E-03     28.0341E-03
            3692            4056     27.1329E-03     28.0341E-03
            3743            4057     25.6578E-03     26.7163E-03
            3742            4057     25.6578E-03     26.7163E-03
            3693            4057     25.6578E-03     26.7163E-03
            3692            4057     25.6578E-03     26.7163E-03
            3743            4058     23.5958E-03     26.2493E-03
            3744            4058     23.5958E-03     26.2493E-03
            3693            4058     23.5958E-03     26.2493E-03
            3694            4058     23.5958E-03     26.2493E-03
            3695            4059     24.6693E-03     24.0520E-03
            3745            4059     24.6693E-03     24.0520E-03
            3694            4059     24.6693E-03     24.0520E-03
            3744            4059     24.6693E-03     24.0520E-03
            3745            4060     24.2376E-03     22.7824E-03
            3696            4060     24.2376E-03     22.7824E-03
            3695            4060     24.2376E-03     22.7824E-03
            3746            4060     24.2376E-03     22.7824E-03
            3747            4061     21.7029E-03     22.3532E-03
            3746            4061     21.7029E-03     22.3532E-03
            3696            4061     21.7029E-03     22.3532E-03
            3697            4061     21.7029E-03     22.3532E-03
            3698            4062     21.0105E-03     21.0487E-03
            3697            4062     21.0105E-03     21.0487E-03
            3748            4062     21.0105E-03     21.0487E-03
            3747            4062     21.0105E-03     21.0487E-03
            3698            4063     20.2537E-03     20.6454E-03
            3748            4063     20.2537E-03     20.6454E-03
            3749            4063     20.2537E-03     20.6454E-03
            3699            4063     20.2537E-03     20.6454E-03
            3700            4064     19.7062E-03     20.0476E-03
            3699            4064     19.7062E-03     20.0476E-03
            3750            4064     19.7062E-03     20.0476E-03
            3749            4064     19.7062E-03     20.0476E-03
            3701            4065     153.151E-03     152.810E-03
            3751            4065     153.151E-03     152.810E-03
            3752            4065     153.151E-03     152.810E-03
            3702            4065     153.151E-03     152.810E-03
            3702            4066     153.663E-03     143.876E-03
            3753            4066     153.663E-03     143.876E-03
            3752            4066     153.663E-03     143.876E-03
            3703            4066     153.663E-03     143.876E-03
            3753            4067     129.909E-03     144.088E-03
            3704            4067     129.909E-03     144.088E-03
            3703            4067     129.909E-03     144.088E-03
            3754            4067     129.909E-03     144.088E-03
            3755            4068     128.463E-03     131.168E-03
            3704            4068     128.463E-03     131.168E-03
            3705            4068     128.463E-03     131.168E-03
            3754            4068     128.463E-03     131.168E-03
            3756            4069     123.538E-03     128.064E-03
            3705            4069     123.538E-03     128.064E-03
            3755            4069     123.538E-03     128.064E-03
            3706            4069     123.538E-03     128.064E-03
            3756            4070     119.025E-03     122.499E-03
            3757            4070     119.025E-03     122.499E-03
            3706            4070     119.025E-03     122.499E-03
            3707            4070     119.025E-03     122.499E-03
            3707            4071     113.840E-03     123.710E-03
            3757            4071     113.840E-03     123.710E-03
            3758            4071     113.840E-03     123.710E-03
            3708            4071     113.840E-03     123.710E-03
            3708            4072     123.786E-03     118.897E-03
            3758            4072     123.786E-03     118.897E-03
            3709            4072     123.786E-03     118.897E-03
            3759            4072     123.786E-03     118.897E-03
            3710            4073     120.720E-03     120.885E-03
            3759            4073     120.720E-03     120.885E-03
            3760            4073     120.720E-03     120.885E-03
            3709            4073     120.720E-03     120.885E-03
            3711            4074     102.663E-03     134.993E-03
            3760            4074     102.663E-03     134.993E-03
            3710            4074     102.663E-03     134.993E-03
            3761            4074     102.663E-03     134.993E-03
            3762            4075     121.025E-03     120.740E-03
            3711            4075     121.025E-03     120.740E-03
            3761            4075     121.025E-03     120.740E-03
            3712            4075     121.025E-03     120.740E-03
            3763            4076     121.221E-03     113.344E-03
            3762            4076     121.221E-03     113.344E-03
            3713            4076     121.221E-03     113.344E-03
            3712            4076     121.221E-03     113.344E-03
            3763            4077     101.637E-03     113.272E-03
            3714            4077     101.637E-03     113.272E-03
            3764            4077     101.637E-03     113.272E-03
            3713            4077     101.637E-03     113.272E-03
            3764            4078     100.337E-03     101.834E-03
            3714            4078     100.337E-03     101.834E-03
            3765            4078     100.337E-03     101.834E-03
            3715            4078     100.337E-03     101.834E-03
            3715            4079     94.5821E-03     98.7259E-03
            3716            4079     94.5821E-03     98.7259E-03
            3766            4079     94.5821E-03     98.7259E-03
            3765            4079     94.5821E-03     98.7259E-03
            3716            4080     89.8881E-03     94.4126E-03
            3766            4080     89.8881E-03     94.4126E-03
            3717            4080     89.8881E-03     94.4126E-03
            3767            4080     89.8881E-03     94.4126E-03
            3718            4081     87.5663E-03     89.1586E-03
            3768            4081     87.5663E-03     89.1586E-03
            3767            4081     87.5663E-03     89.1586E-03
            3717            4081     87.5663E-03     89.1586E-03
            3719            4082     82.4401E-03     89.8052E-03
            3768            4082     82.4401E-03     89.8052E-03
            3718            4082     82.4401E-03     89.8052E-03
            3769            4082     82.4401E-03     89.8052E-03
            3719            4083     88.8553E-03     85.7588E-03
            3770            4083     88.8553E-03     85.7588E-03
            3720            4083     88.8553E-03     85.7588E-03
            3769            4083     88.8553E-03     85.7588E-03
            3721            4084     86.5789E-03     86.8496E-03
            3770            4084     86.5789E-03     86.8496E-03
            3720            4084     86.5789E-03     86.8496E-03
            3771            4084     86.5789E-03     86.8496E-03
            3771            4085     73.5262E-03     96.2909E-03
            3772            4085     73.5262E-03     96.2909E-03
            3721            4085     73.5262E-03     96.2909E-03
            3722            4085     73.5262E-03     96.2909E-03
            3723            4086     85.9940E-03     85.7826E-03
            3772            4086     85.9940E-03     85.7826E-03
            3722            4086     85.9940E-03     85.7826E-03
            3773            4086     85.9940E-03     85.7826E-03
            3774            4087     85.7928E-03     79.9848E-03
            3723            4087     85.7928E-03     79.9848E-03
            3724            4087     85.7928E-03     79.9848E-03
            3773            4087     85.7928E-03     79.9848E-03
            3774            4088     71.0012E-03     79.2322E-03
            3724            4088     71.0012E-03     79.2322E-03
            3775            4088     71.0012E-03     79.2322E-03
            3725            4088     71.0012E-03     79.2322E-03
            3775            4089     69.2066E-03     70.1271E-03
            3776            4089     69.2066E-03     70.1271E-03
            3726            4089     69.2066E-03     70.1271E-03
            3725            4089     69.2066E-03     70.1271E-03
            3727            4090     64.2698E-03     66.8774E-03
            3776            4090     64.2698E-03     66.8774E-03
            3726            4090     64.2698E-03     66.8774E-03
            3777            4090     64.2698E-03     66.8774E-03
            3778            4091     59.8961E-03     62.8498E-03
            3728            4091     59.8961E-03     62.8498E-03
            3777            4091     59.8961E-03     62.8498E-03
            3727            4091     59.8961E-03     62.8498E-03
            3779            4092     57.3115E-03     58.3016E-03
            3729            4092     57.3115E-03     58.3016E-03
            3728            4092     57.3115E-03     58.3016E-03
            3778            4092     57.3115E-03     58.3016E-03
            3729            4093     53.1652E-03     57.3324E-03
            3779            4093     53.1652E-03     57.3324E-03
            3780            4093     53.1652E-03     57.3324E-03
            3730            4093     53.1652E-03     57.3324E-03
            3780            4094     55.6250E-03     54.3404E-03
            3781            4094     55.6250E-03     54.3404E-03
            3731            4094     55.6250E-03     54.3404E-03
            3730            4094     55.6250E-03     54.3404E-03
            3781            4095     53.9753E-03     54.3013E-03
            3732            4095     53.9753E-03     54.3013E-03
            3782            4095     53.9753E-03     54.3013E-03
            3731            4095     53.9753E-03     54.3013E-03
            3732            4096     46.1695E-03     59.5852E-03
            3783            4096     46.1695E-03     59.5852E-03
            3733            4096     46.1695E-03     59.5852E-03
            3782            4096     46.1695E-03     59.5852E-03
            3733            4097     53.3271E-03     53.2197E-03
            3734            4097     53.3271E-03     53.2197E-03
            3783            4097     53.3271E-03     53.2197E-03
            3784            4097     53.3271E-03     53.2197E-03
            3785            4098     52.7637E-03     48.9832E-03
            3734            4098     52.7637E-03     48.9832E-03
            3784            4098     52.7637E-03     48.9832E-03
            3735            4098     52.7637E-03     48.9832E-03
            3736            4099     42.6347E-03     47.5637E-03
            3735            4099     42.6347E-03     47.5637E-03
            3786            4099     42.6347E-03     47.5637E-03
            3785            4099     42.6347E-03     47.5637E-03
            3786            4100     40.4324E-03     40.7674E-03
            3736            4100     40.4324E-03     40.7674E-03
            3787            4100     40.4324E-03     40.7674E-03
            3737            4100     40.4324E-03     40.7674E-03
            3737            4101     36.3922E-03     37.4820E-03
            3787            4101     36.3922E-03     37.4820E-03
            3738            4101     36.3922E-03     37.4820E-03
            3788            4101     36.3922E-03     37.4820E-03
            3789            4102     32.5237E-03     33.8973E-03
            3738            4102     32.5237E-03     33.8973E-03
            3788            4102     32.5237E-03     33.8973E-03
            3739            4102     32.5237E-03     33.8973E-03
            3739            4103     29.9411E-03     30.2787E-03
            3789            4103     29.9411E-03     30.2787E-03
            3790            4103     29.9411E-03     30.2787E-03
            3740            4103     29.9411E-03     30.2787E-03
            3740            4104     27.0636E-03     28.1733E-03
            3790            4104     27.0636E-03     28.1733E-03
            3791            4104     27.0636E-03     28.1733E-03
            3741            4104     27.0636E-03     28.1733E-03
            3742            4105     26.2682E-03     26.5822E-03
            3791            4105     26.2682E-03     26.5822E-03
            3741            4105     26.2682E-03     26.5822E-03
            3792            4105     26.2682E-03     26.5822E-03
            3792            4106     25.4602E-03     25.8535E-03
            3793            4106     25.4602E-03     25.8535E-03
            3742            4106     25.4602E-03     25.8535E-03
            3743            4106     25.4602E-03     25.8535E-03
            3743            4107     22.1204E-03     26.3849E-03
            3794            4107     22.1204E-03     26.3849E-03
            3744            4107     22.1204E-03     26.3849E-03
            3793            4107     22.1204E-03     26.3849E-03
            3744            4108     23.1831E-03     23.2750E-03
            3795            4108     23.1831E-03     23.2750E-03
            3794            4108     23.1831E-03     23.2750E-03
            3745            4108     23.1831E-03     23.2750E-03
            3745            4109     22.1869E-03     20.5505E-03
            3746            4109     22.1869E-03     20.5505E-03
            3796            4109     22.1869E-03     20.5505E-03
            3795            4109     22.1869E-03     20.5505E-03
            3797            4110     17.6658E-03     18.7539E-03
            3746            4110     17.6658E-03     18.7539E-03
            3747            4110     17.6658E-03     18.7539E-03
            3796            4110     17.6658E-03     18.7539E-03
            3748            4111     16.3667E-03     15.8149E-03
            3797            4111     16.3667E-03     15.8149E-03
            3798            4111     16.3667E-03     15.8149E-03
            3747            4111     16.3667E-03     15.8149E-03
            3748            4112     15.4769E-03     15.5101E-03
            3798            4112     15.4769E-03     15.5101E-03
            3749            4112     15.4769E-03     15.5101E-03
            3799            4112     15.4769E-03     15.5101E-03
            3799            4113     15.2795E-03     15.6311E-03
            3749            4113     15.2795E-03     15.6311E-03
            3750            4113     15.2795E-03     15.6311E-03
            3800            4113     15.2795E-03     15.6311E-03
            3801            4114     173.532E-03     170.884E-03
            3751            4114     173.532E-03     170.884E-03
            3752            4114     173.532E-03     170.884E-03
            3802            4114     173.532E-03     170.884E-03
            3803            4115     168.556E-03     160.158E-03
            3802            4115     168.556E-03     160.158E-03
            3753            4115     168.556E-03     160.158E-03
            3752            4115     168.556E-03     160.158E-03
            3803            4116     147.214E-03     158.110E-03
            3754            4116     147.214E-03     158.110E-03
            3804            4116     147.214E-03     158.110E-03
            3753            4116     147.214E-03     158.110E-03
            3754            4117     145.453E-03     145.754E-03
            3755            4117     145.453E-03     145.754E-03
            3804            4117     145.453E-03     145.754E-03
            3805            4117     145.453E-03     145.754E-03
            3806            4118     138.676E-03     142.230E-03
            3805            4118     138.676E-03     142.230E-03
            3756            4118     138.676E-03     142.230E-03
            3755            4118     138.676E-03     142.230E-03
            3756            4119     133.994E-03     135.054E-03
            3807            4119     133.994E-03     135.054E-03
            3757            4119     133.994E-03     135.054E-03
            3806            4119     133.994E-03     135.054E-03
            3757            4120     126.671E-03     133.674E-03
            3808            4120     126.671E-03     133.674E-03
            3807            4120     126.671E-03     133.674E-03
            3758            4120     126.671E-03     133.674E-03
            3808            4121     132.218E-03     126.847E-03
            3809            4121     132.218E-03     126.847E-03
            3759            4121     132.218E-03     126.847E-03
            3758            4121     132.218E-03     126.847E-03
            3759            4122     130.239E-03     126.347E-03
            3810            4122     130.239E-03     126.347E-03
            3760            4122     130.239E-03     126.347E-03
            3809            4122     130.239E-03     126.347E-03
            3760            4123     119.846E-03     143.691E-03
            3810            4123     119.846E-03     143.691E-03
            3811            4123     119.846E-03     143.691E-03
            3761            4123     119.846E-03     143.691E-03
            3761            4124     137.191E-03     135.228E-03
            3812            4124     137.191E-03     135.228E-03
            3762            4124     137.191E-03     135.228E-03
            3811            4124     137.191E-03     135.228E-03
            3813            4125     132.806E-03     126.085E-03
            3812            4125     132.806E-03     126.085E-03
            3763            4125     132.806E-03     126.085E-03
            3762            4125     132.806E-03     126.085E-03
            3763            4126     115.027E-03     123.840E-03
            3814            4126     115.027E-03     123.840E-03
            3813            4126     115.027E-03     123.840E-03
            3764            4126     115.027E-03     123.840E-03
            3765            4127     113.100E-03     112.981E-03
            3815            4127     113.100E-03     112.981E-03
            3814            4127     113.100E-03     112.981E-03
            3764            4127     113.100E-03     112.981E-03
            3766            4128     106.503E-03     109.276E-03
            3815            4128     106.503E-03     109.276E-03
            3816            4128     106.503E-03     109.276E-03
            3765            4128     106.503E-03     109.276E-03
            3766            4129     101.352E-03     103.926E-03
            3817            4129     101.352E-03     103.926E-03
            3767            4129     101.352E-03     103.926E-03
            3816            4129     101.352E-03     103.926E-03
            3818            4130     97.4836E-03     97.8613E-03
            3768            4130     97.4836E-03     97.8613E-03
            3767            4130     97.4836E-03     97.8613E-03
            3817            4130     97.4836E-03     97.8613E-03
            3818            4131     90.9972E-03     95.8498E-03
            3768            4131     90.9972E-03     95.8498E-03
            3769            4131     90.9972E-03     95.8498E-03
            3819            4131     90.9972E-03     95.8498E-03
            3769            4132     93.8030E-03     90.0513E-03
            3770            4132     93.8030E-03     90.0513E-03
            3820            4132     93.8030E-03     90.0513E-03
            3819            4132     93.8030E-03     90.0513E-03
            3770            4133     91.9835E-03     88.8380E-03
            3820            4133     91.9835E-03     88.8380E-03
            3821            4133     91.9835E-03     88.8380E-03
            3771            4133     91.9835E-03     88.8380E-03
            3822            4134     85.2319E-03     101.948E-03
            3821            4134     85.2319E-03     101.948E-03
            3771            4134     85.2319E-03     101.948E-03
            3772            4134     85.2319E-03     101.948E-03
            3772            4135     97.8158E-03     96.6752E-03
            3822            4135     97.8158E-03     96.6752E-03
            3823            4135     97.8158E-03     96.6752E-03
            3773            4135     97.8158E-03     96.6752E-03
            3823            4136     93.9259E-03     89.0303E-03
            3824            4136     93.9259E-03     89.0303E-03
            3774            4136     93.9259E-03     89.0303E-03
            3773            4136     93.9259E-03     89.0303E-03
            3824            4137     79.9606E-03     86.3151E-03
            3825            4137     79.9606E-03     86.3151E-03
            3774            4137     79.9606E-03     86.3151E-03
            3775            4137     79.9606E-03     86.3151E-03
            3775            4138     77.4283E-03     77.2680E-03
            3825            4138     77.4283E-03     77.2680E-03
            3776            4138     77.4283E-03     77.2680E-03
            3826            4138     77.4283E-03     77.2680E-03
            3776            4139     71.5591E-03     73.4026E-03
            3827            4139     71.5591E-03     73.4026E-03
            3777            4139     71.5591E-03     73.4026E-03
            3826            4139     71.5591E-03     73.4026E-03
            3777            4140     66.6943E-03     68.3444E-03
            3827            4140     66.6943E-03     68.3444E-03
            3828            4140     66.6943E-03     68.3444E-03
            3778            4140     66.6943E-03     68.3444E-03
            3778            4141     62.6879E-03     62.9780E-03
            3779            4141     62.6879E-03     62.9780E-03
            3828            4141     62.6879E-03     62.9780E-03
            3829            4141     62.6879E-03     62.9780E-03
            3780            4142     57.3130E-03     59.8702E-03
            3830            4142     57.3130E-03     59.8702E-03
            3829            4142     57.3130E-03     59.8702E-03
            3779            4142     57.3130E-03     59.8702E-03
            3780            4143     57.2021E-03     55.0861E-03
            3831            4143     57.2021E-03     55.0861E-03
            3830            4143     57.2021E-03     55.0861E-03
            3781            4143     57.2021E-03     55.0861E-03
            3782            4144     55.3956E-03     53.0831E-03
            3831            4144     55.3956E-03     53.0831E-03
            3832            4144     55.3956E-03     53.0831E-03
            3781            4144     55.3956E-03     53.0831E-03
            3832            4145     52.4199E-03     62.2892E-03
            3782            4145     52.4199E-03     62.2892E-03
            3833            4145     52.4199E-03     62.2892E-03
            3783            4145     52.4199E-03     62.2892E-03
            3834            4146     60.7310E-03     60.3425E-03
            3783            4146     60.7310E-03     60.3425E-03
            3784            4146     60.7310E-03     60.3425E-03
            3833            4146     60.7310E-03     60.3425E-03
            3784            4147     57.2673E-03     54.0937E-03
            3785            4147     57.2673E-03     54.0937E-03
            3835            4147     57.2673E-03     54.0937E-03
            3834            4147     57.2673E-03     54.0937E-03
            3785            4148     46.9355E-03     50.9088E-03
            3835            4148     46.9355E-03     50.9088E-03
            3786            4148     46.9355E-03     50.9088E-03
            3836            4148     46.9355E-03     50.9088E-03
            3837            4149     43.8242E-03     43.6127E-03
            3836            4149     43.8242E-03     43.6127E-03
            3787            4149     43.8242E-03     43.6127E-03
            3786            4149     43.8242E-03     43.6127E-03
            3837            4150     38.6872E-03     39.6239E-03
            3787            4150     38.6872E-03     39.6239E-03
            3838            4150     38.6872E-03     39.6239E-03
            3788            4150     38.6872E-03     39.6239E-03
            3789            4151     34.1596E-03     34.9056E-03
            3788            4151     34.1596E-03     34.9056E-03
            3838            4151     34.1596E-03     34.9056E-03
            3839            4151     34.1596E-03     34.9056E-03
            3840            4152     30.1437E-03     30.3130E-03
            3790            4152     30.1437E-03     30.3130E-03
            3839            4152     30.1437E-03     30.3130E-03
            3789            4152     30.1437E-03     30.3130E-03
            3841            4153     26.0487E-03     26.3517E-03
            3790            4153     26.0487E-03     26.3517E-03
            3840            4153     26.0487E-03     26.3517E-03
            3791            4153     26.0487E-03     26.3517E-03
            3791            4154     23.6205E-03     22.9038E-03
            3842            4154     23.6205E-03     22.9038E-03
            3841            4154     23.6205E-03     22.9038E-03
            3792            4154     23.6205E-03     22.9038E-03
            3792            4155     22.3577E-03     20.9397E-03
            3842            4155     22.3577E-03     20.9397E-03
            3793            4155     22.3577E-03     20.9397E-03
            3843            4155     22.3577E-03     20.9397E-03
            3843            4156     22.0131E-03     25.3959E-03
            3844            4156     22.0131E-03     25.3959E-03
            3794            4156     22.0131E-03     25.3959E-03
            3793            4156     22.0131E-03     25.3959E-03
            3794            4157     24.5365E-03     24.8623E-03
            3844            4157     24.5365E-03     24.8623E-03
            3845            4157     24.5365E-03     24.8623E-03
            3795            4157     24.5365E-03     24.8623E-03
            3796            4158     20.8675E-03     19.2430E-03
            3846            4158     20.8675E-03     19.2430E-03
            3845            4158     20.8675E-03     19.2430E-03
            3795            4158     20.8675E-03     19.2430E-03
            3797            4159     14.0113E-03     15.4029E-03
            3847            4159     14.0113E-03     15.4029E-03
            3846            4159     14.0113E-03     15.4029E-03
            3796            4159     14.0113E-03     15.4029E-03
            3798            4160     10.9532E-03     9.91301E-03
            3847            4160     10.9532E-03     9.91301E-03
            3797            4160     10.9532E-03     9.91301E-03
            3848            4160     10.9532E-03     9.91301E-03
            3798            4161     9.09184E-03     8.16345E-03
            3799            4161     9.09184E-03     8.16345E-03
            3849            4161     9.09184E-03     8.16345E-03
            3848            4161     9.09184E-03     8.16345E-03
            3850            4162     10.0237E-03     10.5637E-03
            3800            4162     10.0237E-03     10.5637E-03
            3799            4162     10.0237E-03     10.5637E-03
            3849            4162     10.0237E-03     10.5637E-03
            4107            4328     31.7550E-03     31.5108E-03
            4108            4328     31.7550E-03     31.5108E-03
            4068            4328     31.7550E-03     31.5108E-03
            4067            4328     31.7550E-03     31.5108E-03
            4108            4329     31.7866E-03     31.8092E-03
            4068            4329     31.7866E-03     31.8092E-03
            4069            4329     31.7866E-03     31.8092E-03
            4109            4329     31.7866E-03     31.8092E-03
            4070            4330     32.2041E-03     31.9371E-03
            4110            4330     32.2041E-03     31.9371E-03
            4069            4330     32.2041E-03     31.9371E-03
            4109            4330     32.2041E-03     31.9371E-03
            4111            4331     32.2019E-03     31.7188E-03
            4071            4331     32.2019E-03     31.7188E-03
            4110            4331     32.2019E-03     31.7188E-03
            4070            4331     32.2019E-03     31.7188E-03
            4072            4332     33.1736E-03     33.0335E-03
            4111            4332     33.1736E-03     33.0335E-03
            4112            4332     33.1736E-03     33.0335E-03
            4071            4332     33.1736E-03     33.0335E-03
            4112            4333     34.8924E-03     34.4691E-03
            4073            4333     34.8924E-03     34.4691E-03
            4072            4333     34.8924E-03     34.4691E-03
            4113            4333     34.8924E-03     34.4691E-03
            4113            4334     35.3295E-03     34.7891E-03
            4114            4334     35.3295E-03     34.7891E-03
            4073            4334     35.3295E-03     34.7891E-03
            4074            4334     35.3295E-03     34.7891E-03
            4074            4335     35.7786E-03     35.3513E-03
            4114            4335     35.7786E-03     35.3513E-03
            4075            4335     35.7786E-03     35.3513E-03
            4115            4335     35.7786E-03     35.3513E-03
            4075            4336     36.2414E-03     35.9140E-03
            4076            4336     36.2414E-03     35.9140E-03
            4115            4336     36.2414E-03     35.9140E-03
            4116            4336     36.2414E-03     35.9140E-03
            4076            4337     36.7271E-03     36.7034E-03
            4077            4337     36.7271E-03     36.7034E-03
            4117            4337     36.7271E-03     36.7034E-03
            4116            4337     36.7271E-03     36.7034E-03
            4118            4338     37.4392E-03     37.4736E-03
            4117            4338     37.4392E-03     37.4736E-03
            4078            4338     37.4392E-03     37.4736E-03
            4077            4338     37.4392E-03     37.4736E-03
            4078            4339     38.0523E-03     38.0508E-03
            4118            4339     38.0523E-03     38.0508E-03
            4079            4339     38.0523E-03     38.0508E-03
            4119            4339     38.0523E-03     38.0508E-03
            4079            4340     38.1448E-03     39.3378E-03
            4080            4340     38.1448E-03     39.3378E-03
            4120            4340     38.1448E-03     39.3378E-03
            4119            4340     38.1448E-03     39.3378E-03
            4080            4341     40.2757E-03     39.5194E-03
            4120            4341     40.2757E-03     39.5194E-03
            4081            4341     40.2757E-03     39.5194E-03
            4121            4341     40.2757E-03     39.5194E-03
            4122            4342     40.1084E-03     38.8686E-03
            4121            4342     40.1084E-03     38.8686E-03
            4082            4342     40.1084E-03     38.8686E-03
            4081            4342     40.1084E-03     38.8686E-03
            4083            4343     38.6982E-03     39.8238E-03
            4123            4343     38.6982E-03     39.8238E-03
            4082            4343     38.6982E-03     39.8238E-03
            4122            4343     38.6982E-03     39.8238E-03
            4084            4344     40.7979E-03     40.1439E-03
            4123            4344     40.7979E-03     40.1439E-03
            4124            4344     40.7979E-03     40.1439E-03
            4083            4344     40.7979E-03     40.1439E-03
            4084            4345     42.2532E-03     40.8480E-03
            4125            4345     42.2532E-03     40.8480E-03
            4124            4345     42.2532E-03     40.8480E-03
            4085            4345     42.2532E-03     40.8480E-03
            4085            4346     43.0911E-03     42.5156E-03
            4126            4346     43.0911E-03     42.5156E-03
            4125            4346     43.0911E-03     42.5156E-03
            4086            4346     43.0911E-03     42.5156E-03
            4126            4347     44.2962E-03     43.6387E-03
            4086            4347     44.2962E-03     43.6387E-03
            4127            4347     44.2962E-03     43.6387E-03
            4087            4347     44.2962E-03     43.6387E-03
            4087            4348     45.4064E-03     45.0020E-03
            4127            4348     45.4064E-03     45.0020E-03
            4088            4348     45.4064E-03     45.0020E-03
            4128            4348     45.4064E-03     45.0020E-03
            4088            4349     46.2999E-03     46.5255E-03
            4129            4349     46.2999E-03     46.5255E-03
            4089            4349     46.2999E-03     46.5255E-03
            4128            4349     46.2999E-03     46.5255E-03
            4129            4350     47.5122E-03     47.7021E-03
            4089            4350     47.5122E-03     47.7021E-03
            4130            4350     47.5122E-03     47.7021E-03
            4090            4350     47.5122E-03     47.7021E-03
            4130            4351     48.3300E-03     48.4599E-03
            4090            4351     48.3300E-03     48.4599E-03
            4091            4351     48.3300E-03     48.4599E-03
            4131            4351     48.3300E-03     48.4599E-03
            4132            4352     48.0766E-03     50.5330E-03
            4092            4352     48.0766E-03     50.5330E-03
            4131            4352     48.0766E-03     50.5330E-03
            4091            4352     48.0766E-03     50.5330E-03
            4133            4353     51.7003E-03     50.1817E-03
            4093            4353     51.7003E-03     50.1817E-03
            4132            4353     51.7003E-03     50.1817E-03
            4092            4353     51.7003E-03     50.1817E-03
            4133            4354     50.8127E-03     48.7739E-03
            4134            4354     50.8127E-03     48.7739E-03
            4093            4354     50.8127E-03     48.7739E-03
            4094            4354     50.8127E-03     48.7739E-03
            4094            4355     47.0651E-03     50.3850E-03
            4095            4355     47.0651E-03     50.3850E-03
            4134            4355     47.0651E-03     50.3850E-03
            4135            4355     47.0651E-03     50.3850E-03
            4136            4356     51.1667E-03     50.0951E-03
            4095            4356     51.1667E-03     50.0951E-03
            4096            4356     51.1667E-03     50.0951E-03
            4135            4356     51.1667E-03     50.0951E-03
            4097            4357     53.8068E-03     51.4424E-03
            4096            4357     53.8068E-03     51.4424E-03
            4137            4357     53.8068E-03     51.4424E-03
            4136            4357     53.8068E-03     51.4424E-03
            4137            4358     54.4895E-03     54.4665E-03
            4098            4358     54.4895E-03     54.4665E-03
            4138            4358     54.4895E-03     54.4665E-03
            4097            4358     54.4895E-03     54.4665E-03
            4139            4359     56.3329E-03     55.6908E-03
            4138            4359     56.3329E-03     55.6908E-03
            4098            4359     56.3329E-03     55.6908E-03
            4099            4359     56.3329E-03     55.6908E-03
            4099            4360     57.5748E-03     57.8108E-03
            4140            4360     57.5748E-03     57.8108E-03
            4100            4360     57.5748E-03     57.8108E-03
            4139            4360     57.5748E-03     57.8108E-03
            4140            4361     58.9536E-03     59.4273E-03
            4141            4361     58.9536E-03     59.4273E-03
            4101            4361     58.9536E-03     59.4273E-03
            4100            4361     58.9536E-03     59.4273E-03
            4142            4362     59.8146E-03     60.0768E-03
            4101            4362     59.8146E-03     60.0768E-03
            4141            4362     59.8146E-03     60.0768E-03
            4102            4362     59.8146E-03     60.0768E-03
            4142            4363     59.0469E-03     62.6449E-03
            4103            4363     59.0469E-03     62.6449E-03
            4143            4363     59.0469E-03     62.6449E-03
            4102            4363     59.0469E-03     62.6449E-03
            4144            4364     63.7039E-03     61.5299E-03
            4104            4364     63.7039E-03     61.5299E-03
            4103            4364     63.7039E-03     61.5299E-03
            4143            4364     63.7039E-03     61.5299E-03
            4104            4365     61.9118E-03     59.2398E-03
            4144            4365     61.9118E-03     59.2398E-03
            4105            4365     61.9118E-03     59.2398E-03
            4145            4365     61.9118E-03     59.2398E-03
            4106            4366     53.5301E-03     56.5733E-03
            4105            4366     53.5301E-03     56.5733E-03
            4145            4366     53.5301E-03     56.5733E-03
            4146            4366     53.5301E-03     56.5733E-03
            4147            4367     28.4490E-03     28.2113E-03
            4148            4367     28.4490E-03     28.2113E-03
            4108            4367     28.4490E-03     28.2113E-03
            4107            4367     28.4490E-03     28.2113E-03
            4148            4368     28.6519E-03     28.7414E-03
            4108            4368     28.6519E-03     28.7414E-03
            4149            4368     28.6519E-03     28.7414E-03
            4109            4368     28.6519E-03     28.7414E-03
            4150            4369     29.5545E-03     29.0401E-03
            4149            4369     29.5545E-03     29.0401E-03
            4110            4369     29.5545E-03     29.0401E-03
            4109            4369     29.5545E-03     29.0401E-03
            4110            4370     29.6108E-03     29.3908E-03
            4111            4370     29.6108E-03     29.3908E-03
            4151            4370     29.6108E-03     29.3908E-03
            4150            4370     29.6108E-03     29.3908E-03
            4112            4371     30.0718E-03     30.4370E-03
            4152            4371     30.0718E-03     30.4370E-03
            4151            4371     30.0718E-03     30.4370E-03
            4111            4371     30.0718E-03     30.4370E-03
            4113            4372     31.7589E-03     31.4600E-03
            4153            4372     31.7589E-03     31.4600E-03
            4112            4372     31.7589E-03     31.4600E-03
            4152            4372     31.7589E-03     31.4600E-03
            4113            4373     32.7251E-03     32.6802E-03
            4153            4373     32.7251E-03     32.6802E-03
            4154            4373     32.7251E-03     32.6802E-03
            4114            4373     32.7251E-03     32.6802E-03
            4154            4374     33.9722E-03     34.1307E-03
            4114            4374     33.9722E-03     34.1307E-03
            4115            4374     33.9722E-03     34.1307E-03
            4155            4374     33.9722E-03     34.1307E-03
            4155            4375     35.5070E-03     35.6459E-03
            4156            4375     35.5070E-03     35.6459E-03
            4116            4375     35.5070E-03     35.6459E-03
            4115            4375     35.5070E-03     35.6459E-03
            4117            4376     37.0429E-03     37.4011E-03
            4157            4376     37.0429E-03     37.4011E-03
            4156            4376     37.0429E-03     37.4011E-03
            4116            4376     37.0429E-03     37.4011E-03
            4157            4377     39.1070E-03     38.9673E-03
            4158            4377     39.1070E-03     38.9673E-03
            4118            4377     39.1070E-03     38.9673E-03
            4117            4377     39.1070E-03     38.9673E-03
            4118            4378     40.9239E-03     40.4036E-03
            4158            4378     40.9239E-03     40.4036E-03
            4119            4378     40.9239E-03     40.4036E-03
            4159            4378     40.9239E-03     40.4036E-03
            4119            4379     41.9457E-03     43.4600E-03
            4159            4379     41.9457E-03     43.4600E-03
            4120            4379     41.9457E-03     43.4600E-03
            4160            4379     41.9457E-03     43.4600E-03
            4121            4380     46.4799E-03     43.8464E-03
            4120            4380     46.4799E-03     43.8464E-03
            4161            4380     46.4799E-03     43.8464E-03
            4160            4380     46.4799E-03     43.8464E-03
            4122            4381     45.9289E-03     44.4275E-03
            4161            4381     45.9289E-03     44.4275E-03
            4162            4381     45.9289E-03     44.4275E-03
            4121            4381     45.9289E-03     44.4275E-03
            4162            4382     41.7028E-03     45.5204E-03
            4122            4382     41.7028E-03     45.5204E-03
            4123            4382     41.7028E-03     45.5204E-03
            4163            4382     41.7028E-03     45.5204E-03
            4163            4383     45.2204E-03     44.1764E-03
            4164            4383     45.2204E-03     44.1764E-03
            4123            4383     45.2204E-03     44.1764E-03
            4124            4383     45.2204E-03     44.1764E-03
            4164            4384     48.2073E-03     47.0824E-03
            4165            4384     48.2073E-03     47.0824E-03
            4124            4384     48.2073E-03     47.0824E-03
            4125            4384     48.2073E-03     47.0824E-03
            4125            4385     49.4994E-03     50.6722E-03
            4165            4385     49.4994E-03     50.6722E-03
            4166            4385     49.4994E-03     50.6722E-03
            4126            4385     49.4994E-03     50.6722E-03
            4167            4386     52.5240E-03     52.5806E-03
            4127            4386     52.5240E-03     52.5806E-03
            4166            4386     52.5240E-03     52.5806E-03
            4126            4386     52.5240E-03     52.5806E-03
            4127            4387     55.1634E-03     55.0563E-03
            4128            4387     55.1634E-03     55.0563E-03
            4167            4387     55.1634E-03     55.0563E-03
            4168            4387     55.1634E-03     55.0563E-03
            4169            4388     57.3909E-03     57.6792E-03
            4128            4388     57.3909E-03     57.6792E-03
            4129            4388     57.3909E-03     57.6792E-03
            4168            4388     57.3909E-03     57.6792E-03
            4170            4389     60.4982E-03     59.7594E-03
            4169            4389     60.4982E-03     59.7594E-03
            4130            4389     60.4982E-03     59.7594E-03
            4129            4389     60.4982E-03     59.7594E-03
            4131            4390     62.8229E-03     61.6544E-03
            4171            4390     62.8229E-03     61.6544E-03
            4170            4390     62.8229E-03     61.6544E-03
            4130            4390     62.8229E-03     61.6544E-03
            4131            4391     63.4500E-03     66.4390E-03
            4132            4391     63.4500E-03     66.4390E-03
            4171            4391     63.4500E-03     66.4390E-03
            4172            4391     63.4500E-03     66.4390E-03
            4132            4392     70.5529E-03     65.7398E-03
            4172            4392     70.5529E-03     65.7398E-03
            4173            4392     70.5529E-03     65.7398E-03
            4133            4392     70.5529E-03     65.7398E-03
            4174            4393     68.4145E-03     65.7017E-03
            4133            4393     68.4145E-03     65.7017E-03
            4173            4393     68.4145E-03     65.7017E-03
            4134            4393     68.4145E-03     65.7017E-03
            4135            4394     59.5807E-03     67.9382E-03
            4175            4394     59.5807E-03     67.9382E-03
            4174            4394     59.5807E-03     67.9382E-03
            4134            4394     59.5807E-03     67.9382E-03
            4175            4395     66.9466E-03     64.7880E-03
            4135            4395     66.9466E-03     64.7880E-03
            4136            4395     66.9466E-03     64.7880E-03
            4176            4395     66.9466E-03     64.7880E-03
            4137            4396     72.1580E-03     69.2514E-03
            4177            4396     72.1580E-03     69.2514E-03
            4136            4396     72.1580E-03     69.2514E-03
            4176            4396     72.1580E-03     69.2514E-03
            4137            4397     72.4130E-03     74.9176E-03
            4177            4397     72.4130E-03     74.9176E-03
            4178            4397     72.4130E-03     74.9176E-03
            4138            4397     72.4130E-03     74.9176E-03
            4179            4398     76.7216E-03     76.3702E-03
            4178            4398     76.7216E-03     76.3702E-03
            4138            4398     76.7216E-03     76.3702E-03
            4139            4398     76.7216E-03     76.3702E-03
            4180            4399     79.5383E-03     79.8807E-03
            4139            4399     79.5383E-03     79.8807E-03
            4140            4399     79.5383E-03     79.8807E-03
            4179            4399     79.5383E-03     79.8807E-03
            4181            4400     82.8443E-03     82.4495E-03
            4180            4400     82.8443E-03     82.4495E-03
            4140            4400     82.8443E-03     82.4495E-03
            4141            4400     82.8443E-03     82.4495E-03
            4182            4401     85.4732E-03     84.1661E-03
            4181            4401     85.4732E-03     84.1661E-03
            4141            4401     85.4732E-03     84.1661E-03
            4142            4401     85.4732E-03     84.1661E-03
            4183            4402     85.4615E-03     90.0057E-03
            4142            4402     85.4615E-03     90.0057E-03
            4143            4402     85.4615E-03     90.0057E-03
            4182            4402     85.4615E-03     90.0057E-03
            4184            4403     94.3806E-03     87.9089E-03
            4183            4403     94.3806E-03     87.9089E-03
            4143            4403     94.3806E-03     87.9089E-03
            4144            4403     94.3806E-03     87.9089E-03
            4185            4404     90.5803E-03     86.8258E-03
            4184            4404     90.5803E-03     86.8258E-03
            4144            4404     90.5803E-03     86.8258E-03
            4145            4404     90.5803E-03     86.8258E-03
            4186            4405     79.3612E-03     87.2207E-03
            4185            4405     79.3612E-03     87.2207E-03
            4145            4405     79.3612E-03     87.2207E-03
            4146            4405     79.3612E-03     87.2207E-03
            4188            4406     23.6915E-03     23.5933E-03
            4147            4406     23.6915E-03     23.5933E-03
            4148            4406     23.6915E-03     23.5933E-03
            4187            4406     23.6915E-03     23.5933E-03
            4149            4407     23.9767E-03     24.4784E-03
            4188            4407     23.9767E-03     24.4784E-03
            4148            4407     23.9767E-03     24.4784E-03
            4189            4407     23.9767E-03     24.4784E-03
            4149            4408     25.9455E-03     25.0057E-03
            4189            4408     25.9455E-03     25.0057E-03
            4190            4408     25.9455E-03     25.0057E-03
            4150            4408     25.9455E-03     25.0057E-03
            4191            4409     26.4462E-03     26.2826E-03
            4150            4409     26.4462E-03     26.2826E-03
            4151            4409     26.4462E-03     26.2826E-03
            4190            4409     26.4462E-03     26.2826E-03
            4192            4410     26.2183E-03     27.3852E-03
            4191            4410     26.2183E-03     27.3852E-03
            4151            4410     26.2183E-03     27.3852E-03
            4152            4410     26.2183E-03     27.3852E-03
            4193            4411     28.0738E-03     28.1599E-03
            4192            4411     28.0738E-03     28.1599E-03
            4152            4411     28.0738E-03     28.1599E-03
            4153            4411     28.0738E-03     28.1599E-03
            4194            4412     29.8028E-03     30.5928E-03
            4153            4412     29.8028E-03     30.5928E-03
            4154            4412     29.8028E-03     30.5928E-03
            4193            4412     29.8028E-03     30.5928E-03
            4195            4413     32.1065E-03     32.9784E-03
            4194            4413     32.1065E-03     32.9784E-03
            4154            4413     32.1065E-03     32.9784E-03
            4155            4413     32.1065E-03     32.9784E-03
            4196            4414     34.8318E-03     35.1464E-03
            4156            4414     34.8318E-03     35.1464E-03
            4155            4414     34.8318E-03     35.1464E-03
            4195            4414     34.8318E-03     35.1464E-03
            4197            4415     37.4628E-03     37.8424E-03
            4156            4415     37.4628E-03     37.8424E-03
            4196            4415     37.4628E-03     37.8424E-03
            4157            4415     37.4628E-03     37.8424E-03
            4198            4416     40.7990E-03     40.3822E-03
            4157            4416     40.7990E-03     40.3822E-03
            4158            4416     40.7990E-03     40.3822E-03
            4197            4416     40.7990E-03     40.3822E-03
            4198            4417     43.8453E-03     42.9223E-03
            4158            4417     43.8453E-03     42.9223E-03
            4159            4417     43.8453E-03     42.9223E-03
            4199            4417     43.8453E-03     42.9223E-03
            4160            4418     45.9877E-03     48.0613E-03
            4199            4418     45.9877E-03     48.0613E-03
            4159            4418     45.9877E-03     48.0613E-03
            4200            4418     45.9877E-03     48.0613E-03
            4201            4419     53.8235E-03     49.0483E-03
            4160            4419     53.8235E-03     49.0483E-03
            4161            4419     53.8235E-03     49.0483E-03
            4200            4419     53.8235E-03     49.0483E-03
            4202            4420     53.3250E-03     51.7437E-03
            4201            4420     53.3250E-03     51.7437E-03
            4161            4420     53.3250E-03     51.7437E-03
            4162            4420     53.3250E-03     51.7437E-03
            4203            4421     46.3464E-03     54.3140E-03
            4163            4421     46.3464E-03     54.3140E-03
            4162            4421     46.3464E-03     54.3140E-03
            4202            4421     46.3464E-03     54.3140E-03
            4204            4422     52.3614E-03     51.4512E-03
            4203            4422     52.3614E-03     51.4512E-03
            4163            4422     52.3614E-03     51.4512E-03
            4164            4422     52.3614E-03     51.4512E-03
            4164            4423     56.8051E-03     55.6711E-03
            4204            4423     56.8051E-03     55.6711E-03
            4165            4423     56.8051E-03     55.6711E-03
            4205            4423     56.8051E-03     55.6711E-03
            4205            4424     57.5595E-03     60.2482E-03
            4165            4424     57.5595E-03     60.2482E-03
            4206            4424     57.5595E-03     60.2482E-03
            4166            4424     57.5595E-03     60.2482E-03
            4207            4425     61.7007E-03     61.7950E-03
            4206            4425     61.7007E-03     61.7950E-03
            4166            4425     61.7007E-03     61.7950E-03
            4167            4425     61.7007E-03     61.7950E-03
            4167            4426     65.1013E-03     64.8595E-03
            4208            4426     65.1013E-03     64.8595E-03
            4168            4426     65.1013E-03     64.8595E-03
            4207            4426     65.1013E-03     64.8595E-03
            4208            4427     68.1486E-03     68.5664E-03
            4169            4427     68.1486E-03     68.5664E-03
            4168            4427     68.1486E-03     68.5664E-03
            4209            4427     68.1486E-03     68.5664E-03
            4209            4428     72.7951E-03     71.6846E-03
            4169            4428     72.7951E-03     71.6846E-03
            4210            4428     72.7951E-03     71.6846E-03
            4170            4428     72.7951E-03     71.6846E-03
            4210            4429     76.6675E-03     74.9424E-03
            4211            4429     76.6675E-03     74.9424E-03
            4170            4429     76.6675E-03     74.9424E-03
            4171            4429     76.6675E-03     74.9424E-03
            4211            4430     78.6729E-03     82.7243E-03
            4212            4430     78.6729E-03     82.7243E-03
            4171            4430     78.6729E-03     82.7243E-03
            4172            4430     78.6729E-03     82.7243E-03
            4212            4431     90.6030E-03     82.6391E-03
            4173            4431     90.6030E-03     82.6391E-03
            4213            4431     90.6030E-03     82.6391E-03
            4172            4431     90.6030E-03     82.6391E-03
            4213            4432     88.0207E-03     85.2171E-03
            4173            4432     88.0207E-03     85.2171E-03
            4214            4432     88.0207E-03     85.2171E-03
            4174            4432     88.0207E-03     85.2171E-03
            4175            4433     74.4947E-03     89.8992E-03
            4215            4433     74.4947E-03     89.8992E-03
            4214            4433     74.4947E-03     89.8992E-03
            4174            4433     74.4947E-03     89.8992E-03
            4216            4434     86.1121E-03     83.8721E-03
            4176            4434     86.1121E-03     83.8721E-03
            4215            4434     86.1121E-03     83.8721E-03
            4175            4434     86.1121E-03     83.8721E-03
            4217            4435     93.2166E-03     89.3021E-03
            4177            4435     93.2166E-03     89.3021E-03
            4216            4435     93.2166E-03     89.3021E-03
            4176            4435     93.2166E-03     89.3021E-03
            4177            4436     91.4029E-03     95.7417E-03
            4218            4436     91.4029E-03     95.7417E-03
            4217            4436     91.4029E-03     95.7417E-03
            4178            4436     91.4029E-03     95.7417E-03
            4179            4437     96.6286E-03     95.7832E-03
            4219            4437     96.6286E-03     95.7832E-03
            4178            4437     96.6286E-03     95.7832E-03
            4218            4437     96.6286E-03     95.7832E-03
            4219            4438     99.9635E-03     99.9450E-03
            4220            4438     99.9635E-03     99.9450E-03
            4180            4438     99.9635E-03     99.9450E-03
            4179            4438     99.9635E-03     99.9450E-03
            4181            4439     104.440E-03     103.379E-03
            4220            4439     104.440E-03     103.379E-03
            4180            4439     104.440E-03     103.379E-03
            4221            4439     104.440E-03     103.379E-03
            4222            4440     108.779E-03     106.297E-03
            4182            4440     108.779E-03     106.297E-03
            4181            4440     108.779E-03     106.297E-03
            4221            4440     108.779E-03     106.297E-03
            4182            4441     110.299E-03     115.983E-03
            4223            4441     110.299E-03     115.983E-03
            4222            4441     110.299E-03     115.983E-03
            4183            4441     110.299E-03     115.983E-03
            4224            4442     125.367E-03     114.623E-03
            4184            4442     125.367E-03     114.623E-03
            4183            4442     125.367E-03     114.623E-03
            4223            4442     125.367E-03     114.623E-03
            4184            4443     120.743E-03     116.693E-03
            4225            4443     120.743E-03     116.693E-03
            4185            4443     120.743E-03     116.693E-03
            4224            4443     120.743E-03     116.693E-03
            4186            4444     105.032E-03     118.636E-03
            4226            4444     105.032E-03     118.636E-03
            4185            4444     105.032E-03     118.636E-03
            4225            4444     105.032E-03     118.636E-03
            4227            4445     17.5161E-03     17.7970E-03
            4228            4445     17.5161E-03     17.7970E-03
            4188            4445     17.5161E-03     17.7970E-03
            4187            4445     17.5161E-03     17.7970E-03
            4228            4446     18.2529E-03     19.6458E-03
            4229            4446     18.2529E-03     19.6458E-03
            4189            4446     18.2529E-03     19.6458E-03
            4188            4446     18.2529E-03     19.6458E-03
            4229            4447     21.7407E-03     20.0578E-03
            4190            4447     21.7407E-03     20.0578E-03
            4230            4447     21.7407E-03     20.0578E-03
            4189            4447     21.7407E-03     20.0578E-03
            4190            4448     22.6171E-03     22.4662E-03
            4231            4448     22.6171E-03     22.4662E-03
            4191            4448     22.6171E-03     22.4662E-03
            4230            4448     22.6171E-03     22.4662E-03
            4192            4449     22.0296E-03     24.9606E-03
            4231            4449     22.0296E-03     24.9606E-03
            4232            4449     22.0296E-03     24.9606E-03
            4191            4449     22.0296E-03     24.9606E-03
            4233            4450     25.1132E-03     25.6290E-03
            4192            4450     25.1132E-03     25.6290E-03
            4193            4450     25.1132E-03     25.6290E-03
            4232            4450     25.1132E-03     25.6290E-03
            4193            4451     27.5965E-03     28.6365E-03
            4194            4451     27.5965E-03     28.6365E-03
            4234            4451     27.5965E-03     28.6365E-03
            4233            4451     27.5965E-03     28.6365E-03
            4234            4452     30.2656E-03     31.3574E-03
            4194            4452     30.2656E-03     31.3574E-03
            4195            4452     30.2656E-03     31.3574E-03
            4235            4452     30.2656E-03     31.3574E-03
            4236            4453     33.9772E-03     34.0579E-03
            4196            4453     33.9772E-03     34.0579E-03
            4235            4453     33.9772E-03     34.0579E-03
            4195            4453     33.9772E-03     34.0579E-03
            4237            4454     37.4274E-03     38.1811E-03
            4197            4454     37.4274E-03     38.1811E-03
            4236            4454     37.4274E-03     38.1811E-03
            4196            4454     37.4274E-03     38.1811E-03
            4198            4455     42.1432E-03     42.0879E-03
            4197            4455     42.1432E-03     42.0879E-03
            4237            4455     42.1432E-03     42.0879E-03
            4238            4455     42.1432E-03     42.0879E-03
            4238            4456     46.4266E-03     46.0352E-03
            4239            4456     46.4266E-03     46.0352E-03
            4199            4456     46.4266E-03     46.0352E-03
            4198            4456     46.4266E-03     46.0352E-03
            4240            4457     49.4788E-03     53.4819E-03
            4199            4457     49.4788E-03     53.4819E-03
            4239            4457     49.4788E-03     53.4819E-03
            4200            4457     49.4788E-03     53.4819E-03
            4200            4458     60.6168E-03     54.4293E-03
            4241            4458     60.6168E-03     54.4293E-03
            4240            4458     60.6168E-03     54.4293E-03
            4201            4458     60.6168E-03     54.4293E-03
            4202            4459     60.6040E-03     59.5699E-03
            4201            4459     60.6040E-03     59.5699E-03
            4242            4459     60.6040E-03     59.5699E-03
            4241            4459     60.6040E-03     59.5699E-03
            4203            4460     51.7812E-03     65.6079E-03
            4202            4460     51.7812E-03     65.6079E-03
            4243            4460     51.7812E-03     65.6079E-03
            4242            4460     51.7812E-03     65.6079E-03
            4243            4461     60.7131E-03     60.4147E-03
            4204            4461     60.7131E-03     60.4147E-03
            4244            4461     60.7131E-03     60.4147E-03
            4203            4461     60.7131E-03     60.4147E-03
            4245            4462     65.6676E-03     63.5689E-03
            4205            4462     65.6676E-03     63.5689E-03
            4204            4462     65.6676E-03     63.5689E-03
            4244            4462     65.6676E-03     63.5689E-03
            4205            4463     64.4123E-03     68.2162E-03
            4206            4463     64.4123E-03     68.2162E-03
            4245            4463     64.4123E-03     68.2162E-03
            4246            4463     64.4123E-03     68.2162E-03
            4206            4464     69.1156E-03     69.4743E-03
            4207            4464     69.1156E-03     69.4743E-03
            4246            4464     69.1156E-03     69.4743E-03
            4247            4464     69.1156E-03     69.4743E-03
            4248            4465     73.0260E-03     73.6389E-03
            4208            4465     73.0260E-03     73.6389E-03
            4247            4465     73.0260E-03     73.6389E-03
            4207            4465     73.0260E-03     73.6389E-03
            4209            4466     76.6172E-03     78.7578E-03
            4208            4466     76.6172E-03     78.7578E-03
            4249            4466     76.6172E-03     78.7578E-03
            4248            4466     76.6172E-03     78.7578E-03
            4209            4467     82.8005E-03     83.0923E-03
            4210            4467     82.8005E-03     83.0923E-03
            4249            4467     82.8005E-03     83.0923E-03
            4250            4467     82.8005E-03     83.0923E-03
            4210            4468     87.8839E-03     87.5728E-03
            4211            4468     87.8839E-03     87.5728E-03
            4250            4468     87.8839E-03     87.5728E-03
            4251            4468     87.8839E-03     87.5728E-03
            4252            4469     90.8436E-03     98.0482E-03
            4211            4469     90.8436E-03     98.0482E-03
            4212            4469     90.8436E-03     98.0482E-03
            4251            4469     90.8436E-03     98.0482E-03
            4212            4470     107.755E-03     97.6498E-03
            4213            4470     107.755E-03     97.6498E-03
            4253            4470     107.755E-03     97.6498E-03
            4252            4470     107.755E-03     97.6498E-03
            4214            4471     105.786E-03     103.907E-03
            4213            4471     105.786E-03     103.907E-03
            4253            4471     105.786E-03     103.907E-03
            4254            4471     105.786E-03     103.907E-03
            4255            4472     88.8496E-03     114.072E-03
            4214            4472     88.8496E-03     114.072E-03
            4215            4472     88.8496E-03     114.072E-03
            4254            4472     88.8496E-03     114.072E-03
            4255            4473     104.868E-03     103.526E-03
            4256            4473     104.868E-03     103.526E-03
            4216            4473     104.868E-03     103.526E-03
            4215            4473     104.868E-03     103.526E-03
            4256            4474     112.093E-03     106.355E-03
            4216            4474     112.093E-03     106.355E-03
            4257            4474     112.093E-03     106.355E-03
            4217            4474     112.093E-03     106.355E-03
            4257            4475     106.327E-03     112.823E-03
            4258            4475     106.327E-03     112.823E-03
            4217            4475     106.327E-03     112.823E-03
            4218            4475     106.327E-03     112.823E-03
            4219            4476     111.927E-03     111.628E-03
            4258            4476     111.927E-03     111.628E-03
            4218            4476     111.927E-03     111.628E-03
            4259            4476     111.927E-03     111.628E-03
            4219            4477     115.330E-03     117.283E-03
            4259            4477     115.330E-03     117.283E-03
            4220            4477     115.330E-03     117.283E-03
            4260            4477     115.330E-03     117.283E-03
            4260            4478     120.932E-03     121.917E-03
            4221            4478     120.932E-03     121.917E-03
            4220            4478     120.932E-03     121.917E-03
            4261            4478     120.932E-03     121.917E-03
            4222            4479     126.767E-03     125.878E-03
            4221            4479     126.767E-03     125.878E-03
            4261            4479     126.767E-03     125.878E-03
            4262            4479     126.767E-03     125.878E-03
            4262            4480     129.341E-03     139.115E-03
            4222            4480     129.341E-03     139.115E-03
            4263            4480     129.341E-03     139.115E-03
            4223            4480     129.341E-03     139.115E-03
            4263            4481     151.220E-03     137.454E-03
            4224            4481     151.220E-03     137.454E-03
            4264            4481     151.220E-03     137.454E-03
            4223            4481     151.220E-03     137.454E-03
            4264            4482     147.506E-03     144.712E-03
            4225            4482     147.506E-03     144.712E-03
            4224            4482     147.506E-03     144.712E-03
            4265            4482     147.506E-03     144.712E-03
            4265            4483     127.332E-03     148.265E-03
            4225            4483     127.332E-03     148.265E-03
            4226            4483     127.332E-03     148.265E-03
            4266            4483     127.332E-03     148.265E-03
            4227            4484     10.4098E-03     10.9669E-03
            4228            4484     10.4098E-03     10.9669E-03
            4268            4484     10.4098E-03     10.9669E-03
            4267            4484     10.4098E-03     10.9669E-03
            4229            4485     11.7989E-03     13.6544E-03
            4268            4485     11.7989E-03     13.6544E-03
            4269            4485     11.7989E-03     13.6544E-03
            4228            4485     11.7989E-03     13.6544E-03
            4229            4486     17.9862E-03     15.4218E-03
            4270            4486     17.9862E-03     15.4218E-03
            4269            4486     17.9862E-03     15.4218E-03
            4230            4486     17.9862E-03     15.4218E-03
            4271            4487     19.7157E-03     20.1194E-03
            4230            4487     19.7157E-03     20.1194E-03
            4270            4487     19.7157E-03     20.1194E-03
            4231            4487     19.7157E-03     20.1194E-03
            4231            4488     18.7377E-03     23.6118E-03
            4272            4488     18.7377E-03     23.6118E-03
            4271            4488     18.7377E-03     23.6118E-03
            4232            4488     18.7377E-03     23.6118E-03
            4272            4489     22.9268E-03     23.0866E-03
            4233            4489     22.9268E-03     23.0866E-03
            4273            4489     22.9268E-03     23.0866E-03
            4232            4489     22.9268E-03     23.0866E-03
            4234            4490     25.2523E-03     25.8878E-03
            4273            4490     25.2523E-03     25.8878E-03
            4233            4490     25.2523E-03     25.8878E-03
            4274            4490     25.2523E-03     25.8878E-03
            4234            4491     28.1975E-03     29.5098E-03
            4235            4491     28.1975E-03     29.5098E-03
            4275            4491     28.1975E-03     29.5098E-03
            4274            4491     28.1975E-03     29.5098E-03
            4236            4492     33.1930E-03     33.7363E-03
            4276            4492     33.1930E-03     33.7363E-03
            4235            4492     33.1930E-03     33.7363E-03
            4275            4492     33.1930E-03     33.7363E-03
            4276            4493     37.6861E-03     39.4899E-03
            4236            4493     37.6861E-03     39.4899E-03
            4237            4493     37.6861E-03     39.4899E-03
            4277            4493     37.6861E-03     39.4899E-03
            4278            4494     43.7621E-03     44.9234E-03
            4237            4494     43.7621E-03     44.9234E-03
            4277            4494     43.7621E-03     44.9234E-03
            4238            4494     43.7621E-03     44.9234E-03
            4239            4495     49.5717E-03     49.9980E-03
            4279            4495     49.5717E-03     49.9980E-03
            4238            4495     49.5717E-03     49.9980E-03
            4278            4495     49.5717E-03     49.9980E-03
            4280            4496     53.1610E-03     59.4798E-03
            4239            4496     53.1610E-03     59.4798E-03
            4279            4496     53.1610E-03     59.4798E-03
            4240            4496     53.1610E-03     59.4798E-03
            4281            4497     66.9944E-03     61.3800E-03
            4240            4497     66.9944E-03     61.3800E-03
            4280            4497     66.9944E-03     61.3800E-03
            4241            4497     66.9944E-03     61.3800E-03
            4281            4498     67.6425E-03     67.5108E-03
            4242            4498     67.6425E-03     67.5108E-03
            4282            4498     67.6425E-03     67.5108E-03
            4241            4498     67.6425E-03     67.5108E-03
            4282            4499     57.0334E-03     74.5487E-03
            4243            4499     57.0334E-03     74.5487E-03
            4242            4499     57.0334E-03     74.5487E-03
            4283            4499     57.0334E-03     74.5487E-03
            4243            4500     66.9404E-03     66.6939E-03
            4283            4500     66.9404E-03     66.6939E-03
            4244            4500     66.9404E-03     66.6939E-03
            4284            4500     66.9404E-03     66.6939E-03
            4285            4501     70.6735E-03     68.5770E-03
            4284            4501     70.6735E-03     68.5770E-03
            4245            4501     70.6735E-03     68.5770E-03
            4244            4501     70.6735E-03     68.5770E-03
            4286            4502     68.5144E-03     73.8977E-03
            4285            4502     68.5144E-03     73.8977E-03
            4245            4502     68.5144E-03     73.8977E-03
            4246            4502     68.5144E-03     73.8977E-03
            4246            4503     74.5277E-03     76.3183E-03
            4247            4503     74.5277E-03     76.3183E-03
            4286            4503     74.5277E-03     76.3183E-03
            4287            4503     74.5277E-03     76.3183E-03
            4247            4504     79.4649E-03     82.0706E-03
            4248            4504     79.4649E-03     82.0706E-03
            4287            4504     79.4649E-03     82.0706E-03
            4288            4504     79.4649E-03     82.0706E-03
            4249            4505     83.9437E-03     88.3115E-03
            4288            4505     83.9437E-03     88.3115E-03
            4289            4505     83.9437E-03     88.3115E-03
            4248            4505     83.9437E-03     88.3115E-03
            4290            4506     91.1926E-03     93.9687E-03
            4250            4506     91.1926E-03     93.9687E-03
            4289            4506     91.1926E-03     93.9687E-03
            4249            4506     91.1926E-03     93.9687E-03
            4251            4507     97.6271E-03     99.0489E-03
            4250            4507     97.6271E-03     99.0489E-03
            4291            4507     97.6271E-03     99.0489E-03
            4290            4507     97.6271E-03     99.0489E-03
            4251            4508     100.438E-03     111.543E-03
            4252            4508     100.438E-03     111.543E-03
            4292            4508     100.438E-03     111.543E-03
            4291            4508     100.438E-03     111.543E-03
            4293            4509     120.899E-03     111.940E-03
            4292            4509     120.899E-03     111.940E-03
            4252            4509     120.899E-03     111.940E-03
            4253            4509     120.899E-03     111.940E-03
            4294            4510     120.243E-03     119.739E-03
            4254            4510     120.243E-03     119.739E-03
            4253            4510     120.243E-03     119.739E-03
            4293            4510     120.243E-03     119.739E-03
            4294            4511     100.753E-03     132.120E-03
            4254            4511     100.753E-03     132.120E-03
            4295            4511     100.753E-03     132.120E-03
            4255            4511     100.753E-03     132.120E-03
            4295            4512     118.459E-03     117.784E-03
            4255            4512     118.459E-03     117.784E-03
            4256            4512     118.459E-03     117.784E-03
            4296            4512     118.459E-03     117.784E-03
            4296            4513     123.649E-03     118.429E-03
            4257            4513     123.649E-03     118.429E-03
            4297            4513     123.649E-03     118.429E-03
            4256            4513     123.649E-03     118.429E-03
            4257            4514     115.605E-03     125.681E-03
            4297            4514     115.605E-03     125.681E-03
            4258            4514     115.605E-03     125.681E-03
            4298            4514     115.605E-03     125.681E-03
            4298            4515     123.324E-03     125.330E-03
            4259            4515     123.324E-03     125.330E-03
            4299            4515     123.324E-03     125.330E-03
            4258            4515     123.324E-03     125.330E-03
            4299            4516     127.168E-03     132.857E-03
            4259            4516     127.168E-03     132.857E-03
            4300            4516     127.168E-03     132.857E-03
            4260            4516     127.168E-03     132.857E-03
            4301            4517     133.917E-03     138.870E-03
            4300            4517     133.917E-03     138.870E-03
            4261            4517     133.917E-03     138.870E-03
            4260            4517     133.917E-03     138.870E-03
            4261            4518     141.519E-03     143.364E-03
            4301            4518     141.519E-03     143.364E-03
            4262            4518     141.519E-03     143.364E-03
            4302            4518     141.519E-03     143.364E-03
            4303            4519     143.482E-03     159.000E-03
            4263            4519     143.482E-03     159.000E-03
            4262            4519     143.482E-03     159.000E-03
            4302            4519     143.482E-03     159.000E-03
            4263            4520     170.216E-03     158.184E-03
            4303            4520     170.216E-03     158.184E-03
            4304            4520     170.216E-03     158.184E-03
            4264            4520     170.216E-03     158.184E-03
            4305            4521     168.615E-03     167.832E-03
            4265            4521     168.615E-03     167.832E-03
            4264            4521     168.615E-03     167.832E-03
            4304            4521     168.615E-03     167.832E-03
            4306            4522     144.587E-03     170.443E-03
            4266            4522     144.587E-03     170.443E-03
            4305            4522     144.587E-03     170.443E-03
            4265            4522     144.587E-03     170.443E-03
            4268            4523     7.47196E-03     8.78070E-03
            4307            4523     7.47196E-03     8.78070E-03
            4267            4523     7.47196E-03     8.78070E-03
            4308            4523     7.47196E-03     8.78070E-03
            4308            4524     9.37547E-03     11.0544E-03
            4268            4524     9.37547E-03     11.0544E-03
            4269            4524     9.37547E-03     11.0544E-03
            4309            4524     9.37547E-03     11.0544E-03
            4309            4525     17.8921E-03     15.5500E-03
            4269            4525     17.8921E-03     15.5500E-03
            4310            4525     17.8921E-03     15.5500E-03
            4270            4525     17.8921E-03     15.5500E-03
            4310            4526     23.0982E-03     23.6258E-03
            4270            4526     23.0982E-03     23.6258E-03
            4271            4526     23.0982E-03     23.6258E-03
            4311            4526     23.0982E-03     23.6258E-03
            4312            4527     18.4814E-03     22.3225E-03
            4272            4527     18.4814E-03     22.3225E-03
            4271            4527     18.4814E-03     22.3225E-03
            4311            4527     18.4814E-03     22.3225E-03
            4312            4528     17.9048E-03     17.0005E-03
            4272            4528     17.9048E-03     17.0005E-03
            4273            4528     17.9048E-03     17.0005E-03
            4313            4528     17.9048E-03     17.0005E-03
            4314            4529     22.4612E-03     22.5175E-03
            4273            4529     22.4612E-03     22.5175E-03
            4313            4529     22.4612E-03     22.5175E-03
            4274            4529     22.4612E-03     22.5175E-03
            4314            4530     28.0464E-03     28.6512E-03
            4315            4530     28.0464E-03     28.6512E-03
            4275            4530     28.0464E-03     28.6512E-03
            4274            4530     28.0464E-03     28.6512E-03
            4316            4531     34.3859E-03     34.8169E-03
            4315            4531     34.3859E-03     34.8169E-03
            4275            4531     34.3859E-03     34.8169E-03
            4276            4531     34.3859E-03     34.8169E-03
            4277            4532     40.3702E-03     41.3278E-03
            4276            4532     40.3702E-03     41.3278E-03
            4317            4532     40.3702E-03     41.3278E-03
            4316            4532     40.3702E-03     41.3278E-03
            4318            4533     46.8423E-03     47.8397E-03
            4317            4533     46.8423E-03     47.8397E-03
            4278            4533     46.8423E-03     47.8397E-03
            4277            4533     46.8423E-03     47.8397E-03
            4279            4534     53.8225E-03     53.4145E-03
            4278            4534     53.8225E-03     53.4145E-03
            4319            4534     53.8225E-03     53.4145E-03
            4318            4534     53.8225E-03     53.4145E-03
            4320            4535     58.2146E-03     63.1711E-03
            4280            4535     58.2146E-03     63.1711E-03
            4319            4535     58.2146E-03     63.1711E-03
            4279            4535     58.2146E-03     63.1711E-03
            4280            4536     72.0295E-03     67.5739E-03
            4281            4536     72.0295E-03     67.5739E-03
            4320            4536     72.0295E-03     67.5739E-03
            4321            4536     72.0295E-03     67.5739E-03
            4321            4537     76.8002E-03     75.8528E-03
            4282            4537     76.8002E-03     75.8528E-03
            4322            4537     76.8002E-03     75.8528E-03
            4281            4537     76.8002E-03     75.8528E-03
            4282            4538     63.8071E-03     76.7322E-03
            4323            4538     63.8071E-03     76.7322E-03
            4322            4538     63.8071E-03     76.7322E-03
            4283            4538     63.8071E-03     76.7322E-03
            4283            4539     66.4123E-03     64.1754E-03
            4323            4539     66.4123E-03     64.1754E-03
            4284            4539     66.4123E-03     64.1754E-03
            4324            4539     66.4123E-03     64.1754E-03
            4324            4540     71.0523E-03     68.5075E-03
            4325            4540     71.0523E-03     68.5075E-03
            4284            4540     71.0523E-03     68.5075E-03
            4285            4540     71.0523E-03     68.5075E-03
            4325            4541     72.5436E-03     76.0333E-03
            4286            4541     72.5436E-03     76.0333E-03
            4285            4541     72.5436E-03     76.0333E-03
            4326            4541     72.5436E-03     76.0333E-03
            4327            4542     80.0499E-03     80.7128E-03
            4286            4542     80.0499E-03     80.7128E-03
            4287            4542     80.0499E-03     80.7128E-03
            4326            4542     80.0499E-03     80.7128E-03
            4288            4543     86.0895E-03     87.6407E-03
            4328            4543     86.0895E-03     87.6407E-03
            4327            4543     86.0895E-03     87.6407E-03
            4287            4543     86.0895E-03     87.6407E-03
            4288            4544     92.0172E-03     94.2412E-03
            4289            4544     92.0172E-03     94.2412E-03
            4329            4544     92.0172E-03     94.2412E-03
            4328            4544     92.0172E-03     94.2412E-03
            4290            4545     98.9755E-03     100.921E-03
            4329            4545     98.9755E-03     100.921E-03
            4289            4545     98.9755E-03     100.921E-03
            4330            4545     98.9755E-03     100.921E-03
            4331            4546     106.531E-03     106.219E-03
            4291            4546     106.531E-03     106.219E-03
            4330            4546     106.531E-03     106.219E-03
            4290            4546     106.531E-03     106.219E-03
            4331            4547     109.896E-03     118.268E-03
            4292            4547     109.896E-03     118.268E-03
            4291            4547     109.896E-03     118.268E-03
            4332            4547     109.896E-03     118.268E-03
            4293            4548     128.904E-03     121.576E-03
            4333            4548     128.904E-03     121.576E-03
            4292            4548     128.904E-03     121.576E-03
            4332            4548     128.904E-03     121.576E-03
            4333            4549     133.767E-03     131.537E-03
            4293            4549     133.767E-03     131.537E-03
            4334            4549     133.767E-03     131.537E-03
            4294            4549     133.767E-03     131.537E-03
            4334            4550     113.862E-03     137.096E-03
            4335            4550     113.862E-03     137.096E-03
            4294            4550     113.862E-03     137.096E-03
            4295            4550     113.862E-03     137.096E-03
            4295            4551     122.123E-03     118.580E-03
            4335            4551     122.123E-03     118.580E-03
            4336            4551     122.123E-03     118.580E-03
            4296            4551     122.123E-03     118.580E-03
            4337            4552     127.054E-03     121.822E-03
            4297            4552     127.054E-03     121.822E-03
            4296            4552     127.054E-03     121.822E-03
            4336            4552     127.054E-03     121.822E-03
            4297            4553     124.127E-03     130.997E-03
            4337            4553     124.127E-03     130.997E-03
            4338            4553     124.127E-03     130.997E-03
            4298            4553     124.127E-03     130.997E-03
            4338            4554     133.329E-03     133.902E-03
            4298            4554     133.329E-03     133.902E-03
            4339            4554     133.329E-03     133.902E-03
            4299            4554     133.329E-03     133.902E-03
            4300            4555     138.885E-03     142.146E-03
            4339            4555     138.885E-03     142.146E-03
            4340            4555     138.885E-03     142.146E-03
            4299            4555     138.885E-03     142.146E-03
            4301            4556     145.951E-03     149.262E-03
            4340            4556     145.951E-03     149.262E-03
            4300            4556     145.951E-03     149.262E-03
            4341            4556     145.951E-03     149.262E-03
            4302            4557     154.581E-03     154.226E-03
            4342            4557     154.581E-03     154.226E-03
            4301            4557     154.581E-03     154.226E-03
            4341            4557     154.581E-03     154.226E-03
            4343            4558     157.139E-03     168.736E-03
            4342            4558     157.139E-03     168.736E-03
            4303            4558     157.139E-03     168.736E-03
            4302            4558     157.139E-03     168.736E-03
            4304            4559     181.228E-03     171.254E-03
            4303            4559     181.228E-03     171.254E-03
            4344            4559     181.228E-03     171.254E-03
            4343            4559     181.228E-03     171.254E-03
            4344            4560     186.507E-03     183.114E-03
            4304            4560     186.507E-03     183.114E-03
            4345            4560     186.507E-03     183.114E-03
            4305            4560     186.507E-03     183.114E-03
            4345            4561     162.243E-03     182.789E-03
            4305            4561     162.243E-03     182.789E-03
            4306            4561     162.243E-03     182.789E-03
            4346            4561     162.243E-03     182.789E-03
            5283            5395     60.1735E-03     59.5523E-03
            5290            5395     60.1735E-03     59.5523E-03
            5289            5395     60.1735E-03     59.5523E-03
            5284            5395     60.1735E-03     59.5523E-03
            5290            5396     63.6064E-03     60.9961E-03
            5284            5396     63.6064E-03     60.9961E-03
            5291            5396     63.6064E-03     60.9961E-03
            5285            5396     63.6064E-03     60.9961E-03
            5292            5397     61.3361E-03     67.1233E-03
            5291            5397     61.3361E-03     67.1233E-03
            5286            5397     61.3361E-03     67.1233E-03
            5285            5397     61.3361E-03     67.1233E-03
            5287            5398     69.2969E-03     65.0001E-03
            5292            5398     69.2969E-03     65.0001E-03
            5286            5398     69.2969E-03     65.0001E-03
            5293            5398     69.2969E-03     65.0001E-03
            5288            5399     67.1681E-03     64.7833E-03
            5287            5399     67.1681E-03     64.7833E-03
            5293            5399     67.1681E-03     64.7833E-03
            5294            5399     67.1681E-03     64.7833E-03
            5295            5400     91.0745E-03     87.2550E-03
            5290            5400     91.0745E-03     87.2550E-03
            5296            5400     91.0745E-03     87.2550E-03
            5289            5400     91.0745E-03     87.2550E-03
            5296            5401     98.0884E-03     92.9629E-03
            5297            5401     98.0884E-03     92.9629E-03
            5291            5401     98.0884E-03     92.9629E-03
            5290            5401     98.0884E-03     92.9629E-03
            5297            5402     93.5798E-03     104.418E-03
            5292            5402     93.5798E-03     104.418E-03
            5291            5402     93.5798E-03     104.418E-03
            5298            5402     93.5798E-03     104.418E-03
            5298            5403     106.567E-03     98.9829E-03
            5293            5403     106.567E-03     98.9829E-03
            5292            5403     106.567E-03     98.9829E-03
            5299            5403     106.567E-03     98.9829E-03
            5293            5404     101.779E-03     99.1215E-03
            5300            5404     101.779E-03     99.1215E-03
            5294            5404     101.779E-03     99.1215E-03
            5299            5404     101.779E-03     99.1215E-03
            5301            5405     121.260E-03     115.509E-03
            5296            5405     121.260E-03     115.509E-03
            5295            5405     121.260E-03     115.509E-03
            5302            5405     121.260E-03     115.509E-03
            5296            5406     131.780E-03     123.210E-03
            5297            5406     131.780E-03     123.210E-03
            5302            5406     131.780E-03     123.210E-03
            5303            5406     131.780E-03     123.210E-03
            5298            5407     125.241E-03     138.447E-03
            5304            5407     125.241E-03     138.447E-03
            5303            5407     125.241E-03     138.447E-03
            5297            5407     125.241E-03     138.447E-03
            5299            5408     143.340E-03     130.246E-03
            5298            5408     143.340E-03     130.246E-03
            5305            5408     143.340E-03     130.246E-03
            5304            5408     143.340E-03     130.246E-03
            5300            5409     135.829E-03     131.503E-03
            5305            5409     135.829E-03     131.503E-03
            5306            5409     135.829E-03     131.503E-03
            5299            5409     135.829E-03     131.503E-03
            5301            5410     148.020E-03     141.846E-03
            5302            5410     148.020E-03     141.846E-03
            5308            5410     148.020E-03     141.846E-03
            5307            5410     148.020E-03     141.846E-03
            5302            5411     159.482E-03     146.426E-03
            5308            5411     159.482E-03     146.426E-03
            5303            5411     159.482E-03     146.426E-03
            5309            5411     159.482E-03     146.426E-03
            5303            5412     148.481E-03     164.679E-03
            5310            5412     148.481E-03     164.679E-03
            5304            5412     148.481E-03     164.679E-03
            5309            5412     148.481E-03     164.679E-03
            5304            5413     173.069E-03     153.560E-03
            5311            5413     173.069E-03     153.560E-03
            5310            5413     173.069E-03     153.560E-03
            5305            5413     173.069E-03     153.560E-03
            5311            5414     165.369E-03     160.860E-03
            5306            5414     165.369E-03     160.860E-03
            5305            5414     165.369E-03     160.860E-03
            5312            5414     165.369E-03     160.860E-03
            5313            5415     167.186E-03     163.340E-03
            5314            5415     167.186E-03     163.340E-03
            5308            5415     167.186E-03     163.340E-03
            5307            5415     167.186E-03     163.340E-03
            5308            5416     177.018E-03     164.243E-03
            5315            5416     177.018E-03     164.243E-03
            5314            5416     177.018E-03     164.243E-03
            5309            5416     177.018E-03     164.243E-03
            5315            5417     161.641E-03     185.266E-03
            5309            5417     161.641E-03     185.266E-03
            5310            5417     161.641E-03     185.266E-03
            5316            5417     161.641E-03     185.266E-03
            5317            5418     194.041E-03     175.340E-03
            5316            5418     194.041E-03     175.340E-03
            5311            5418     194.041E-03     175.340E-03
            5310            5418     194.041E-03     175.340E-03
            5312            5419     189.617E-03     187.701E-03
            5317            5419     189.617E-03     187.701E-03
            5311            5419     189.617E-03     187.701E-03
            5318            5419     189.617E-03     187.701E-03
            5314            5420     174.178E-03     170.291E-03
            5320            5420     174.178E-03     170.291E-03
            5313            5420     174.178E-03     170.291E-03
            5319            5420     174.178E-03     170.291E-03
            5314            5421     184.552E-03     172.806E-03
            5315            5421     184.552E-03     172.806E-03
            5320            5421     184.552E-03     172.806E-03
            5321            5421     184.552E-03     172.806E-03
            5316            5422     175.286E-03     194.576E-03
            5321            5422     175.286E-03     194.576E-03
            5315            5422     175.286E-03     194.576E-03
            5322            5422     175.286E-03     194.576E-03
            5323            5423     207.251E-03     191.814E-03
            5316            5423     207.251E-03     191.814E-03
            5322            5423     207.251E-03     191.814E-03
            5317            5423     207.251E-03     191.814E-03
            5323            5424     212.275E-03     208.144E-03
            5317            5424     212.275E-03     208.144E-03
            5318            5424     212.275E-03     208.144E-03
            5324            5424     212.275E-03     208.144E-03
            6568            6525     658.520E-06     644.182E-06
            6574            6525     658.520E-06     644.182E-06
            6573            6525     658.520E-06     644.182E-06
            6567            6525     658.520E-06     644.182E-06
            6569            6526     659.003E-06     651.685E-06
            6574            6526     659.003E-06     651.685E-06
            6575            6526     659.003E-06     651.685E-06
            6568            6526     659.003E-06     651.685E-06
            6576            6527     648.899E-06     649.761E-06
            6575            6527     648.899E-06     649.761E-06
            6570            6527     648.899E-06     649.761E-06
            6569            6527     648.899E-06     649.761E-06
            6571            6528     652.196E-06     644.700E-06
            6576            6528     652.196E-06     644.700E-06
            6577            6528     652.196E-06     644.700E-06
            6570            6528     652.196E-06     644.700E-06
            6577            6529     648.901E-06     641.173E-06
            6578            6529     648.901E-06     641.173E-06
            6572            6529     648.901E-06     641.173E-06
            6571            6529     648.901E-06     641.173E-06
            6574            6530     626.578E-06     617.197E-06
            6579            6530     626.578E-06     617.197E-06
            6580            6530     626.578E-06     617.197E-06
            6573            6530     626.578E-06     617.197E-06
            6574            6531     624.852E-06     613.229E-06
            6581            6531     624.852E-06     613.229E-06
            6575            6531     624.852E-06     613.229E-06
            6580            6531     624.852E-06     613.229E-06
            6576            6532     600.697E-06     604.153E-06
            6575            6532     600.697E-06     604.153E-06
            6582            6532     600.697E-06     604.153E-06
            6581            6532     600.697E-06     604.153E-06
            6576            6533     598.553E-06     591.331E-06
            6577            6533     598.553E-06     591.331E-06
            6582            6533     598.553E-06     591.331E-06
            6583            6533     598.553E-06     591.331E-06
            6578            6534     592.650E-06     585.073E-06
            6577            6534     592.650E-06     585.073E-06
            6584            6534     592.650E-06     585.073E-06
            6583            6534     592.650E-06     585.073E-06
            6585            6535     585.636E-06     573.725E-06
            6580            6535     585.636E-06     573.725E-06
            6586            6535     585.636E-06     573.725E-06
            6579            6535     585.636E-06     573.725E-06
            6586            6536     574.452E-06     548.530E-06
            6580            6536     574.452E-06     548.530E-06
            6581            6536     574.452E-06     548.530E-06
            6587            6536     574.452E-06     548.530E-06
            6588            6537     521.338E-06     534.038E-06
            6581            6537     521.338E-06     534.038E-06
            6587            6537     521.338E-06     534.038E-06
            6582            6537     521.338E-06     534.038E-06
            6583            6538     507.694E-06     508.476E-06
            6582            6538     507.694E-06     508.476E-06
            6588            6538     507.694E-06     508.476E-06
            6589            6538     507.694E-06     508.476E-06
            6589            6539     499.926E-06     495.476E-06
            6590            6539     499.926E-06     495.476E-06
            6583            6539     499.926E-06     495.476E-06
            6584            6539     499.926E-06     495.476E-06
            6591            6540     530.996E-06     523.403E-06
            6586            6540     530.996E-06     523.403E-06
            6592            6540     530.996E-06     523.403E-06
            6585            6540     530.996E-06     523.403E-06
            6592            6541     510.868E-06     463.168E-06
            6587            6541     510.868E-06     463.168E-06
            6586            6541     510.868E-06     463.168E-06
            6593            6541     510.868E-06     463.168E-06
            6594            6542     420.350E-06     442.998E-06
            6588            6542     420.350E-06     442.998E-06
            6593            6542     420.350E-06     442.998E-06
            6587            6542     420.350E-06     442.998E-06
            6589            6543     389.341E-06     398.753E-06
            6594            6543     389.341E-06     398.753E-06
            6595            6543     389.341E-06     398.753E-06
            6588            6543     389.341E-06     398.753E-06
            6595            6544     369.735E-06     375.428E-06
            6596            6544     369.735E-06     375.428E-06
            6589            6544     369.735E-06     375.428E-06
            6590            6544     369.735E-06     375.428E-06
            6598            6545     505.050E-06     512.485E-06
            6597            6545     505.050E-06     512.485E-06
            6592            6545     505.050E-06     512.485E-06
            6591            6545     505.050E-06     512.485E-06
            6593            6546     463.353E-06     410.369E-06
            6599            6546     463.353E-06     410.369E-06
            6592            6546     463.353E-06     410.369E-06
            6598            6546     463.353E-06     410.369E-06
            6599            6547     310.268E-06     336.560E-06
            6593            6547     310.268E-06     336.560E-06
            6594            6547     310.268E-06     336.560E-06
            6600            6547     310.268E-06     336.560E-06
            6600            6548     248.301E-06     247.372E-06
            6594            6548     248.301E-06     247.372E-06
            6601            6548     248.301E-06     247.372E-06
            6595            6548     248.301E-06     247.372E-06
            6595            6549     216.252E-06     234.555E-06
            6601            6549     216.252E-06     234.555E-06
            6596            6549     216.252E-06     234.555E-06
            6602            6549     216.252E-06     234.555E-06
            6597            6550     607.351E-06     611.671E-06
            6603            6550     607.351E-06     611.671E-06
            6598            6550     607.351E-06     611.671E-06
            6604            6550     607.351E-06     611.671E-06
            6605            6551     486.570E-06     447.993E-06
            6599            6551     486.570E-06     447.993E-06
            6598            6551     486.570E-06     447.993E-06
            6604            6551     486.570E-06     447.993E-06
            6600            6552     283.655E-06     312.636E-06
            6605            6552     283.655E-06     312.636E-06
            6599            6552     283.655E-06     312.636E-06
            6606            6552     283.655E-06     312.636E-06
            6600            6553     195.969E-06     179.074E-06
            6601            6553     195.969E-06     179.074E-06
            6607            6553     195.969E-06     179.074E-06
            6606            6553     195.969E-06     179.074E-06
            6607            6554     157.504E-06     197.561E-06
            6602            6554     157.504E-06     197.561E-06
            6601            6554     157.504E-06     197.561E-06
            6608            6554     157.504E-06     197.561E-06


  Minimum                            152.641E-06     179.074E-06
      At Element                            1784            6607
            Node                              18            6553

  Maximum                            296.909E-03     284.311E-03
      At Element                            2380            2380
            Node                             524             524

           Total                         409.097         414.712


Field Output reported at element nodes for region: A320-1.Region_4
   Computation algorithm: EXTRAPOLATE_COMPUTE_AVERAGE
   Averaged at nodes
   Averaging regions: ODB_REGIONS

   Element Label      Node Label         S.Mises         S.Mises
                                          @Loc 1          @Loc 2
-----------------------------------------------------------------
            5049              13     2.28399E-03     4.41054E-03
            5739              13     2.28399E-03     4.41054E-03
            5829              14     112.100E-06     214.044E-06
            2510              16     2.63198E-03     4.37215E-03
             785              16     2.63198E-03     4.37215E-03
            2493              17     5.24271E-03     6.66912E-03
             802              17     5.24271E-03     6.66912E-03
             856              18     84.3043E-06     183.631E-06
             839              19     251.216E-06     296.436E-06
            3392              20     64.7291E-03     65.5800E-03
            2402              20     64.7291E-03     65.5800E-03
            3375              21     169.198E-03     174.941E-03
            2385              21     169.198E-03     174.941E-03
            5175              22     235.456E-03     243.636E-03
            2475              22     235.456E-03     243.636E-03
            5192              23     87.3384E-03     79.1203E-03
            2492              23     87.3384E-03     79.1203E-03
            4364              24     19.9305E-03     24.1574E-03
            5282              24     19.9305E-03     24.1574E-03
            5265              25     158.857E-03     160.606E-03
            4347              25     158.857E-03     160.606E-03
            5066              26     5.72122E-03     5.99938E-03
            5756              26     5.72122E-03     5.99938E-03
            5846              28     268.471E-06     327.164E-06
            5739             194     572.569E-06     602.467E-06
            5757             194     572.569E-06     602.467E-06
            5775             195     426.628E-06     421.158E-06
            5757             195     426.628E-06     421.158E-06
            5793             196     277.204E-06     279.645E-06
            5775             196     277.204E-06     279.645E-06
            5811             197     154.056E-06     137.597E-06
            5793             197     154.056E-06     137.597E-06
            5829             198     96.2626E-06     150.545E-06
            5811             198     96.2626E-06     150.545E-06
            2510             289     2.59839E-03     3.51907E-03
             786             289     2.59839E-03     3.51907E-03
             785             289     2.59839E-03     3.51907E-03
            2509             289     2.59839E-03     3.51907E-03
             786             290     2.66534E-03     2.47625E-03
            2508             290     2.66534E-03     2.47625E-03
             787             290     2.66534E-03     2.47625E-03
            2509             290     2.66534E-03     2.47625E-03
            2508             291     2.85711E-03     2.29207E-03
            2507             291     2.85711E-03     2.29207E-03
             788             291     2.85711E-03     2.29207E-03
             787             291     2.85711E-03     2.29207E-03
             788             292     3.03029E-03     2.31206E-03
             789             292     3.03029E-03     2.31206E-03
            2507             292     3.03029E-03     2.31206E-03
            2506             292     3.03029E-03     2.31206E-03
            2505             293     3.21184E-03     2.39763E-03
             790             293     3.21184E-03     2.39763E-03
             789             293     3.21184E-03     2.39763E-03
            2506             293     3.21184E-03     2.39763E-03
             791             294     3.40155E-03     2.53466E-03
            2505             294     3.40155E-03     2.53466E-03
             790             294     3.40155E-03     2.53466E-03
            2504             294     3.40155E-03     2.53466E-03
             792             295     3.58987E-03     2.69057E-03
             791             295     3.58987E-03     2.69057E-03
            2503             295     3.58987E-03     2.69057E-03
            2504             295     3.58987E-03     2.69057E-03
            2502             296     3.78488E-03     2.86014E-03
            2503             296     3.78488E-03     2.86014E-03
             792             296     3.78488E-03     2.86014E-03
             793             296     3.78488E-03     2.86014E-03
            2501             297     3.97664E-03     3.03728E-03
             793             297     3.97664E-03     3.03728E-03
             794             297     3.97664E-03     3.03728E-03
            2502             297     3.97664E-03     3.03728E-03
             795             298     4.16570E-03     3.20752E-03
            2500             298     4.16570E-03     3.20752E-03
             794             298     4.16570E-03     3.20752E-03
            2501             298     4.16570E-03     3.20752E-03
            2499             299     4.33456E-03     3.36376E-03
             795             299     4.33456E-03     3.36376E-03
             796             299     4.33456E-03     3.36376E-03
            2500             299     4.33456E-03     3.36376E-03
             796             300     4.47493E-03     3.48644E-03
             797             300     4.47493E-03     3.48644E-03
            2499             300     4.47493E-03     3.48644E-03
            2498             300     4.47493E-03     3.48644E-03
             797             301     4.53025E-03     3.52573E-03
             798             301     4.53025E-03     3.52573E-03
            2497             301     4.53025E-03     3.52573E-03
            2498             301     4.53025E-03     3.52573E-03
             798             302     4.48591E-03     3.46630E-03
            2497             302     4.48591E-03     3.46630E-03
            2496             302     4.48591E-03     3.46630E-03
             799             302     4.48591E-03     3.46630E-03
            2496             303     4.21179E-03     3.20464E-03
            2495             303     4.21179E-03     3.20464E-03
             800             303     4.21179E-03     3.20464E-03
             799             303     4.21179E-03     3.20464E-03
            2494             304     3.64893E-03     2.93383E-03
             800             304     3.64893E-03     2.93383E-03
             801             304     3.64893E-03     2.93383E-03
            2495             304     3.64893E-03     2.93383E-03
            2493             305     4.28444E-03     4.76708E-03
             801             305     4.28444E-03     4.76708E-03
             802             305     4.28444E-03     4.76708E-03
            2494             305     4.28444E-03     4.76708E-03
             820             306     319.364E-06     353.735E-06
             802             306     319.364E-06     353.735E-06
             838             307     151.911E-06     156.375E-06
             820             307     151.911E-06     156.375E-06
             838             308     59.9919E-06     139.587E-06
             856             308     59.9919E-06     139.587E-06
             856             309     179.240E-06     200.698E-06
             855             309     179.240E-06     200.698E-06
             855             310     279.983E-06     236.389E-06
             854             310     279.983E-06     236.389E-06
             853             311     308.555E-06     269.467E-06
             854             311     308.555E-06     269.467E-06
             852             312     319.877E-06     277.651E-06
             853             312     319.877E-06     277.651E-06
             852             313     312.786E-06     275.739E-06
             851             313     312.786E-06     275.739E-06
             850             314     312.141E-06     276.255E-06
             851             314     312.141E-06     276.255E-06
             849             315     307.707E-06     274.001E-06
             850             315     307.707E-06     274.001E-06
             849             316     305.339E-06     273.851E-06
             848             316     305.339E-06     273.851E-06
             848             317     301.687E-06     272.639E-06
             847             317     301.687E-06     272.639E-06
             846             318     298.896E-06     272.446E-06
             847             318     298.896E-06     272.446E-06
             845             319     295.690E-06     272.114E-06
             846             319     295.690E-06     272.114E-06
             845             320     292.899E-06     272.376E-06
             844             320     292.899E-06     272.376E-06
             843             321     290.307E-06     272.575E-06
             844             321     290.307E-06     272.575E-06
             843             322     287.160E-06     274.277E-06
             842             322     287.160E-06     274.277E-06
             842             323     285.861E-06     274.323E-06
             841             323     285.861E-06     274.323E-06
             840             324     283.009E-06     274.139E-06
             841             324     283.009E-06     274.139E-06
             839             325     265.233E-06     285.861E-06
             840             325     265.233E-06     285.861E-06
             821             326     274.951E-06     275.731E-06
             839             326     274.951E-06     275.731E-06
             803             327     296.404E-06     250.080E-06
             821             327     296.404E-06     250.080E-06
             803             328     265.711E-06     264.344E-06
             785             328     265.711E-06     264.344E-06
            3374             363     40.2532E-03     43.8410E-03
            3392             363     40.2532E-03     43.8410E-03
            3356             364     33.3900E-03     38.2693E-03
            3374             364     33.3900E-03     38.2693E-03
            3356             365     31.3561E-03     35.0477E-03
            3338             365     31.3561E-03     35.0477E-03
            3320             366     30.0957E-03     34.1674E-03
            3338             366     30.0957E-03     34.1674E-03
            3320             367     30.3788E-03     33.5877E-03
            3302             367     30.3788E-03     33.5877E-03
            3284             368     30.7247E-03     34.5472E-03
            3302             368     30.7247E-03     34.5472E-03
            3266             369     32.5809E-03     35.0797E-03
            3284             369     32.5809E-03     35.0797E-03
            3266             370     34.5451E-03     38.9425E-03
            3248             370     34.5451E-03     38.9425E-03
            3230             371     39.8422E-03     43.7650E-03
            3248             371     39.8422E-03     43.7650E-03
            3212             372     40.9116E-03     40.8312E-03
            3230             372     40.9116E-03     40.8312E-03
            3194             373     32.2920E-03     34.9670E-03
            3212             373     32.2920E-03     34.9670E-03
            3194             374     26.9567E-03     30.4792E-03
            3176             374     26.9567E-03     30.4792E-03
            3176             375     25.1618E-03     27.9324E-03
            3158             375     25.1618E-03     27.9324E-03
            3140             376     24.2604E-03     27.0161E-03
            3158             376     24.2604E-03     27.0161E-03
            3140             377     23.9759E-03     26.5683E-03
            3122             377     23.9759E-03     26.5683E-03
            3122             378     24.3778E-03     26.4555E-03
            3104             378     24.3778E-03     26.4555E-03
            3086             379     24.7455E-03     27.3296E-03
            3104             379     24.7455E-03     27.3296E-03
            3068             380     26.1463E-03     27.6886E-03
            3086             380     26.1463E-03     27.6886E-03
            3068             381     27.5537E-03     30.6486E-03
            3050             381     27.5537E-03     30.6486E-03
            3032             382     31.1381E-03     34.3354E-03
            3050             382     31.1381E-03     34.3354E-03
            3014             383     30.3195E-03     31.0196E-03
            3032             383     30.3195E-03     31.0196E-03
            3014             384     23.3184E-03     25.3085E-03
            2996             384     23.3184E-03     25.3085E-03
            2978             385     19.7228E-03     21.8416E-03
            2996             385     19.7228E-03     21.8416E-03
            2978             386     18.3026E-03     20.1053E-03
            2960             386     18.3026E-03     20.1053E-03
            2960             387     17.7389E-03     19.3203E-03
            2942             387     17.7389E-03     19.3203E-03
            2924             388     17.4609E-03     18.9738E-03
            2942             388     17.4609E-03     18.9738E-03
            2906             389     17.7278E-03     18.7902E-03
            2924             389     17.7278E-03     18.7902E-03
            2906             390     17.9050E-03     19.3440E-03
            2888             390     17.9050E-03     19.3440E-03
            2870             391     18.7460E-03     19.4575E-03
            2888             391     18.7460E-03     19.4575E-03
            2870             392     19.6376E-03     21.3866E-03
            2852             392     19.6376E-03     21.3866E-03
            2834             393     21.4226E-03     23.9078E-03
            2852             393     21.4226E-03     23.9078E-03
            2816             394     19.4751E-03     21.1920E-03
            2834             394     19.4751E-03     21.1920E-03
            2816             395     14.9343E-03     16.4728E-03
            2798             395     14.9343E-03     16.4728E-03
            2780             396     13.1963E-03     13.8997E-03
            2798             396     13.1963E-03     13.8997E-03
            2762             397     12.1122E-03     12.9019E-03
            2780             397     12.1122E-03     12.9019E-03
            2744             398     11.8656E-03     12.2571E-03
            2762             398     11.8656E-03     12.2571E-03
            2726             399     11.6061E-03     11.9952E-03
            2744             399     11.6061E-03     11.9952E-03
            2726             400     11.7372E-03     11.7786E-03
            2708             400     11.7372E-03     11.7786E-03
            2690             401     11.7814E-03     12.0558E-03
            2708             401     11.7814E-03     12.0558E-03
            2672             402     12.1022E-03     12.0241E-03
            2690             402     12.1022E-03     12.0241E-03
            2654             403     12.6436E-03     13.0144E-03
            2672             403     12.6436E-03     13.0144E-03
            2636             404     12.6182E-03     14.6913E-03
            2654             404     12.6182E-03     14.6913E-03
            2636             405     9.62397E-03     12.7020E-03
            2618             405     9.62397E-03     12.7020E-03
            2618             406     7.42705E-03     8.97309E-03
            2600             406     7.42705E-03     8.97309E-03
            2582             407     7.52901E-03     6.85247E-03
            2600             407     7.52901E-03     6.85247E-03
            2582             408     6.84629E-03     6.45295E-03
            2564             408     6.84629E-03     6.45295E-03
            2546             409     6.83298E-03     6.04963E-03
            2564             409     6.83298E-03     6.04963E-03
            2528             410     7.08836E-03     6.28211E-03
            2546             410     7.08836E-03     6.28211E-03
            2510             411     6.15537E-03     7.76969E-03
            2528             411     6.15537E-03     7.76969E-03
            3357             440     166.272E-03     167.396E-03
            3375             440     166.272E-03     167.396E-03
            3339             441     162.629E-03     162.807E-03
            3357             441     162.629E-03     162.807E-03
            3321             442     157.540E-03     160.690E-03
            3339             442     157.540E-03     160.690E-03
            3303             443     153.912E-03     154.991E-03
            3321             443     153.912E-03     154.991E-03
            3285             444     148.860E-03     151.076E-03
            3303             444     148.860E-03     151.076E-03
            3267             445     144.674E-03     145.562E-03
            3285             445     144.674E-03     145.562E-03
            3249             446     139.159E-03     140.866E-03
            3267             446     139.159E-03     140.866E-03
            3231             447     133.246E-03     133.357E-03
            3249             447     133.246E-03     133.357E-03
            3231             448     126.104E-03     123.892E-03
            3213             448     126.104E-03     123.892E-03
            3195             449     126.041E-03     129.276E-03
            3213             449     126.041E-03     129.276E-03
            3195             450     130.953E-03     132.137E-03
            3177             450     130.953E-03     132.137E-03
            3159             451     127.294E-03     127.443E-03
            3177             451     127.294E-03     127.443E-03
            3141             452     122.497E-03     124.933E-03
            3159             452     122.497E-03     124.933E-03
            3123             453     118.854E-03     119.804E-03
            3141             453     118.854E-03     119.804E-03
            3105             454     114.435E-03     115.946E-03
            3123             454     114.435E-03     115.946E-03
            3087             455     110.437E-03     111.402E-03
            3105             455     110.437E-03     111.402E-03
            3087             456     105.870E-03     106.702E-03
            3069             456     105.870E-03     106.702E-03
            3069             457     101.185E-03     101.938E-03
            3051             457     101.185E-03     101.938E-03
            3051             458     95.5733E-03     95.6522E-03
            3033             458     95.5733E-03     95.6522E-03
            3015             459     89.2376E-03     87.1648E-03
            3033             459     89.2376E-03     87.1648E-03
            2997             460     89.4759E-03     91.8306E-03
            3015             460     89.4759E-03     91.8306E-03
            2979             461     93.4665E-03     94.7460E-03
            2997             461     93.4665E-03     94.7460E-03
            2961             462     89.7766E-03     89.8118E-03
            2979             462     89.7766E-03     89.8118E-03
            2943             463     85.1702E-03     86.9733E-03
            2961             463     85.1702E-03     86.9733E-03
            2943             464     81.6266E-03     82.2303E-03
            2925             464     81.6266E-03     82.2303E-03
            2925             465     77.4671E-03     78.5038E-03
            2907             465     77.4671E-03     78.5038E-03
            2889             466     73.7320E-03     74.2492E-03
            2907             466     73.7320E-03     74.2492E-03
            2889             467     69.4895E-03     69.9689E-03
            2871             467     69.4895E-03     69.9689E-03
            2853             468     65.2608E-03     65.4486E-03
            2871             468     65.2608E-03     65.4486E-03
            2853             469     60.1630E-03     60.0805E-03
            2835             469     60.1630E-03     60.0805E-03
            2817             470     54.4681E-03     52.7062E-03
            2835             470     54.4681E-03     52.7062E-03
            2817             471     55.0060E-03     56.6375E-03
            2799             471     55.0060E-03     56.6375E-03
            2781             472     58.2502E-03     59.6116E-03
            2799             472     58.2502E-03     59.6116E-03
            2763             473     54.6853E-03     54.5616E-03
            2781             473     54.6853E-03     54.5616E-03
            2745             474     50.3770E-03     51.5313E-03
            2763             474     50.3770E-03     51.5313E-03
            2745             475     47.0533E-03     47.2916E-03
            2727             475     47.0533E-03     47.2916E-03
            2709             476     43.2867E-03     43.8308E-03
            2727             476     43.2867E-03     43.8308E-03
            2709             477     39.9651E-03     40.0265E-03
            2691             477     39.9651E-03     40.0265E-03
            2691             478     36.2608E-03     36.3502E-03
            2673             478     36.2608E-03     36.3502E-03
            2655             479     32.7181E-03     32.3410E-03
            2673             479     32.7181E-03     32.3410E-03
            2637             480     28.5801E-03     28.1669E-03
            2655             480     28.5801E-03     28.1669E-03
            2619             481     23.7849E-03     22.7998E-03
            2637             481     23.7849E-03     22.7998E-03
            2601             482     23.1012E-03     24.5468E-03
            2619             482     23.1012E-03     24.5468E-03
            2601             483     24.1871E-03     25.5375E-03
            2583             483     24.1871E-03     25.5375E-03
            2583             484     21.1165E-03     20.5554E-03
            2565             484     21.1165E-03     20.5554E-03
            2565             485     17.5478E-03     17.7443E-03
            2547             485     17.5478E-03     17.7443E-03
            2547             486     15.1414E-03     14.5428E-03
            2529             486     15.1414E-03     14.5428E-03
            2511             487     13.0486E-03     12.3235E-03
            2529             487     13.0486E-03     12.3235E-03
            2493             488     11.1779E-03     12.1771E-03
            2511             488     11.1779E-03     12.1771E-03
            2403             520     190.315E-03     197.278E-03
            2385             520     190.315E-03     197.278E-03
            2421             521     219.843E-03     224.278E-03
            2403             521     219.843E-03     224.278E-03
            2421             522     237.054E-03     239.763E-03
            2439             522     237.054E-03     239.763E-03
            2457             523     253.985E-03     255.593E-03
            2439             523     253.985E-03     255.593E-03
            2457             524     267.719E-03     267.606E-03
            2475             524     267.719E-03     267.606E-03
            3375             531     161.158E-03     165.593E-03
            2386             531     161.158E-03     165.593E-03
            2385             531     161.158E-03     165.593E-03
            3376             531     161.158E-03     165.593E-03
            3376             532     149.014E-03     151.578E-03
            2387             532     149.014E-03     151.578E-03
            2386             532     149.014E-03     151.578E-03
            3377             532     149.014E-03     151.578E-03
            2388             533     140.705E-03     142.992E-03
            3377             533     140.705E-03     142.992E-03
            2387             533     140.705E-03     142.992E-03
            3378             533     140.705E-03     142.992E-03
            2388             534     133.148E-03     135.612E-03
            3378             534     133.148E-03     135.612E-03
            2389             534     133.148E-03     135.612E-03
            3379             534     133.148E-03     135.612E-03
            2389             535     126.351E-03     128.952E-03
            2390             535     126.351E-03     128.952E-03
            3379             535     126.351E-03     128.952E-03
            3380             535     126.351E-03     128.952E-03
            2391             536     119.808E-03     122.648E-03
            2390             536     119.808E-03     122.648E-03
            3381             536     119.808E-03     122.648E-03
            3380             536     119.808E-03     122.648E-03
            3382             537     113.566E-03     116.536E-03
            2391             537     113.566E-03     116.536E-03
            2392             537     113.566E-03     116.536E-03
            3381             537     113.566E-03     116.536E-03
            3383             538     107.446E-03     110.553E-03
            2393             538     107.446E-03     110.553E-03
            2392             538     107.446E-03     110.553E-03
            3382             538     107.446E-03     110.553E-03
            2394             539     101.493E-03     104.657E-03
            2393             539     101.493E-03     104.657E-03
            3383             539     101.493E-03     104.657E-03
            3384             539     101.493E-03     104.657E-03
            3384             540     95.6485E-03     98.8528E-03
            2394             540     95.6485E-03     98.8528E-03
            3385             540     95.6485E-03     98.8528E-03
            2395             540     95.6485E-03     98.8528E-03
            3385             541     89.9650E-03     93.1512E-03
            3386             541     89.9650E-03     93.1512E-03
            2396             541     89.9650E-03     93.1512E-03
            2395             541     89.9650E-03     93.1512E-03
            3387             542     84.4507E-03     87.5852E-03
            2396             542     84.4507E-03     87.5852E-03
            3386             542     84.4507E-03     87.5852E-03
            2397             542     84.4507E-03     87.5852E-03
            2398             543     79.1840E-03     82.2036E-03
            3387             543     79.1840E-03     82.2036E-03
            3388             543     79.1840E-03     82.2036E-03
            2397             543     79.1840E-03     82.2036E-03
            3388             544     74.2530E-03     77.0886E-03
            2398             544     74.2530E-03     77.0886E-03
            3389             544     74.2530E-03     77.0886E-03
            2399             544     74.2530E-03     77.0886E-03
            3389             545     69.8233E-03     72.3724E-03
            3390             545     69.8233E-03     72.3724E-03
            2400             545     69.8233E-03     72.3724E-03
            2399             545     69.8233E-03     72.3724E-03
            3391             546     66.2070E-03     68.3273E-03
            3390             546     66.2070E-03     68.3273E-03
            2401             546     66.2070E-03     68.3273E-03
            2400             546     66.2070E-03     68.3273E-03
            2401             547     64.6935E-03     66.0490E-03
            3392             547     64.6935E-03     66.0490E-03
            2402             547     64.6935E-03     66.0490E-03
            3391             547     64.6935E-03     66.0490E-03
            2420             548     123.533E-03     121.521E-03
            2402             548     123.533E-03     121.521E-03
            2438             549     147.666E-03     149.280E-03
            2420             549     147.666E-03     149.280E-03
            2456             550     128.075E-03     121.479E-03
            2438             550     128.075E-03     121.479E-03
            2456             551     122.178E-03     112.425E-03
            2474             551     122.178E-03     112.425E-03
            2474             552     131.288E-03     126.399E-03
            2492             552     131.288E-03     126.399E-03
            2491             553     85.8872E-03     81.8633E-03
            5192             553     85.8872E-03     81.8633E-03
            5191             553     85.8872E-03     81.8633E-03
            2492             553     85.8872E-03     81.8633E-03
            2491             554     84.5106E-03     86.6175E-03
            2490             554     84.5106E-03     86.6175E-03
            5190             554     84.5106E-03     86.6175E-03
            5191             554     84.5106E-03     86.6175E-03
            5189             555     88.6588E-03     94.1037E-03
            2490             555     88.6588E-03     94.1037E-03
            2489             555     88.6588E-03     94.1037E-03
            5190             555     88.6588E-03     94.1037E-03
            2488             556     95.8215E-03     103.308E-03
            5189             556     95.8215E-03     103.308E-03
            5188             556     95.8215E-03     103.308E-03
            2489             556     95.8215E-03     103.308E-03
            2487             557     102.477E-03     110.769E-03
            5188             557     102.477E-03     110.769E-03
            5187             557     102.477E-03     110.769E-03
            2488             557     102.477E-03     110.769E-03
            2487             558     109.705E-03     118.303E-03
            2486             558     109.705E-03     118.303E-03
            5187             558     109.705E-03     118.303E-03
            5186             558     109.705E-03     118.303E-03
            5186             559     117.224E-03     125.989E-03
            2486             559     117.224E-03     125.989E-03
            2485             559     117.224E-03     125.989E-03
            5185             559     117.224E-03     125.989E-03
            5185             560     125.177E-03     133.970E-03
            5184             560     125.177E-03     133.970E-03
            2485             560     125.177E-03     133.970E-03
            2484             560     125.177E-03     133.970E-03
            2483             561     133.508E-03     142.186E-03
            2484             561     133.508E-03     142.186E-03
            5183             561     133.508E-03     142.186E-03
            5184             561     133.508E-03     142.186E-03
            2482             562     142.226E-03     150.697E-03
            2483             562     142.226E-03     150.697E-03
            5183             562     142.226E-03     150.697E-03
            5182             562     142.226E-03     150.697E-03
            2482             563     151.273E-03     159.385E-03
            5182             563     151.273E-03     159.385E-03
            2481             563     151.273E-03     159.385E-03
            5181             563     151.273E-03     159.385E-03
            2480             564     160.737E-03     168.400E-03
            5180             564     160.737E-03     168.400E-03
            5181             564     160.737E-03     168.400E-03
            2481             564     160.737E-03     168.400E-03
            2480             565     170.550E-03     177.618E-03
            5179             565     170.550E-03     177.618E-03
            2479             565     170.550E-03     177.618E-03
            5180             565     170.550E-03     177.618E-03
            2479             566     181.068E-03     187.336E-03
            5179             566     181.068E-03     187.336E-03
            2478             566     181.068E-03     187.336E-03
            5178             566     181.068E-03     187.336E-03
            2477             567     192.279E-03     197.695E-03
            2478             567     192.279E-03     197.695E-03
            5177             567     192.279E-03     197.695E-03
            5178             567     192.279E-03     197.695E-03
            2477             568     205.509E-03     209.877E-03
            2476             568     205.509E-03     209.877E-03
            5177             568     205.509E-03     209.877E-03
            5176             568     205.509E-03     209.877E-03
            2476             569     224.293E-03     230.278E-03
            5175             569     224.293E-03     230.278E-03
            2475             569     224.293E-03     230.278E-03
            5176             569     224.293E-03     230.278E-03
            5264             604     30.2636E-03     34.6487E-03
            5282             604     30.2636E-03     34.6487E-03
            5264             605     30.5044E-03     27.3917E-03
            5246             605     30.5044E-03     27.3917E-03
            5246             606     27.0617E-03     22.6731E-03
            5228             606     27.0617E-03     22.6731E-03
            5210             607     26.7122E-03     21.2455E-03
            5228             607     26.7122E-03     21.2455E-03
            5210             608     29.4382E-03     23.8892E-03
            5192             608     29.4382E-03     23.8892E-03
            5265             625     166.330E-03     165.388E-03
            5247             625     166.330E-03     165.388E-03
            5247             626     177.391E-03     177.125E-03
            5229             626     177.391E-03     177.125E-03
            5229             627     185.551E-03     190.242E-03
            5211             627     185.551E-03     190.242E-03
            5193             628     195.348E-03     194.595E-03
            5211             628     195.348E-03     194.595E-03
            5175             629     201.715E-03     203.391E-03
            5193             629     201.715E-03     203.391E-03
            4365             636     164.700E-03     171.059E-03
            4347             636     164.700E-03     171.059E-03
            4365             637     172.522E-03     173.653E-03
            4383             637     172.522E-03     173.653E-03
            4401             638     167.363E-03     167.091E-03
            4383             638     167.363E-03     167.091E-03
            4401             639     160.692E-03     163.543E-03
            4419             639     160.692E-03     163.543E-03
            4419             640     155.681E-03     156.643E-03
            4437             640     155.681E-03     156.643E-03
            4437             641     149.693E-03     151.458E-03
            4455             641     149.693E-03     151.458E-03
            4455             642     144.173E-03     145.342E-03
            4473             642     144.173E-03     145.342E-03
            4491             643     137.912E-03     138.916E-03
            4473             643     137.912E-03     138.916E-03
            4509             644     131.236E-03     132.397E-03
            4491             644     131.236E-03     132.397E-03
            4509             645     123.323E-03     123.429E-03
            4527             645     123.323E-03     123.429E-03
            4545             646     114.602E-03     112.291E-03
            4527             646     114.602E-03     112.291E-03
            4545             647     116.372E-03     119.912E-03
            4563             647     116.372E-03     119.912E-03
            4563             648     123.117E-03     124.428E-03
            4581             648     123.117E-03     124.428E-03
            4599             649     117.758E-03     117.482E-03
            4581             649     117.758E-03     117.482E-03
            4617             650     111.229E-03     113.394E-03
            4599             650     111.229E-03     113.394E-03
            4635             651     106.279E-03     106.878E-03
            4617             651     106.279E-03     106.878E-03
            4635             652     100.548E-03     101.879E-03
            4653             652     100.548E-03     101.879E-03
            4671             653     95.5185E-03     96.1389E-03
            4653             653     95.5185E-03     96.1389E-03
            4671             654     89.7636E-03     90.6149E-03
            4689             654     89.7636E-03     90.6149E-03
            4689             655     84.1012E-03     84.4581E-03
            4707             655     84.1012E-03     84.4581E-03
            4707             656     77.8329E-03     78.3309E-03
            4725             656     77.8329E-03     78.3309E-03
            4743             657     70.5812E-03     70.5435E-03
            4725             657     70.5812E-03     70.5435E-03
            4743             658     62.7360E-03     60.7411E-03
            4761             658     62.7360E-03     60.7411E-03
            4761             659     65.1851E-03     67.1756E-03
            4779             659     65.1851E-03     67.1756E-03
            4779             660     70.5711E-03     71.9880E-03
            4797             660     70.5711E-03     71.9880E-03
            4797             661     64.8718E-03     64.5947E-03
            4815             661     64.8718E-03     64.5947E-03
            4815             662     58.4165E-03     59.7349E-03
            4833             662     58.4165E-03     59.7349E-03
            4851             663     53.3627E-03     53.5804E-03
            4833             663     53.3627E-03     53.5804E-03
            4869             664     47.8335E-03     48.4906E-03
            4851             664     47.8335E-03     48.4906E-03
            4869             665     42.8243E-03     42.9323E-03
            4887             665     42.8243E-03     42.9323E-03
            4887             666     37.2393E-03     37.4719E-03
            4905             666     37.2393E-03     37.4719E-03
            4905             667     31.6965E-03     31.4286E-03
            4923             667     31.6965E-03     31.4286E-03
            4923             668     24.9970E-03     24.9330E-03
            4941             668     24.9970E-03     24.9330E-03
            4941             669     17.9524E-03     16.5833E-03
            4959             669     17.9524E-03     16.5833E-03
            4977             670     19.4581E-03     20.3478E-03
            4959             670     19.4581E-03     20.3478E-03
            4977             671     21.5419E-03     23.1190E-03
            4995             671     21.5419E-03     23.1190E-03
            4995             672     14.7003E-03     14.0375E-03
            5013             672     14.7003E-03     14.0375E-03
            5031             673     6.53361E-03     7.24473E-03
            5013             673     6.53361E-03     7.24473E-03
            5049             674     3.31261E-03     5.83151E-03
            5031             674     3.31261E-03     5.83151E-03
            5266             675     155.564E-03     156.552E-03
            4347             675     155.564E-03     156.552E-03
            4348             675     155.564E-03     156.552E-03
            5265             675     155.564E-03     156.552E-03
            5266             676     149.048E-03     148.963E-03
            5267             676     149.048E-03     148.963E-03
            4348             676     149.048E-03     148.963E-03
            4349             676     149.048E-03     148.963E-03
            4349             677     141.369E-03     141.359E-03
            4350             677     141.369E-03     141.359E-03
            5268             677     141.369E-03     141.359E-03
            5267             677     141.369E-03     141.359E-03
            4351             678     132.468E-03     132.716E-03
            5269             678     132.468E-03     132.716E-03
            4350             678     132.468E-03     132.716E-03
            5268             678     132.468E-03     132.716E-03
            5270             679     123.194E-03     123.496E-03
            4351             679     123.194E-03     123.496E-03
            4352             679     123.194E-03     123.496E-03
            5269             679     123.194E-03     123.496E-03
            4353             680     113.498E-03     113.847E-03
            5271             680     113.498E-03     113.847E-03
            5270             680     113.498E-03     113.847E-03
            4352             680     113.498E-03     113.847E-03
            5272             681     103.674E-03     103.994E-03
            5271             681     103.674E-03     103.994E-03
            4353             681     103.674E-03     103.994E-03
            4354             681     103.674E-03     103.994E-03
            4354             682     93.7651E-03     94.0750E-03
            5273             682     93.7651E-03     94.0750E-03
            5272             682     93.7651E-03     94.0750E-03
            4355             682     93.7651E-03     94.0750E-03
            4355             683     83.8484E-03     84.1037E-03
            5273             683     83.8484E-03     84.1037E-03
            5274             683     83.8484E-03     84.1037E-03
            4356             683     83.8484E-03     84.1037E-03
            5275             684     73.9818E-03     74.2323E-03
            5274             684     73.9818E-03     74.2323E-03
            4356             684     73.9818E-03     74.2323E-03
            4357             684     73.9818E-03     74.2323E-03
            5276             685     64.2216E-03     64.4552E-03
            5275             685     64.2216E-03     64.4552E-03
            4358             685     64.2216E-03     64.4552E-03
            4357             685     64.2216E-03     64.4552E-03
            4358             686     54.6674E-03     54.9447E-03
            5277             686     54.6674E-03     54.9447E-03
            4359             686     54.6674E-03     54.9447E-03
            5276             686     54.6674E-03     54.9447E-03
            4360             687     45.3718E-03     45.7072E-03
            5278             687     45.3718E-03     45.7072E-03
            5277             687     45.3718E-03     45.7072E-03
            4359             687     45.3718E-03     45.7072E-03
            5278             688     36.5170E-03     37.0170E-03
            4360             688     36.5170E-03     37.0170E-03
            5279             688     36.5170E-03     37.0170E-03
            4361             688     36.5170E-03     37.0170E-03
            5279             689     28.2020E-03     28.9147E-03
            5280             689     28.2020E-03     28.9147E-03
            4362             689     28.2020E-03     28.9147E-03
            4361             689     28.2020E-03     28.9147E-03
            4362             690     21.8123E-03     22.3987E-03
            5280             690     21.8123E-03     22.3987E-03
            5281             690     21.8123E-03     22.3987E-03
            4363             690     21.8123E-03     22.3987E-03
            5281             691     19.7074E-03     21.9948E-03
            5282             691     19.7074E-03     21.9948E-03
            4364             691     19.7074E-03     21.9948E-03
            4363             691     19.7074E-03     21.9948E-03
            4382             692     15.1853E-03     14.6970E-03
            4364             692     15.1853E-03     14.6970E-03
            4400             693     17.7799E-03     15.6284E-03
            4382             693     17.7799E-03     15.6284E-03
            4418             694     16.2492E-03     12.0616E-03
            4400             694     16.2492E-03     12.0616E-03
            4436             695     15.0085E-03     11.4973E-03
            4418             695     15.0085E-03     11.4973E-03
            4436             696     15.8239E-03     12.0921E-03
            4454             696     15.8239E-03     12.0921E-03
            4472             697     17.2049E-03     14.2157E-03
            4454             697     17.2049E-03     14.2157E-03
            4490             698     19.4010E-03     16.6445E-03
            4472             698     19.4010E-03     16.6445E-03
            4508             699     22.0618E-03     20.1146E-03
            4490             699     22.0618E-03     20.1146E-03
            4526             700     24.6985E-03     23.3172E-03
            4508             700     24.6985E-03     23.3172E-03
            4544             701     28.6947E-03     27.7730E-03
            4526             701     28.6947E-03     27.7730E-03
            4562             702     28.4337E-03     33.9981E-03
            4544             702     28.4337E-03     33.9981E-03
            4580             703     20.2305E-03     25.2306E-03
            4562             703     20.2305E-03     25.2306E-03
            4598             704     14.3771E-03     12.1184E-03
            4580             704     14.3771E-03     12.1184E-03
            4598             705     12.9290E-03     10.2741E-03
            4616             705     12.9290E-03     10.2741E-03
            4616             706     12.6350E-03     10.2812E-03
            4634             706     12.6350E-03     10.2812E-03
            4652             707     13.3056E-03     11.0451E-03
            4634             707     13.3056E-03     11.0451E-03
            4670             708     14.3577E-03     12.3084E-03
            4652             708     14.3577E-03     12.3084E-03
            4670             709     15.6980E-03     13.9666E-03
            4688             709     15.6980E-03     13.9666E-03
            4688             710     17.2300E-03     15.6362E-03
            4706             710     17.2300E-03     15.6362E-03
            4724             711     18.9787E-03     17.8927E-03
            4706             711     18.9787E-03     17.8927E-03
            4742             712     20.6520E-03     19.8601E-03
            4724             712     20.6520E-03     19.8601E-03
            4742             713     23.2054E-03     22.8850E-03
            4760             713     23.2054E-03     22.8850E-03
            4778             714     23.0244E-03     27.1912E-03
            4760             714     23.0244E-03     27.1912E-03
            4778             715     17.3445E-03     20.1938E-03
            4796             715     17.3445E-03     20.1938E-03
            4796             716     12.3250E-03     11.1289E-03
            4814             716     12.3250E-03     11.1289E-03
            4814             717     11.2857E-03     10.2075E-03
            4832             717     11.2857E-03     10.2075E-03
            4832             718     11.5073E-03     10.2037E-03
            4850             718     11.5073E-03     10.2037E-03
            4850             719     12.0116E-03     10.7716E-03
            4868             719     12.0116E-03     10.7716E-03
            4868             720     12.7091E-03     11.5497E-03
            4886             720     12.7091E-03     11.5497E-03
            4904             721     13.5119E-03     12.3899E-03
            4886             721     13.5119E-03     12.3899E-03
            4904             722     14.4062E-03     13.6201E-03
            4922             722     14.4062E-03     13.6201E-03
            4940             723     15.2964E-03     14.6347E-03
            4922             723     15.2964E-03     14.6347E-03
            4958             724     16.5964E-03     16.4813E-03
            4940             724     16.5964E-03     16.4813E-03
            4958             725     16.7861E-03     19.0878E-03
            4976             725     16.7861E-03     19.0878E-03
            4976             726     13.8238E-03     15.2854E-03
            4994             726     13.8238E-03     15.2854E-03
            4994             727     11.0862E-03     10.7418E-03
            5012             727     11.0862E-03     10.7418E-03
            5012             728     10.9137E-03     9.65903E-03
            5030             728     10.9137E-03     9.65903E-03
            5030             729     11.1561E-03     9.92297E-03
            5048             729     11.1561E-03     9.92297E-03
            5066             730     11.2380E-03     11.5033E-03
            5048             730     11.2380E-03     11.5033E-03
            5066             731     6.13475E-03     6.33397E-03
            5065             731     6.13475E-03     6.33397E-03
            5755             731     6.13475E-03     6.33397E-03
            5756             731     6.13475E-03     6.33397E-03
            5754             732     6.66275E-03     6.65978E-03
            5065             732     6.66275E-03     6.65978E-03
            5064             732     6.66275E-03     6.65978E-03
            5755             732     6.66275E-03     6.65978E-03
            5063             733     6.90401E-03     6.77445E-03
            5064             733     6.90401E-03     6.77445E-03
            5753             733     6.90401E-03     6.77445E-03
            5754             733     6.90401E-03     6.77445E-03
            5753             734     7.10571E-03     6.93490E-03
            5063             734     7.10571E-03     6.93490E-03
            5062             734     7.10571E-03     6.93490E-03
            5752             734     7.10571E-03     6.93490E-03
            5061             735     7.23441E-03     6.99647E-03
            5751             735     7.23441E-03     6.99647E-03
            5752             735     7.23441E-03     6.99647E-03
            5062             735     7.23441E-03     6.99647E-03
            5060             736     7.35086E-03     7.04250E-03
            5751             736     7.35086E-03     7.04250E-03
            5750             736     7.35086E-03     7.04250E-03
            5061             736     7.35086E-03     7.04250E-03
            5749             737     7.46548E-03     7.09112E-03
            5059             737     7.46548E-03     7.09112E-03
            5060             737     7.46548E-03     7.09112E-03
            5750             737     7.46548E-03     7.09112E-03
            5748             738     7.58332E-03     7.13959E-03
            5749             738     7.58332E-03     7.13959E-03
            5058             738     7.58332E-03     7.13959E-03
            5059             738     7.58332E-03     7.13959E-03
            5747             739     7.70574E-03     7.20313E-03
            5748             739     7.70574E-03     7.20313E-03
            5058             739     7.70574E-03     7.20313E-03
            5057             739     7.70574E-03     7.20313E-03
            5747             740     7.83251E-03     7.26140E-03
            5056             740     7.83251E-03     7.26140E-03
            5057             740     7.83251E-03     7.26140E-03
            5746             740     7.83251E-03     7.26140E-03
            5746             741     7.95749E-03     7.33329E-03
            5745             741     7.95749E-03     7.33329E-03
            5055             741     7.95749E-03     7.33329E-03
            5056             741     7.95749E-03     7.33329E-03
            5744             742     8.06494E-03     7.37008E-03
            5055             742     8.06494E-03     7.37008E-03
            5054             742     8.06494E-03     7.37008E-03
            5745             742     8.06494E-03     7.37008E-03
            5053             743     8.12518E-03     7.36834E-03
            5743             743     8.12518E-03     7.36834E-03
            5054             743     8.12518E-03     7.36834E-03
            5744             743     8.12518E-03     7.36834E-03
            5053             744     8.03458E-03     7.22350E-03
            5052             744     8.03458E-03     7.22350E-03
            5742             744     8.03458E-03     7.22350E-03
            5743             744     8.03458E-03     7.22350E-03
            5741             745     7.45630E-03     6.59088E-03
            5742             745     7.45630E-03     6.59088E-03
            5051             745     7.45630E-03     6.59088E-03
            5052             745     7.45630E-03     6.59088E-03
            5050             746     6.43929E-03     5.40194E-03
            5051             746     6.43929E-03     5.40194E-03
            5741             746     6.43929E-03     5.40194E-03
            5740             746     6.43929E-03     5.40194E-03
            5739             747     4.09318E-03     4.54702E-03
            5049             747     4.09318E-03     4.54702E-03
            5740             747     4.09318E-03     4.54702E-03
            5050             747     4.09318E-03     4.54702E-03
            5846             787     290.143E-06     312.655E-06
            5828             787     290.143E-06     312.655E-06
            5810             788     305.308E-06     279.228E-06
            5828             788     305.308E-06     279.228E-06
            5792             789     293.707E-06     258.452E-06
            5810             789     293.707E-06     258.452E-06
            5774             790     286.352E-06     258.619E-06
            5792             790     286.352E-06     258.619E-06
            5774             791     254.996E-06     269.744E-06
            5756             791     254.996E-06     269.744E-06
            5846             808     284.429E-06     317.194E-06
            5845             808     284.429E-06     317.194E-06
            5844             809     304.738E-06     303.698E-06
            5845             809     304.738E-06     303.698E-06
            5843             810     310.642E-06     300.804E-06
            5844             810     310.642E-06     300.804E-06
            5842             811     315.566E-06     301.527E-06
            5843             811     315.566E-06     301.527E-06
            5841             812     320.426E-06     302.338E-06
            5842             812     320.426E-06     302.338E-06
            5840             813     325.100E-06     304.446E-06
            5841             813     325.100E-06     304.446E-06
            5840             814     330.098E-06     306.332E-06
            5839             814     330.098E-06     306.332E-06
            5838             815     335.491E-06     309.228E-06
            5839             815     335.491E-06     309.228E-06
            5838             816     340.329E-06     311.607E-06
            5837             816     340.329E-06     311.607E-06
            5836             817     345.677E-06     314.653E-06
            5837             817     345.677E-06     314.653E-06
            5835             818     348.597E-06     315.617E-06
            5836             818     348.597E-06     315.617E-06
            5834             819     351.126E-06     315.333E-06
            5835             819     351.126E-06     315.333E-06
            5834             820     345.131E-06     308.487E-06
            5833             820     345.131E-06     308.487E-06
            5832             821     332.530E-06     291.313E-06
            5833             821     332.530E-06     291.313E-06
            5831             822     294.836E-06     251.946E-06
            5832             822     294.836E-06     251.946E-06
            5830             823     235.216E-06     185.307E-06
            5831             823     235.216E-06     185.307E-06
            5829             824     161.242E-06     181.783E-06
            5830             824     161.242E-06     181.783E-06
             786            1467     264.008E-06     266.891E-06
             804            1467     264.008E-06     266.891E-06
             785            1467     264.008E-06     266.891E-06
             803            1467     264.008E-06     266.891E-06
             804            1468     261.364E-06     269.868E-06
             787            1468     261.364E-06     269.868E-06
             805            1468     261.364E-06     269.868E-06
             786            1468     261.364E-06     269.868E-06
             788            1469     259.799E-06     270.860E-06
             806            1469     259.799E-06     270.860E-06
             805            1469     259.799E-06     270.860E-06
             787            1469     259.799E-06     270.860E-06
             788            1470     258.975E-06     272.583E-06
             806            1470     258.975E-06     272.583E-06
             807            1470     258.975E-06     272.583E-06
             789            1470     258.975E-06     272.583E-06
             790            1471     258.718E-06     274.834E-06
             789            1471     258.718E-06     274.834E-06
             808            1471     258.718E-06     274.834E-06
             807            1471     258.718E-06     274.834E-06
             808            1472     258.916E-06     277.335E-06
             790            1472     258.916E-06     277.335E-06
             809            1472     258.916E-06     277.335E-06
             791            1472     258.916E-06     277.335E-06
             792            1473     259.408E-06     280.038E-06
             791            1473     259.408E-06     280.038E-06
             809            1473     259.408E-06     280.038E-06
             810            1473     259.408E-06     280.038E-06
             811            1474     260.358E-06     283.046E-06
             792            1474     260.358E-06     283.046E-06
             810            1474     260.358E-06     283.046E-06
             793            1474     260.358E-06     283.046E-06
             794            1475     261.517E-06     286.101E-06
             812            1475     261.517E-06     286.101E-06
             793            1475     261.517E-06     286.101E-06
             811            1475     261.517E-06     286.101E-06
             813            1476     263.362E-06     289.653E-06
             794            1476     263.362E-06     289.653E-06
             795            1476     263.362E-06     289.653E-06
             812            1476     263.362E-06     289.653E-06
             796            1477     265.160E-06     293.078E-06
             813            1477     265.160E-06     293.078E-06
             814            1477     265.160E-06     293.078E-06
             795            1477     265.160E-06     293.078E-06
             797            1478     268.363E-06     297.443E-06
             814            1478     268.363E-06     297.443E-06
             815            1478     268.363E-06     297.443E-06
             796            1478     268.363E-06     297.443E-06
             815            1479     270.926E-06     301.531E-06
             797            1479     270.926E-06     301.531E-06
             816            1479     270.926E-06     301.531E-06
             798            1479     270.926E-06     301.531E-06
             799            1480     277.396E-06     307.628E-06
             816            1480     277.396E-06     307.628E-06
             817            1480     277.396E-06     307.628E-06
             798            1480     277.396E-06     307.628E-06
             818            1481     280.035E-06     311.667E-06
             817            1481     280.035E-06     311.667E-06
             800            1481     280.035E-06     311.667E-06
             799            1481     280.035E-06     311.667E-06
             800            1482     279.324E-06     315.912E-06
             801            1482     279.324E-06     315.912E-06
             818            1482     279.324E-06     315.912E-06
             819            1482     279.324E-06     315.912E-06
             819            1483     301.024E-06     337.510E-06
             801            1483     301.024E-06     337.510E-06
             820            1483     301.024E-06     337.510E-06
             802            1483     301.024E-06     337.510E-06
             804            1484     282.360E-06     261.689E-06
             822            1484     282.360E-06     261.689E-06
             821            1484     282.360E-06     261.689E-06
             803            1484     282.360E-06     261.689E-06
             805            1485     265.174E-06     272.345E-06
             804            1485     265.174E-06     272.345E-06
             823            1485     265.174E-06     272.345E-06
             822            1485     265.174E-06     272.345E-06
             823            1486     264.298E-06     269.208E-06
             824            1486     264.298E-06     269.208E-06
             805            1486     264.298E-06     269.208E-06
             806            1486     264.298E-06     269.208E-06
             806            1487     266.050E-06     268.526E-06
             807            1487     266.050E-06     268.526E-06
             824            1487     266.050E-06     268.526E-06
             825            1487     266.050E-06     268.526E-06
             825            1488     266.477E-06     270.568E-06
             826            1488     266.477E-06     270.568E-06
             807            1488     266.477E-06     270.568E-06
             808            1488     266.477E-06     270.568E-06
             809            1489     268.130E-06     271.831E-06
             827            1489     268.130E-06     271.831E-06
             808            1489     268.130E-06     271.831E-06
             826            1489     268.130E-06     271.831E-06
             827            1490     269.900E-06     273.670E-06
             828            1490     269.900E-06     273.670E-06
             809            1490     269.900E-06     273.670E-06
             810            1490     269.900E-06     273.670E-06
             810            1491     271.796E-06     275.685E-06
             829            1491     271.796E-06     275.685E-06
             828            1491     271.796E-06     275.685E-06
             811            1491     271.796E-06     275.685E-06
             830            1492     274.187E-06     278.059E-06
             811            1492     274.187E-06     278.059E-06
             829            1492     274.187E-06     278.059E-06
             812            1492     274.187E-06     278.059E-06
             831            1493     276.502E-06     280.446E-06
             830            1493     276.502E-06     280.446E-06
             813            1493     276.502E-06     280.446E-06
             812            1493     276.502E-06     280.446E-06
             813            1494     279.528E-06     283.485E-06
             832            1494     279.528E-06     283.485E-06
             814            1494     279.528E-06     283.485E-06
             831            1494     279.528E-06     283.485E-06
             815            1495     282.080E-06     286.121E-06
             833            1495     282.080E-06     286.121E-06
             832            1495     282.080E-06     286.121E-06
             814            1495     282.080E-06     286.121E-06
             815            1496     286.734E-06     290.197E-06
             816            1496     286.734E-06     290.197E-06
             834            1496     286.734E-06     290.197E-06
             833            1496     286.734E-06     290.197E-06
             835            1497     290.372E-06     295.773E-06
             816            1497     290.372E-06     295.773E-06
             834            1497     290.372E-06     295.773E-06
             817            1497     290.372E-06     295.773E-06
             835            1498     305.289E-06     305.071E-06
             817            1498     305.289E-06     305.071E-06
             818            1498     305.289E-06     305.071E-06
             836            1498     305.289E-06     305.071E-06
             837            1499     303.588E-06     309.056E-06
             836            1499     303.588E-06     309.056E-06
             819            1499     303.588E-06     309.056E-06
             818            1499     303.588E-06     309.056E-06
             819            1500     219.076E-06     231.065E-06
             838            1500     219.076E-06     231.065E-06
             837            1500     219.076E-06     231.065E-06
             820            1500     219.076E-06     231.065E-06
             821            1501     275.173E-06     275.245E-06
             839            1501     275.173E-06     275.245E-06
             840            1501     275.173E-06     275.245E-06
             822            1501     275.173E-06     275.245E-06
             840            1502     275.959E-06     273.601E-06
             822            1502     275.959E-06     273.601E-06
             841            1502     275.959E-06     273.601E-06
             823            1502     275.959E-06     273.601E-06
             842            1503     277.297E-06     271.937E-06
             841            1503     277.297E-06     271.937E-06
             824            1503     277.297E-06     271.937E-06
             823            1503     277.297E-06     271.937E-06
             842            1504     279.162E-06     271.247E-06
             824            1504     279.162E-06     271.247E-06
             843            1504     279.162E-06     271.247E-06
             825            1504     279.162E-06     271.247E-06
             844            1505     281.283E-06     271.086E-06
             826            1505     281.283E-06     271.086E-06
             825            1505     281.283E-06     271.086E-06
             843            1505     281.283E-06     271.086E-06
             844            1506     283.650E-06     271.346E-06
             826            1506     283.650E-06     271.346E-06
             827            1506     283.650E-06     271.346E-06
             845            1506     283.650E-06     271.346E-06
             846            1507     286.197E-06     271.875E-06
             845            1507     286.197E-06     271.875E-06
             828            1507     286.197E-06     271.875E-06
             827            1507     286.197E-06     271.875E-06
             829            1508     288.970E-06     272.739E-06
             846            1508     288.970E-06     272.739E-06
             847            1508     288.970E-06     272.739E-06
             828            1508     288.970E-06     272.739E-06
             829            1509     291.778E-06     273.830E-06
             847            1509     291.778E-06     273.830E-06
             848            1509     291.778E-06     273.830E-06
             830            1509     291.778E-06     273.830E-06
             830            1510     294.878E-06     275.269E-06
             831            1510     294.878E-06     275.269E-06
             849            1510     294.878E-06     275.269E-06
             848            1510     294.878E-06     275.269E-06
             849            1511     297.781E-06     276.739E-06
             850            1511     297.781E-06     276.739E-06
             832            1511     297.781E-06     276.739E-06
             831            1511     297.781E-06     276.739E-06
             833            1512     301.098E-06     278.672E-06
             850            1512     301.098E-06     278.672E-06
             851            1512     301.098E-06     278.672E-06
             832            1512     301.098E-06     278.672E-06
             834            1513     304.189E-06     280.342E-06
             852            1513     304.189E-06     280.342E-06
             851            1513     304.189E-06     280.342E-06
             833            1513     304.189E-06     280.342E-06
             853            1514     308.478E-06     283.565E-06
             852            1514     308.478E-06     283.565E-06
             834            1514     308.478E-06     283.565E-06
             835            1514     308.478E-06     283.565E-06
             835            1515     311.925E-06     284.519E-06
             854            1515     311.925E-06     284.519E-06
             853            1515     311.925E-06     284.519E-06
             836            1515     311.925E-06     284.519E-06
             836            1516     293.417E-06     266.337E-06
             854            1516     293.417E-06     266.337E-06
             855            1516     293.417E-06     266.337E-06
             837            1516     293.417E-06     266.337E-06
             837            1517     167.460E-06     194.862E-06
             855            1517     167.460E-06     194.862E-06
             838            1517     167.460E-06     194.862E-06
             856            1517     167.460E-06     194.862E-06
            2386            2866     191.836E-03     196.097E-03
            2403            2866     191.836E-03     196.097E-03
            2385            2866     191.836E-03     196.097E-03
            2404            2866     191.836E-03     196.097E-03
            2404            2867     193.995E-03     194.823E-03
            2386            2867     193.995E-03     194.823E-03
            2387            2867     193.995E-03     194.823E-03
            2405            2867     193.995E-03     194.823E-03
            2406            2868     192.791E-03     193.310E-03
            2387            2868     192.791E-03     193.310E-03
            2388            2868     192.791E-03     193.310E-03
            2405            2868     192.791E-03     193.310E-03
            2406            2869     189.618E-03     189.960E-03
            2389            2869     189.618E-03     189.960E-03
            2407            2869     189.618E-03     189.960E-03
            2388            2869     189.618E-03     189.960E-03
            2408            2870     185.671E-03     185.350E-03
            2390            2870     185.671E-03     185.350E-03
            2389            2870     185.671E-03     185.350E-03
            2407            2870     185.671E-03     185.350E-03
            2409            2871     180.914E-03     180.315E-03
            2391            2871     180.914E-03     180.315E-03
            2408            2871     180.914E-03     180.315E-03
            2390            2871     180.914E-03     180.315E-03
            2409            2872     176.171E-03     175.184E-03
            2410            2872     176.171E-03     175.184E-03
            2392            2872     176.171E-03     175.184E-03
            2391            2872     176.171E-03     175.184E-03
            2393            2873     171.242E-03     169.976E-03
            2410            2873     171.242E-03     169.976E-03
            2411            2873     171.242E-03     169.976E-03
            2392            2873     171.242E-03     169.976E-03
            2411            2874     166.469E-03     165.001E-03
            2393            2874     166.469E-03     165.001E-03
            2412            2874     166.469E-03     165.001E-03
            2394            2874     166.469E-03     165.001E-03
            2394            2875     161.776E-03     160.187E-03
            2413            2875     161.776E-03     160.187E-03
            2395            2875     161.776E-03     160.187E-03
            2412            2875     161.776E-03     160.187E-03
            2413            2876     157.334E-03     155.729E-03
            2396            2876     157.334E-03     155.729E-03
            2395            2876     157.334E-03     155.729E-03
            2414            2876     157.334E-03     155.729E-03
            2396            2877     153.063E-03     151.543E-03
            2414            2877     153.063E-03     151.543E-03
            2415            2877     153.063E-03     151.543E-03
            2397            2877     153.063E-03     151.543E-03
            2397            2878     148.963E-03     147.631E-03
            2415            2878     148.963E-03     147.631E-03
            2416            2878     148.963E-03     147.631E-03
            2398            2878     148.963E-03     147.631E-03
            2417            2879     144.856E-03     143.818E-03
            2398            2879     144.856E-03     143.818E-03
            2416            2879     144.856E-03     143.818E-03
            2399            2879     144.856E-03     143.818E-03
            2417            2880     139.693E-03     138.728E-03
            2399            2880     139.693E-03     138.728E-03
            2400            2880     139.693E-03     138.728E-03
            2418            2880     139.693E-03     138.728E-03
            2418            2881     134.497E-03     134.202E-03
            2400            2881     134.497E-03     134.202E-03
            2419            2881     134.497E-03     134.202E-03
            2401            2881     134.497E-03     134.202E-03
            2420            2882     127.957E-03     127.192E-03
            2402            2882     127.957E-03     127.192E-03
            2401            2882     127.957E-03     127.192E-03
            2419            2882     127.957E-03     127.192E-03
            2403            2883     223.304E-03     227.228E-03
            2404            2883     223.304E-03     227.228E-03
            2421            2883     223.304E-03     227.228E-03
            2422            2883     223.304E-03     227.228E-03
            2405            2884     228.729E-03     231.131E-03
            2422            2884     228.729E-03     231.131E-03
            2404            2884     228.729E-03     231.131E-03
            2423            2884     228.729E-03     231.131E-03
            2406            2885     230.632E-03     231.335E-03
            2405            2885     230.632E-03     231.335E-03
            2424            2885     230.632E-03     231.335E-03
            2423            2885     230.632E-03     231.335E-03
            2406            2886     228.947E-03     228.818E-03
            2424            2886     228.947E-03     228.818E-03
            2407            2886     228.947E-03     228.818E-03
            2425            2886     228.947E-03     228.818E-03
            2425            2887     225.497E-03     224.869E-03
            2407            2887     225.497E-03     224.869E-03
            2408            2887     225.497E-03     224.869E-03
            2426            2887     225.497E-03     224.869E-03
            2408            2888     221.625E-03     220.361E-03
            2427            2888     221.625E-03     220.361E-03
            2426            2888     221.625E-03     220.361E-03
            2409            2888     221.625E-03     220.361E-03
            2409            2889     217.409E-03     215.678E-03
            2427            2889     217.409E-03     215.678E-03
            2428            2889     217.409E-03     215.678E-03
            2410            2889     217.409E-03     215.678E-03
            2411            2890     213.152E-03     211.017E-03
            2410            2890     213.152E-03     211.017E-03
            2428            2890     213.152E-03     211.017E-03
            2429            2890     213.152E-03     211.017E-03
            2429            2891     208.975E-03     206.562E-03
            2430            2891     208.975E-03     206.562E-03
            2412            2891     208.975E-03     206.562E-03
            2411            2891     208.975E-03     206.562E-03
            2431            2892     204.966E-03     202.418E-03
            2413            2892     204.966E-03     202.418E-03
            2412            2892     204.966E-03     202.418E-03
            2430            2892     204.966E-03     202.418E-03
            2414            2893     201.222E-03     198.681E-03
            2413            2893     201.222E-03     198.681E-03
            2432            2893     201.222E-03     198.681E-03
            2431            2893     201.222E-03     198.681E-03
            2433            2894     197.805E-03     195.430E-03
            2432            2894     197.805E-03     195.430E-03
            2414            2894     197.805E-03     195.430E-03
            2415            2894     197.805E-03     195.430E-03
            2415            2895     194.515E-03     192.489E-03
            2416            2895     194.515E-03     192.489E-03
            2434            2895     194.515E-03     192.489E-03
            2433            2895     194.515E-03     192.489E-03
            2417            2896     191.606E-03     190.087E-03
            2416            2896     191.606E-03     190.087E-03
            2434            2896     191.606E-03     190.087E-03
            2435            2896     191.606E-03     190.087E-03
            2417            2897     186.634E-03     185.560E-03
            2418            2897     186.634E-03     185.560E-03
            2435            2897     186.634E-03     185.560E-03
            2436            2897     186.634E-03     185.560E-03
            2418            2898     179.887E-03     180.195E-03
            2419            2898     179.887E-03     180.195E-03
            2437            2898     179.887E-03     180.195E-03
            2436            2898     179.887E-03     180.195E-03
            2438            2899     162.283E-03     163.833E-03
            2419            2899     162.283E-03     163.833E-03
            2420            2899     162.283E-03     163.833E-03
            2437            2899     162.283E-03     163.833E-03
            2439            2900     238.610E-03     242.794E-03
            2422            2900     238.610E-03     242.794E-03
            2421            2900     238.610E-03     242.794E-03
            2440            2900     238.610E-03     242.794E-03
            2423            2901     238.718E-03     243.807E-03
            2422            2901     238.718E-03     243.807E-03
            2440            2901     238.718E-03     243.807E-03
            2441            2901     238.718E-03     243.807E-03
            2424            2902     234.574E-03     238.216E-03
            2441            2902     234.574E-03     238.216E-03
            2423            2902     234.574E-03     238.216E-03
            2442            2902     234.574E-03     238.216E-03
            2424            2903     228.650E-03     231.664E-03
            2443            2903     228.650E-03     231.664E-03
            2442            2903     228.650E-03     231.664E-03
            2425            2903     228.650E-03     231.664E-03
            2426            2904     222.680E-03     225.664E-03
            2444            2904     222.680E-03     225.664E-03
            2443            2904     222.680E-03     225.664E-03
            2425            2904     222.680E-03     225.664E-03
            2444            2905     217.062E-03     219.738E-03
            2427            2905     217.062E-03     219.738E-03
            2445            2905     217.062E-03     219.738E-03
            2426            2905     217.062E-03     219.738E-03
            2428            2906     211.629E-03     214.166E-03
            2445            2906     211.629E-03     214.166E-03
            2446            2906     211.629E-03     214.166E-03
            2427            2906     211.629E-03     214.166E-03
            2446            2907     206.534E-03     208.919E-03
            2429            2907     206.534E-03     208.919E-03
            2447            2907     206.534E-03     208.919E-03
            2428            2907     206.534E-03     208.919E-03
            2430            2908     201.728E-03     204.009E-03
            2448            2908     201.728E-03     204.009E-03
            2447            2908     201.728E-03     204.009E-03
            2429            2908     201.728E-03     204.009E-03
            2431            2909     197.324E-03     199.532E-03
            2448            2909     197.324E-03     199.532E-03
            2430            2909     197.324E-03     199.532E-03
            2449            2909     197.324E-03     199.532E-03
            2450            2910     193.346E-03     195.531E-03
            2449            2910     193.346E-03     195.531E-03
            2432            2910     193.346E-03     195.531E-03
            2431            2910     193.346E-03     195.531E-03
            2451            2911     189.945E-03     192.120E-03
            2433            2911     189.945E-03     192.120E-03
            2432            2911     189.945E-03     192.120E-03
            2450            2911     189.945E-03     192.120E-03
            2433            2912     187.313E-03     189.555E-03
            2452            2912     187.313E-03     189.555E-03
            2451            2912     187.313E-03     189.555E-03
            2434            2912     187.313E-03     189.555E-03
            2434            2913     185.315E-03     187.671E-03
            2453            2913     185.315E-03     187.671E-03
            2452            2913     185.315E-03     187.671E-03
            2435            2913     185.315E-03     187.671E-03
            2454            2914     183.440E-03     186.583E-03
            2436            2914     183.440E-03     186.583E-03
            2435            2914     183.440E-03     186.583E-03
            2453            2914     183.440E-03     186.583E-03
            2436            2915     175.865E-03     178.191E-03
            2454            2915     175.865E-03     178.191E-03
            2455            2915     175.865E-03     178.191E-03
            2437            2915     175.865E-03     178.191E-03
            2438            2916     148.657E-03     145.744E-03
            2456            2916     148.657E-03     145.744E-03
            2437            2916     148.657E-03     145.744E-03
            2455            2916     148.657E-03     145.744E-03
            2457            2917     253.086E-03     256.279E-03
            2439            2917     253.086E-03     256.279E-03
            2458            2917     253.086E-03     256.279E-03
            2440            2917     253.086E-03     256.279E-03
            2441            2918     247.177E-03     251.727E-03
            2440            2918     247.177E-03     251.727E-03
            2458            2918     247.177E-03     251.727E-03
            2459            2918     247.177E-03     251.727E-03
            2441            2919     236.660E-03     241.846E-03
            2460            2919     236.660E-03     241.846E-03
            2442            2919     236.660E-03     241.846E-03
            2459            2919     236.660E-03     241.846E-03
            2443            2920     227.551E-03     233.192E-03
            2442            2920     227.551E-03     233.192E-03
            2460            2920     227.551E-03     233.192E-03
            2461            2920     227.551E-03     233.192E-03
            2444            2921     219.916E-03     225.425E-03
            2443            2921     219.916E-03     225.425E-03
            2462            2921     219.916E-03     225.425E-03
            2461            2921     219.916E-03     225.425E-03
            2444            2922     212.666E-03     218.475E-03
            2462            2922     212.666E-03     218.475E-03
            2463            2922     212.666E-03     218.475E-03
            2445            2922     212.666E-03     218.475E-03
            2464            2923     206.258E-03     212.164E-03
            2446            2923     206.258E-03     212.164E-03
            2463            2923     206.258E-03     212.164E-03
            2445            2923     206.258E-03     212.164E-03
            2464            2924     200.313E-03     206.348E-03
            2446            2924     200.313E-03     206.348E-03
            2447            2924     200.313E-03     206.348E-03
            2465            2924     200.313E-03     206.348E-03
            2466            2925     194.970E-03     201.064E-03
            2448            2925     194.970E-03     201.064E-03
            2465            2925     194.970E-03     201.064E-03
            2447            2925     194.970E-03     201.064E-03
            2466            2926     190.151E-03     196.236E-03
            2448            2926     190.151E-03     196.236E-03
            2449            2926     190.151E-03     196.236E-03
            2467            2926     190.151E-03     196.236E-03
            2467            2927     185.962E-03     191.974E-03
            2468            2927     185.962E-03     191.974E-03
            2450            2927     185.962E-03     191.974E-03
            2449            2927     185.962E-03     191.974E-03
            2450            2928     182.438E-03     188.309E-03
            2451            2928     182.438E-03     188.309E-03
            2468            2928     182.438E-03     188.309E-03
            2469            2928     182.438E-03     188.309E-03
            2469            2929     179.943E-03     185.541E-03
            2451            2929     179.943E-03     185.541E-03
            2470            2929     179.943E-03     185.541E-03
            2452            2929     179.943E-03     185.541E-03
            2471            2930     178.020E-03     183.345E-03
            2470            2930     178.020E-03     183.345E-03
            2453            2930     178.020E-03     183.345E-03
            2452            2930     178.020E-03     183.345E-03
            2472            2931     176.569E-03     181.968E-03
            2453            2931     176.569E-03     181.968E-03
            2454            2931     176.569E-03     181.968E-03
            2471            2931     176.569E-03     181.968E-03
            2454            2932     169.356E-03     171.897E-03
            2473            2932     169.356E-03     171.897E-03
            2472            2932     169.356E-03     171.897E-03
            2455            2932     169.356E-03     171.897E-03
            2456            2933     142.389E-03     137.275E-03
            2473            2933     142.389E-03     137.275E-03
            2474            2933     142.389E-03     137.275E-03
            2455            2933     142.389E-03     137.275E-03
            2476            2934     262.115E-03     263.463E-03
            2458            2934     262.115E-03     263.463E-03
            2475            2934     262.115E-03     263.463E-03
            2457            2934     262.115E-03     263.463E-03
            2458            2935     248.118E-03     252.062E-03
            2476            2935     248.118E-03     252.062E-03
            2477            2935     248.118E-03     252.062E-03
            2459            2935     248.118E-03     252.062E-03
            2460            2936     234.956E-03     240.631E-03
            2459            2936     234.956E-03     240.631E-03
            2477            2936     234.956E-03     240.631E-03
            2478            2936     234.956E-03     240.631E-03
            2479            2937     225.021E-03     231.604E-03
            2460            2937     225.021E-03     231.604E-03
            2461            2937     225.021E-03     231.604E-03
            2478            2937     225.021E-03     231.604E-03
            2462            2938     215.870E-03     223.149E-03
            2480            2938     215.870E-03     223.149E-03
            2461            2938     215.870E-03     223.149E-03
            2479            2938     215.870E-03     223.149E-03
            2480            2939     207.952E-03     215.860E-03
            2463            2939     207.952E-03     215.860E-03
            2481            2939     207.952E-03     215.860E-03
            2462            2939     207.952E-03     215.860E-03
            2463            2940     200.680E-03     209.109E-03
            2482            2940     200.680E-03     209.109E-03
            2481            2940     200.680E-03     209.109E-03
            2464            2940     200.680E-03     209.109E-03
            2483            2941     194.236E-03     203.055E-03
            2465            2941     194.236E-03     203.055E-03
            2482            2941     194.236E-03     203.055E-03
            2464            2941     194.236E-03     203.055E-03
            2465            2942     188.435E-03     197.478E-03
            2466            2942     188.435E-03     197.478E-03
            2484            2942     188.435E-03     197.478E-03
            2483            2942     188.435E-03     197.478E-03
            2466            2943     183.347E-03     192.448E-03
            2467            2943     183.347E-03     192.448E-03
            2485            2943     183.347E-03     192.448E-03
            2484            2943     183.347E-03     192.448E-03
            2467            2944     178.932E-03     187.896E-03
            2486            2944     178.932E-03     187.896E-03
            2468            2944     178.932E-03     187.896E-03
            2485            2944     178.932E-03     187.896E-03
            2487            2945     175.259E-03     183.913E-03
            2486            2945     175.259E-03     183.913E-03
            2468            2945     175.259E-03     183.913E-03
            2469            2945     175.259E-03     183.913E-03
            2488            2946     172.102E-03     180.242E-03
            2470            2946     172.102E-03     180.242E-03
            2469            2946     172.102E-03     180.242E-03
            2487            2946     172.102E-03     180.242E-03
            2470            2947     169.601E-03     176.955E-03
            2489            2947     169.601E-03     176.955E-03
            2488            2947     169.601E-03     176.955E-03
            2471            2947     169.601E-03     176.955E-03
            2489            2948     165.239E-03     171.038E-03
            2490            2948     165.239E-03     171.038E-03
            2471            2948     165.239E-03     171.038E-03
            2472            2948     165.239E-03     171.038E-03
            2472            2949     159.183E-03     162.507E-03
            2491            2949     159.183E-03     162.507E-03
            2490            2949     159.183E-03     162.507E-03
            2473            2949     159.183E-03     162.507E-03
            2473            2950     143.890E-03     142.399E-03
            2474            2950     143.890E-03     142.399E-03
            2492            2950     143.890E-03     142.399E-03
            2491            2950     143.890E-03     142.399E-03
            2493            2951     8.50888E-03     8.77956E-03
            2512            2951     8.50888E-03     8.77956E-03
            2494            2951     8.50888E-03     8.77956E-03
            2511            2951     8.50888E-03     8.77956E-03
            2512            2952     7.02196E-03     6.00087E-03
            2494            2952     7.02196E-03     6.00087E-03
            2495            2952     7.02196E-03     6.00087E-03
            2513            2952     7.02196E-03     6.00087E-03
            2496            2953     8.48908E-03     6.86781E-03
            2513            2953     8.48908E-03     6.86781E-03
            2495            2953     8.48908E-03     6.86781E-03
            2514            2953     8.48908E-03     6.86781E-03
            2497            2954     8.89738E-03     7.23642E-03
            2496            2954     8.89738E-03     7.23642E-03
            2515            2954     8.89738E-03     7.23642E-03
            2514            2954     8.89738E-03     7.23642E-03
            2498            2955     8.93923E-03     7.27049E-03
            2515            2955     8.93923E-03     7.27049E-03
            2516            2955     8.93923E-03     7.27049E-03
            2497            2955     8.93923E-03     7.27049E-03
            2498            2956     8.69695E-03     7.04634E-03
            2499            2956     8.69695E-03     7.04634E-03
            2517            2956     8.69695E-03     7.04634E-03
            2516            2956     8.69695E-03     7.04634E-03
            2499            2957     8.34892E-03     6.72621E-03
            2518            2957     8.34892E-03     6.72621E-03
            2517            2957     8.34892E-03     6.72621E-03
            2500            2957     8.34892E-03     6.72621E-03
            2519            2958     7.95780E-03     6.35328E-03
            2518            2958     7.95780E-03     6.35328E-03
            2501            2958     7.95780E-03     6.35328E-03
            2500            2958     7.95780E-03     6.35328E-03
            2502            2959     7.54804E-03     5.96970E-03
            2520            2959     7.54804E-03     5.96970E-03
            2501            2959     7.54804E-03     5.96970E-03
            2519            2959     7.54804E-03     5.96970E-03
            2520            2960     7.14276E-03     5.58919E-03
            2503            2960     7.14276E-03     5.58919E-03
            2521            2960     7.14276E-03     5.58919E-03
            2502            2960     7.14276E-03     5.58919E-03
            2521            2961     6.74093E-03     5.22248E-03
            2522            2961     6.74093E-03     5.22248E-03
            2503            2961     6.74093E-03     5.22248E-03
            2504            2961     6.74093E-03     5.22248E-03
            2504            2962     6.35072E-03     4.88014E-03
            2523            2962     6.35072E-03     4.88014E-03
            2522            2962     6.35072E-03     4.88014E-03
            2505            2962     6.35072E-03     4.88014E-03
            2524            2963     5.97206E-03     4.57640E-03
            2506            2963     5.97206E-03     4.57640E-03
            2523            2963     5.97206E-03     4.57640E-03
            2505            2963     5.97206E-03     4.57640E-03
            2507            2964     5.57606E-03     4.32625E-03
            2506            2964     5.57606E-03     4.32625E-03
            2524            2964     5.57606E-03     4.32625E-03
            2525            2964     5.57606E-03     4.32625E-03
            2526            2965     5.20009E-03     4.23661E-03
            2508            2965     5.20009E-03     4.23661E-03
            2507            2965     5.20009E-03     4.23661E-03
            2525            2965     5.20009E-03     4.23661E-03
            2508            2966     4.72284E-03     4.49262E-03
            2527            2966     4.72284E-03     4.49262E-03
            2526            2966     4.72284E-03     4.49262E-03
            2509            2966     4.72284E-03     4.49262E-03
            2527            2967     5.28586E-03     6.24926E-03
            2528            2967     5.28586E-03     6.24926E-03
            2510            2967     5.28586E-03     6.24926E-03
            2509            2967     5.28586E-03     6.24926E-03
            2530            2968     10.0860E-03     9.61919E-03
            2511            2968     10.0860E-03     9.61919E-03
            2512            2968     10.0860E-03     9.61919E-03
            2529            2968     10.0860E-03     9.61919E-03
            2530            2969     7.82843E-03     7.43716E-03
            2512            2969     7.82843E-03     7.43716E-03
            2513            2969     7.82843E-03     7.43716E-03
            2531            2969     7.82843E-03     7.43716E-03
            2531            2970     8.85960E-03     8.15767E-03
            2513            2970     8.85960E-03     8.15767E-03
            2514            2970     8.85960E-03     8.15767E-03
            2532            2970     8.85960E-03     8.15767E-03
            2515            2971     9.20427E-03     8.33332E-03
            2533            2971     9.20427E-03     8.33332E-03
            2532            2971     9.20427E-03     8.33332E-03
            2514            2971     9.20427E-03     8.33332E-03
            2516            2972     9.02766E-03     8.11834E-03
            2534            2972     9.02766E-03     8.11834E-03
            2533            2972     9.02766E-03     8.11834E-03
            2515            2972     9.02766E-03     8.11834E-03
            2516            2973     8.61569E-03     7.70612E-03
            2535            2973     8.61569E-03     7.70612E-03
            2517            2973     8.61569E-03     7.70612E-03
            2534            2973     8.61569E-03     7.70612E-03
            2517            2974     8.15693E-03     7.24936E-03
            2518            2974     8.15693E-03     7.24936E-03
            2536            2974     8.15693E-03     7.24936E-03
            2535            2974     8.15693E-03     7.24936E-03
            2518            2975     7.68170E-03     6.78043E-03
            2519            2975     7.68170E-03     6.78043E-03
            2536            2975     7.68170E-03     6.78043E-03
            2537            2975     7.68170E-03     6.78043E-03
            2519            2976     7.22184E-03     6.32636E-03
            2520            2976     7.22184E-03     6.32636E-03
            2537            2976     7.22184E-03     6.32636E-03
            2538            2976     7.22184E-03     6.32636E-03
            2539            2977     6.77493E-03     5.88840E-03
            2520            2977     6.77493E-03     5.88840E-03
            2521            2977     6.77493E-03     5.88840E-03
            2538            2977     6.77493E-03     5.88840E-03
            2522            2978     6.34533E-03     5.46915E-03
            2539            2978     6.34533E-03     5.46915E-03
            2521            2978     6.34533E-03     5.46915E-03
            2540            2978     6.34533E-03     5.46915E-03
            2522            2979     5.92828E-03     5.06664E-03
            2540            2979     5.92828E-03     5.06664E-03
            2541            2979     5.92828E-03     5.06664E-03
            2523            2979     5.92828E-03     5.06664E-03
            2524            2980     5.52091E-03     4.68924E-03
            2523            2980     5.52091E-03     4.68924E-03
            2542            2980     5.52091E-03     4.68924E-03
            2541            2980     5.52091E-03     4.68924E-03
            2525            2981     5.12544E-03     4.34934E-03
            2524            2981     5.12544E-03     4.34934E-03
            2543            2981     5.12544E-03     4.34934E-03
            2542            2981     5.12544E-03     4.34934E-03
            2543            2982     4.67565E-03     4.11627E-03
            2544            2982     4.67565E-03     4.11627E-03
            2526            2982     4.67565E-03     4.11627E-03
            2525            2982     4.67565E-03     4.11627E-03
            2526            2983     4.45757E-03     4.30913E-03
            2545            2983     4.45757E-03     4.30913E-03
            2544            2983     4.45757E-03     4.30913E-03
            2527            2983     4.45757E-03     4.30913E-03
            2528            2984     5.79085E-03     5.42779E-03
            2546            2984     5.79085E-03     5.42779E-03
            2545            2984     5.79085E-03     5.42779E-03
            2527            2984     5.79085E-03     5.42779E-03
            2530            2985     12.6177E-03     12.2555E-03
            2548            2985     12.6177E-03     12.2555E-03
            2547            2985     12.6177E-03     12.2555E-03
            2529            2985     12.6177E-03     12.2555E-03
            2548            2986     9.56372E-03     9.56124E-03
            2549            2986     9.56372E-03     9.56124E-03
            2531            2986     9.56372E-03     9.56124E-03
            2530            2986     9.56372E-03     9.56124E-03
            2549            2987     9.23330E-03     9.21377E-03
            2531            2987     9.23330E-03     9.21377E-03
            2550            2987     9.23330E-03     9.21377E-03
            2532            2987     9.23330E-03     9.21377E-03
            2533            2988     9.20185E-03     9.05509E-03
            2551            2988     9.20185E-03     9.05509E-03
            2532            2988     9.20185E-03     9.05509E-03
            2550            2988     9.20185E-03     9.05509E-03
            2551            2989     8.77889E-03     8.62090E-03
            2534            2989     8.77889E-03     8.62090E-03
            2552            2989     8.77889E-03     8.62090E-03
            2533            2989     8.77889E-03     8.62090E-03
            2534            2990     8.32155E-03     8.13845E-03
            2535            2990     8.32155E-03     8.13845E-03
            2552            2990     8.32155E-03     8.13845E-03
            2553            2990     8.32155E-03     8.13845E-03
            2553            2991     7.80711E-03     7.61805E-03
            2554            2991     7.80711E-03     7.61805E-03
            2535            2991     7.80711E-03     7.61805E-03
            2536            2991     7.80711E-03     7.61805E-03
            2537            2992     7.31097E-03     7.11784E-03
            2555            2992     7.31097E-03     7.11784E-03
            2536            2992     7.31097E-03     7.11784E-03
            2554            2992     7.31097E-03     7.11784E-03
            2556            2993     6.82539E-03     6.63108E-03
            2538            2993     6.82539E-03     6.63108E-03
            2537            2993     6.82539E-03     6.63108E-03
            2555            2993     6.82539E-03     6.63108E-03
            2556            2994     6.35570E-03     6.16064E-03
            2539            2994     6.35570E-03     6.16064E-03
            2538            2994     6.35570E-03     6.16064E-03
            2557            2994     6.35570E-03     6.16064E-03
            2558            2995     5.89688E-03     5.70252E-03
            2557            2995     5.89688E-03     5.70252E-03
            2539            2995     5.89688E-03     5.70252E-03
            2540            2995     5.89688E-03     5.70252E-03
            2558            2996     5.45104E-03     5.25819E-03
            2559            2996     5.45104E-03     5.25819E-03
            2541            2996     5.45104E-03     5.25819E-03
            2540            2996     5.45104E-03     5.25819E-03
            2559            2997     5.01220E-03     4.82807E-03
            2542            2997     5.01220E-03     4.82807E-03
            2560            2997     5.01220E-03     4.82807E-03
            2541            2997     5.01220E-03     4.82807E-03
            2543            2998     4.62269E-03     4.45230E-03
            2560            2998     4.62269E-03     4.45230E-03
            2561            2998     4.62269E-03     4.45230E-03
            2542            2998     4.62269E-03     4.45230E-03
            2543            2999     4.33161E-03     4.19399E-03
            2544            2999     4.33161E-03     4.19399E-03
            2562            2999     4.33161E-03     4.19399E-03
            2561            2999     4.33161E-03     4.19399E-03
            2544            3000     4.57278E-03     4.33116E-03
            2563            3000     4.57278E-03     4.33116E-03
            2545            3000     4.57278E-03     4.33116E-03
            2562            3000     4.57278E-03     4.33116E-03
            2546            3001     5.88438E-03     5.30726E-03
            2564            3001     5.88438E-03     5.30726E-03
            2545            3001     5.88438E-03     5.30726E-03
            2563            3001     5.88438E-03     5.30726E-03
            2547            3002     15.1253E-03     15.2035E-03
            2566            3002     15.1253E-03     15.2035E-03
            2548            3002     15.1253E-03     15.2035E-03
            2565            3002     15.1253E-03     15.2035E-03
            2567            3003     11.5267E-03     11.6637E-03
            2566            3003     11.5267E-03     11.6637E-03
            2548            3003     11.5267E-03     11.6637E-03
            2549            3003     11.5267E-03     11.6637E-03
            2567            3004     9.71190E-03     10.1816E-03
            2550            3004     9.71190E-03     10.1816E-03
            2568            3004     9.71190E-03     10.1816E-03
            2549            3004     9.71190E-03     10.1816E-03
            2568            3005     8.84494E-03     9.43418E-03
            2551            3005     8.84494E-03     9.43418E-03
            2550            3005     8.84494E-03     9.43418E-03
            2569            3005     8.84494E-03     9.43418E-03
            2570            3006     8.33980E-03     8.89099E-03
            2552            3006     8.33980E-03     8.89099E-03
            2551            3006     8.33980E-03     8.89099E-03
            2569            3006     8.33980E-03     8.89099E-03
            2570            3007     7.81997E-03     8.35682E-03
            2552            3007     7.81997E-03     8.35682E-03
            2571            3007     7.81997E-03     8.35682E-03
            2553            3007     7.81997E-03     8.35682E-03
            2572            3008     7.33086E-03     7.85590E-03
            2554            3008     7.33086E-03     7.85590E-03
            2571            3008     7.33086E-03     7.85590E-03
            2553            3008     7.33086E-03     7.85590E-03
            2554            3009     6.84509E-03     7.36543E-03
            2572            3009     6.84509E-03     7.36543E-03
            2555            3009     6.84509E-03     7.36543E-03
            2573            3009     6.84509E-03     7.36543E-03
            2556            3010     6.36646E-03     6.88366E-03
            2574            3010     6.36646E-03     6.88366E-03
            2555            3010     6.36646E-03     6.88366E-03
            2573            3010     6.36646E-03     6.88366E-03
            2556            3011     5.89080E-03     6.40705E-03
            2557            3011     5.89080E-03     6.40705E-03
            2574            3011     5.89080E-03     6.40705E-03
            2575            3011     5.89080E-03     6.40705E-03
            2575            3012     5.41795E-03     5.93236E-03
            2557            3012     5.41795E-03     5.93236E-03
            2576            3012     5.41795E-03     5.93236E-03
            2558            3012     5.41795E-03     5.93236E-03
            2577            3013     4.94857E-03     5.46476E-03
            2558            3013     4.94857E-03     5.46476E-03
            2559            3013     4.94857E-03     5.46476E-03
            2576            3013     4.94857E-03     5.46476E-03
            2560            3014     4.50922E-03     5.02187E-03
            2578            3014     4.50922E-03     5.02187E-03
            2559            3014     4.50922E-03     5.02187E-03
            2577            3014     4.50922E-03     5.02187E-03
            2561            3015     4.11299E-03     4.63314E-03
            2560            3015     4.11299E-03     4.63314E-03
            2579            3015     4.11299E-03     4.63314E-03
            2578            3015     4.11299E-03     4.63314E-03
            2579            3016     4.04362E-03     4.44740E-03
            2580            3016     4.04362E-03     4.44740E-03
            2562            3016     4.04362E-03     4.44740E-03
            2561            3016     4.04362E-03     4.44740E-03
            2581            3017     4.62870E-03     4.60799E-03
            2580            3017     4.62870E-03     4.60799E-03
            2563            3017     4.62870E-03     4.60799E-03
            2562            3017     4.62870E-03     4.60799E-03
            2582            3018     5.96969E-03     5.61439E-03
            2563            3018     5.96969E-03     5.61439E-03
            2581            3018     5.96969E-03     5.61439E-03
            2564            3018     5.96969E-03     5.61439E-03
            2583            3019     17.9990E-03     17.8649E-03
            2565            3019     17.9990E-03     17.8649E-03
            2566            3019     17.9990E-03     17.8649E-03
            2584            3019     17.9990E-03     17.8649E-03
            2584            3020     12.6823E-03     13.4021E-03
            2567            3020     12.6823E-03     13.4021E-03
            2566            3020     12.6823E-03     13.4021E-03
            2585            3020     12.6823E-03     13.4021E-03
            2585            3021     9.67706E-03     10.8800E-03
            2586            3021     9.67706E-03     10.8800E-03
            2568            3021     9.67706E-03     10.8800E-03
            2567            3021     9.67706E-03     10.8800E-03
            2569            3022     8.46833E-03     9.73794E-03
            2568            3022     8.46833E-03     9.73794E-03
            2587            3022     8.46833E-03     9.73794E-03
            2586            3022     8.46833E-03     9.73794E-03
            2569            3023     7.78132E-03     9.04228E-03
            2570            3023     7.78132E-03     9.04228E-03
            2588            3023     7.78132E-03     9.04228E-03
            2587            3023     7.78132E-03     9.04228E-03
            2571            3024     7.25895E-03     8.50613E-03
            2588            3024     7.25895E-03     8.50613E-03
            2570            3024     7.25895E-03     8.50613E-03
            2589            3024     7.25895E-03     8.50613E-03
            2571            3025     6.79293E-03     8.03609E-03
            2590            3025     6.79293E-03     8.03609E-03
            2572            3025     6.79293E-03     8.03609E-03
            2589            3025     6.79293E-03     8.03609E-03
            2591            3026     6.33543E-03     7.57541E-03
            2572            3026     6.33543E-03     7.57541E-03
            2590            3026     6.33543E-03     7.57541E-03
            2573            3026     6.33543E-03     7.57541E-03
            2573            3027     5.87479E-03     7.11660E-03
            2592            3027     5.87479E-03     7.11660E-03
            2574            3027     5.87479E-03     7.11660E-03
            2591            3027     5.87479E-03     7.11660E-03
            2574            3028     5.40632E-03     6.64733E-03
            2593            3028     5.40632E-03     6.64733E-03
            2592            3028     5.40632E-03     6.64733E-03
            2575            3028     5.40632E-03     6.64733E-03
            2576            3029     4.93342E-03     6.17602E-03
            2575            3029     4.93342E-03     6.17602E-03
            2594            3029     4.93342E-03     6.17602E-03
            2593            3029     4.93342E-03     6.17602E-03
            2576            3030     4.46629E-03     5.70720E-03
            2594            3030     4.46629E-03     5.70720E-03
            2595            3030     4.46629E-03     5.70720E-03
            2577            3030     4.46629E-03     5.70720E-03
            2596            3031     4.02620E-03     5.26864E-03
            2577            3031     4.02620E-03     5.26864E-03
            2578            3031     4.02620E-03     5.26864E-03
            2595            3031     4.02620E-03     5.26864E-03
            2597            3032     3.69576E-03     4.91803E-03
            2596            3032     3.69576E-03     4.91803E-03
            2579            3032     3.69576E-03     4.91803E-03
            2578            3032     3.69576E-03     4.91803E-03
            2580            3033     3.59403E-03     4.75732E-03
            2579            3033     3.59403E-03     4.75732E-03
            2597            3033     3.59403E-03     4.75732E-03
            2598            3033     3.59403E-03     4.75732E-03
            2599            3034     4.31792E-03     5.16603E-03
            2598            3034     4.31792E-03     5.16603E-03
            2580            3034     4.31792E-03     5.16603E-03
            2581            3034     4.31792E-03     5.16603E-03
            2581            3035     6.27530E-03     6.22225E-03
            2599            3035     6.27530E-03     6.22225E-03
            2582            3035     6.27530E-03     6.22225E-03
            2600            3035     6.27530E-03     6.22225E-03
            2584            3036     19.3303E-03     21.0636E-03
            2601            3036     19.3303E-03     21.0636E-03
            2602            3036     19.3303E-03     21.0636E-03
            2583            3036     19.3303E-03     21.0636E-03
            2602            3037     12.4529E-03     14.5065E-03
            2603            3037     12.4529E-03     14.5065E-03
            2584            3037     12.4529E-03     14.5065E-03
            2585            3037     12.4529E-03     14.5065E-03
            2585            3038     9.57804E-03     11.5473E-03
            2603            3038     9.57804E-03     11.5473E-03
            2586            3038     9.57804E-03     11.5473E-03
            2604            3038     9.57804E-03     11.5473E-03
            2587            3039     8.17047E-03     10.1182E-03
            2604            3039     8.17047E-03     10.1182E-03
            2605            3039     8.17047E-03     10.1182E-03
            2586            3039     8.17047E-03     10.1182E-03
            2605            3040     7.31564E-03     9.27441E-03
            2587            3040     7.31564E-03     9.27441E-03
            2588            3040     7.31564E-03     9.27441E-03
            2606            3040     7.31564E-03     9.27441E-03
            2607            3041     6.76053E-03     8.72256E-03
            2606            3041     6.76053E-03     8.72256E-03
            2589            3041     6.76053E-03     8.72256E-03
            2588            3041     6.76053E-03     8.72256E-03
            2589            3042     6.28175E-03     8.24870E-03
            2590            3042     6.28175E-03     8.24870E-03
            2608            3042     6.28175E-03     8.24870E-03
            2607            3042     6.28175E-03     8.24870E-03
            2608            3043     5.83485E-03     7.80826E-03
            2609            3043     5.83485E-03     7.80826E-03
            2590            3043     5.83485E-03     7.80826E-03
            2591            3043     5.83485E-03     7.80826E-03
            2609            3044     5.38362E-03     7.35920E-03
            2591            3044     5.38362E-03     7.35920E-03
            2592            3044     5.38362E-03     7.35920E-03
            2610            3044     5.38362E-03     7.35920E-03
            2593            3045     4.92521E-03     6.90616E-03
            2610            3045     4.92521E-03     6.90616E-03
            2592            3045     4.92521E-03     6.90616E-03
            2611            3045     4.92521E-03     6.90616E-03
            2594            3046     4.46380E-03     6.44479E-03
            2611            3046     4.46380E-03     6.44479E-03
            2593            3046     4.46380E-03     6.44479E-03
            2612            3046     4.46380E-03     6.44479E-03
            2595            3047     4.01484E-03     5.99539E-03
            2613            3047     4.01484E-03     5.99539E-03
            2612            3047     4.01484E-03     5.99539E-03
            2594            3047     4.01484E-03     5.99539E-03
            2595            3048     3.60759E-03     5.58016E-03
            2613            3048     3.60759E-03     5.58016E-03
            2614            3048     3.60759E-03     5.58016E-03
            2596            3048     3.60759E-03     5.58016E-03
            2597            3049     3.32081E-03     5.27209E-03
            2596            3049     3.32081E-03     5.27209E-03
            2614            3049     3.32081E-03     5.27209E-03
            2615            3049     3.32081E-03     5.27209E-03
            2598            3050     3.25005E-03     5.18581E-03
            2597            3050     3.25005E-03     5.18581E-03
            2615            3050     3.25005E-03     5.18581E-03
            2616            3050     3.25005E-03     5.18581E-03
            2598            3051     3.66454E-03     5.65340E-03
            2617            3051     3.66454E-03     5.65340E-03
            2616            3051     3.66454E-03     5.65340E-03
            2599            3051     3.66454E-03     5.65340E-03
            2617            3052     5.74045E-03     7.53386E-03
            2618            3052     5.74045E-03     7.53386E-03
            2600            3052     5.74045E-03     7.53386E-03
            2599            3052     5.74045E-03     7.53386E-03
            2620            3053     21.1041E-03     22.0603E-03
            2619            3053     21.1041E-03     22.0603E-03
            2601            3053     21.1041E-03     22.0603E-03
            2602            3053     21.1041E-03     22.0603E-03
            2621            3054     18.8185E-03     19.0276E-03
            2603            3054     18.8185E-03     19.0276E-03
            2620            3054     18.8185E-03     19.0276E-03
            2602            3054     18.8185E-03     19.0276E-03
            2621            3055     18.0691E-03     18.1638E-03
            2603            3055     18.0691E-03     18.1638E-03
            2604            3055     18.0691E-03     18.1638E-03
            2622            3055     18.0691E-03     18.1638E-03
            2605            3056     17.3554E-03     17.5855E-03
            2604            3056     17.3554E-03     17.5855E-03
            2622            3056     17.3554E-03     17.5855E-03
            2623            3056     17.3554E-03     17.5855E-03
            2605            3057     16.7917E-03     17.1005E-03
            2606            3057     16.7917E-03     17.1005E-03
            2624            3057     16.7917E-03     17.1005E-03
            2623            3057     16.7917E-03     17.1005E-03
            2607            3058     16.1776E-03     16.5886E-03
            2624            3058     16.1776E-03     16.5886E-03
            2606            3058     16.1776E-03     16.5886E-03
            2625            3058     16.1776E-03     16.5886E-03
            2608            3059     15.5170E-03     15.9858E-03
            2625            3059     15.5170E-03     15.9858E-03
            2626            3059     15.5170E-03     15.9858E-03
            2607            3059     15.5170E-03     15.9858E-03
            2627            3060     14.7863E-03     15.3114E-03
            2609            3060     14.7863E-03     15.3114E-03
            2626            3060     14.7863E-03     15.3114E-03
            2608            3060     14.7863E-03     15.3114E-03
            2610            3061     13.9989E-03     14.5589E-03
            2627            3061     13.9989E-03     14.5589E-03
            2628            3061     13.9989E-03     14.5589E-03
            2609            3061     13.9989E-03     14.5589E-03
            2610            3062     13.1704E-03     13.7641E-03
            2628            3062     13.1704E-03     13.7641E-03
            2629            3062     13.1704E-03     13.7641E-03
            2611            3062     13.1704E-03     13.7641E-03
            2611            3063     12.3184E-03     12.9325E-03
            2629            3063     12.3184E-03     12.9325E-03
            2630            3063     12.3184E-03     12.9325E-03
            2612            3063     12.3184E-03     12.9325E-03
            2613            3064     11.4668E-03     12.0991E-03
            2630            3064     11.4668E-03     12.0991E-03
            2631            3064     11.4668E-03     12.0991E-03
            2612            3064     11.4668E-03     12.0991E-03
            2613            3065     10.6541E-03     11.2838E-03
            2614            3065     10.6541E-03     11.2838E-03
            2631            3065     10.6541E-03     11.2838E-03
            2632            3065     10.6541E-03     11.2838E-03
            2633            3066     9.91137E-03     10.5548E-03
            2614            3066     9.91137E-03     10.5548E-03
            2632            3066     9.91137E-03     10.5548E-03
            2615            3066     9.91137E-03     10.5548E-03
            2615            3067     9.36508E-03     10.0016E-03
            2633            3067     9.36508E-03     10.0016E-03
            2634            3067     9.36508E-03     10.0016E-03
            2616            3067     9.36508E-03     10.0016E-03
            2617            3068     8.97401E-03     9.86615E-03
            2634            3068     8.97401E-03     9.86615E-03
            2635            3068     8.97401E-03     9.86615E-03
            2616            3068     8.97401E-03     9.86615E-03
            2635            3069     9.20468E-03     11.3346E-03
            2636            3069     9.20468E-03     11.3346E-03
            2618            3069     9.20468E-03     11.3346E-03
            2617            3069     9.20468E-03     11.3346E-03
            2638            3070     24.3131E-03     23.1915E-03
            2637            3070     24.3131E-03     23.1915E-03
            2619            3070     24.3131E-03     23.1915E-03
            2620            3070     24.3131E-03     23.1915E-03
            2639            3071     25.9435E-03     24.5510E-03
            2620            3071     25.9435E-03     24.5510E-03
            2621            3071     25.9435E-03     24.5510E-03
            2638            3071     25.9435E-03     24.5510E-03
            2621            3072     27.2700E-03     25.7845E-03
            2640            3072     27.2700E-03     25.7845E-03
            2622            3072     27.2700E-03     25.7845E-03
            2639            3072     27.2700E-03     25.7845E-03
            2640            3073     27.4879E-03     26.0769E-03
            2641            3073     27.4879E-03     26.0769E-03
            2622            3073     27.4879E-03     26.0769E-03
            2623            3073     27.4879E-03     26.0769E-03
            2624            3074     27.1880E-03     25.8551E-03
            2641            3074     27.1880E-03     25.8551E-03
            2642            3074     27.1880E-03     25.8551E-03
            2623            3074     27.1880E-03     25.8551E-03
            2642            3075     26.4757E-03     25.2351E-03
            2625            3075     26.4757E-03     25.2351E-03
            2624            3075     26.4757E-03     25.2351E-03
            2643            3075     26.4757E-03     25.2351E-03
            2644            3076     25.5263E-03     24.3615E-03
            2626            3076     25.5263E-03     24.3615E-03
            2625            3076     25.5263E-03     24.3615E-03
            2643            3076     25.5263E-03     24.3615E-03
            2645            3077     24.4014E-03     23.2993E-03
            2626            3077     24.4014E-03     23.2993E-03
            2644            3077     24.4014E-03     23.2993E-03
            2627            3077     24.4014E-03     23.2993E-03
            2645            3078     23.1690E-03     22.1206E-03
            2628            3078     23.1690E-03     22.1206E-03
            2627            3078     23.1690E-03     22.1206E-03
            2646            3078     23.1690E-03     22.1206E-03
            2646            3079     21.8681E-03     20.8589E-03
            2647            3079     21.8681E-03     20.8589E-03
            2629            3079     21.8681E-03     20.8589E-03
            2628            3079     21.8681E-03     20.8589E-03
            2630            3080     20.5272E-03     19.5538E-03
            2648            3080     20.5272E-03     19.5538E-03
            2647            3080     20.5272E-03     19.5538E-03
            2629            3080     20.5272E-03     19.5538E-03
            2631            3081     19.1718E-03     18.2254E-03
            2630            3081     19.1718E-03     18.2254E-03
            2649            3081     19.1718E-03     18.2254E-03
            2648            3081     19.1718E-03     18.2254E-03
            2650            3082     17.8189E-03     16.9069E-03
            2649            3082     17.8189E-03     16.9069E-03
            2632            3082     17.8189E-03     16.9069E-03
            2631            3082     17.8189E-03     16.9069E-03
            2651            3083     16.4872E-03     15.6357E-03
            2650            3083     16.4872E-03     15.6357E-03
            2633            3083     16.4872E-03     15.6357E-03
            2632            3083     16.4872E-03     15.6357E-03
            2651            3084     15.1909E-03     14.4948E-03
            2652            3084     15.1909E-03     14.4948E-03
            2633            3084     15.1909E-03     14.4948E-03
            2634            3084     15.1909E-03     14.4948E-03
            2634            3085     13.8768E-03     13.7537E-03
            2653            3085     13.8768E-03     13.7537E-03
            2635            3085     13.8768E-03     13.7537E-03
            2652            3085     13.8768E-03     13.7537E-03
            2636            3086     12.9105E-03     14.1129E-03
            2635            3086     12.9105E-03     14.1129E-03
            2653            3086     12.9105E-03     14.1129E-03
            2654            3086     12.9105E-03     14.1129E-03
            2638            3087     27.5998E-03     27.4456E-03
            2656            3087     27.5998E-03     27.4456E-03
            2655            3087     27.5998E-03     27.4456E-03
            2637            3087     27.5998E-03     27.4456E-03
            2638            3088     27.4903E-03     27.4190E-03
            2656            3088     27.4903E-03     27.4190E-03
            2639            3088     27.4903E-03     27.4190E-03
            2657            3088     27.4903E-03     27.4190E-03
            2640            3089     28.6998E-03     28.3127E-03
            2658            3089     28.6998E-03     28.3127E-03
            2657            3089     28.6998E-03     28.3127E-03
            2639            3089     28.6998E-03     28.3127E-03
            2659            3090     28.9519E-03     28.3652E-03
            2640            3090     28.9519E-03     28.3652E-03
            2641            3090     28.9519E-03     28.3652E-03
            2658            3090     28.9519E-03     28.3652E-03
            2642            3091     28.5137E-03     27.8467E-03
            2641            3091     28.5137E-03     27.8467E-03
            2659            3091     28.5137E-03     27.8467E-03
            2660            3091     28.5137E-03     27.8467E-03
            2642            3092     27.6366E-03     26.9344E-03
            2661            3092     27.6366E-03     26.9344E-03
            2660            3092     27.6366E-03     26.9344E-03
            2643            3092     27.6366E-03     26.9344E-03
            2644            3093     26.4741E-03     25.7689E-03
            2662            3093     26.4741E-03     25.7689E-03
            2661            3093     26.4741E-03     25.7689E-03
            2643            3093     26.4741E-03     25.7689E-03
            2662            3094     25.1456E-03     24.4508E-03
            2663            3094     25.1456E-03     24.4508E-03
            2644            3094     25.1456E-03     24.4508E-03
            2645            3094     25.1456E-03     24.4508E-03
            2663            3095     23.7214E-03     23.0386E-03
            2664            3095     23.7214E-03     23.0386E-03
            2646            3095     23.7214E-03     23.0386E-03
            2645            3095     23.7214E-03     23.0386E-03
            2665            3096     22.2430E-03     21.5768E-03
            2646            3096     22.2430E-03     21.5768E-03
            2664            3096     22.2430E-03     21.5768E-03
            2647            3096     22.2430E-03     21.5768E-03
            2647            3097     20.7371E-03     20.0894E-03
            2666            3097     20.7371E-03     20.0894E-03
            2665            3097     20.7371E-03     20.0894E-03
            2648            3097     20.7371E-03     20.0894E-03
            2667            3098     19.2159E-03     18.5955E-03
            2666            3098     19.2159E-03     18.5955E-03
            2649            3098     19.2159E-03     18.5955E-03
            2648            3098     19.2159E-03     18.5955E-03
            2668            3099     17.6718E-03     17.1147E-03
            2649            3099     17.6718E-03     17.1147E-03
            2667            3099     17.6718E-03     17.1147E-03
            2650            3099     17.6718E-03     17.1147E-03
            2650            3100     16.1123E-03     15.6820E-03
            2668            3100     16.1123E-03     15.6820E-03
            2669            3100     16.1123E-03     15.6820E-03
            2651            3100     16.1123E-03     15.6820E-03
            2669            3101     14.4911E-03     14.3905E-03
            2670            3101     14.4911E-03     14.3905E-03
            2651            3101     14.4911E-03     14.3905E-03
            2652            3101     14.4911E-03     14.3905E-03
            2652            3102     12.9102E-03     13.5090E-03
            2670            3102     12.9102E-03     13.5090E-03
            2653            3102     12.9102E-03     13.5090E-03
            2671            3102     12.9102E-03     13.5090E-03
            2653            3103     12.4087E-03     13.1165E-03
            2654            3103     12.4087E-03     13.1165E-03
            2671            3103     12.4087E-03     13.1165E-03
            2672            3103     12.4087E-03     13.1165E-03
            2674            3104     31.4559E-03     31.4382E-03
            2655            3104     31.4559E-03     31.4382E-03
            2656            3104     31.4559E-03     31.4382E-03
            2673            3104     31.4559E-03     31.4382E-03
            2675            3105     30.1079E-03     30.4904E-03
            2657            3105     30.1079E-03     30.4904E-03
            2656            3105     30.1079E-03     30.4904E-03
            2674            3105     30.1079E-03     30.4904E-03
            2676            3106     30.1989E-03     30.4944E-03
            2657            3106     30.1989E-03     30.4944E-03
            2658            3106     30.1989E-03     30.4944E-03
            2675            3106     30.1989E-03     30.4944E-03
            2659            3107     30.1622E-03     30.2451E-03
            2677            3107     30.1622E-03     30.2451E-03
            2676            3107     30.1622E-03     30.2451E-03
            2658            3107     30.1622E-03     30.2451E-03
            2659            3108     29.5229E-03     29.4413E-03
            2678            3108     29.5229E-03     29.4413E-03
            2677            3108     29.5229E-03     29.4413E-03
            2660            3108     29.5229E-03     29.4413E-03
            2678            3109     28.4666E-03     28.2828E-03
            2679            3109     28.4666E-03     28.2828E-03
            2660            3109     28.4666E-03     28.2828E-03
            2661            3109     28.4666E-03     28.2828E-03
            2680            3110     27.1314E-03     26.8913E-03
            2662            3110     27.1314E-03     26.8913E-03
            2679            3110     27.1314E-03     26.8913E-03
            2661            3110     27.1314E-03     26.8913E-03
            2663            3111     25.6465E-03     25.3707E-03
            2662            3111     25.6465E-03     25.3707E-03
            2680            3111     25.6465E-03     25.3707E-03
            2681            3111     25.6465E-03     25.3707E-03
            2663            3112     24.0725E-03     23.7834E-03
            2664            3112     24.0725E-03     23.7834E-03
            2681            3112     24.0725E-03     23.7834E-03
            2682            3112     24.0725E-03     23.7834E-03
            2664            3113     22.4633E-03     22.1692E-03
            2665            3113     22.4633E-03     22.1692E-03
            2683            3113     22.4633E-03     22.1692E-03
            2682            3113     22.4633E-03     22.1692E-03
            2684            3114     20.8310E-03     20.5477E-03
            2683            3114     20.8310E-03     20.5477E-03
            2666            3114     20.8310E-03     20.5477E-03
            2665            3114     20.8310E-03     20.5477E-03
            2684            3115     19.1823E-03     18.9330E-03
            2667            3115     19.1823E-03     18.9330E-03
            2666            3115     19.1823E-03     18.9330E-03
            2685            3115     19.1823E-03     18.9330E-03
            2685            3116     17.5118E-03     17.3410E-03
            2667            3116     17.5118E-03     17.3410E-03
            2686            3116     17.5118E-03     17.3410E-03
            2668            3116     17.5118E-03     17.3410E-03
            2668            3117     15.7996E-03     15.7896E-03
            2669            3117     15.7996E-03     15.7896E-03
            2686            3117     15.7996E-03     15.7896E-03
            2687            3117     15.7996E-03     15.7896E-03
            2669            3118     14.0666E-03     14.3855E-03
            2670            3118     14.0666E-03     14.3855E-03
            2688            3118     14.0666E-03     14.3855E-03
            2687            3118     14.0666E-03     14.3855E-03
            2688            3119     12.6583E-03     13.1606E-03
            2670            3119     12.6583E-03     13.1606E-03
            2689            3119     12.6583E-03     13.1606E-03
            2671            3119     12.6583E-03     13.1606E-03
            2690            3120     12.1059E-03     12.3012E-03
            2672            3120     12.1059E-03     12.3012E-03
            2671            3120     12.1059E-03     12.3012E-03
            2689            3120     12.1059E-03     12.3012E-03
            2691            3121     34.9505E-03     35.1463E-03
            2674            3121     34.9505E-03     35.1463E-03
            2673            3121     34.9505E-03     35.1463E-03
            2692            3121     34.9505E-03     35.1463E-03
            2693            3122     32.9931E-03     33.4496E-03
            2674            3122     32.9931E-03     33.4496E-03
            2675            3122     32.9931E-03     33.4496E-03
            2692            3122     32.9931E-03     33.4496E-03
            2694            3123     31.9848E-03     32.5982E-03
            2676            3123     31.9848E-03     32.5982E-03
            2693            3123     31.9848E-03     32.5982E-03
            2675            3123     31.9848E-03     32.5982E-03
            2695            3124     31.2550E-03     31.7709E-03
            2694            3124     31.2550E-03     31.7709E-03
            2676            3124     31.2550E-03     31.7709E-03
            2677            3124     31.2550E-03     31.7709E-03
            2696            3125     30.2671E-03     30.6459E-03
            2678            3125     30.2671E-03     30.6459E-03
            2695            3125     30.2671E-03     30.6459E-03
            2677            3125     30.2671E-03     30.6459E-03
            2678            3126     28.9601E-03     29.2327E-03
            2697            3126     28.9601E-03     29.2327E-03
            2696            3126     28.9601E-03     29.2327E-03
            2679            3126     28.9601E-03     29.2327E-03
            2680            3127     27.4637E-03     27.6490E-03
            2698            3127     27.4637E-03     27.6490E-03
            2697            3127     27.4637E-03     27.6490E-03
            2679            3127     27.4637E-03     27.6490E-03
            2680            3128     25.8364E-03     25.9735E-03
            2699            3128     25.8364E-03     25.9735E-03
            2681            3128     25.8364E-03     25.9735E-03
            2698            3128     25.8364E-03     25.9735E-03
            2700            3129     24.1652E-03     24.2656E-03
            2681            3129     24.1652E-03     24.2656E-03
            2682            3129     24.1652E-03     24.2656E-03
            2699            3129     24.1652E-03     24.2656E-03
            2701            3130     22.4622E-03     22.5493E-03
            2683            3130     22.4622E-03     22.5493E-03
            2700            3130     22.4622E-03     22.5493E-03
            2682            3130     22.4622E-03     22.5493E-03
            2701            3131     20.7578E-03     20.8468E-03
            2702            3131     20.7578E-03     20.8468E-03
            2683            3131     20.7578E-03     20.8468E-03
            2684            3131     20.7578E-03     20.8468E-03
            2702            3132     19.0421E-03     19.1647E-03
            2685            3132     19.0421E-03     19.1647E-03
            2703            3132     19.0421E-03     19.1647E-03
            2684            3132     19.0421E-03     19.1647E-03
            2704            3133     17.3172E-03     17.5086E-03
            2703            3133     17.3172E-03     17.5086E-03
            2686            3133     17.3172E-03     17.5086E-03
            2685            3133     17.3172E-03     17.5086E-03
            2705            3134     15.5762E-03     15.9096E-03
            2687            3134     15.5762E-03     15.9096E-03
            2704            3134     15.5762E-03     15.9096E-03
            2686            3134     15.5762E-03     15.9096E-03
            2706            3135     13.9175E-03     14.3812E-03
            2688            3135     13.9175E-03     14.3812E-03
            2705            3135     13.9175E-03     14.3812E-03
            2687            3135     13.9175E-03     14.3812E-03
            2688            3136     12.5846E-03     12.9911E-03
            2707            3136     12.5846E-03     12.9911E-03
            2689            3136     12.5846E-03     12.9911E-03
            2706            3136     12.5846E-03     12.9911E-03
            2707            3137     11.9071E-03     12.2028E-03
            2689            3137     11.9071E-03     12.2028E-03
            2708            3137     11.9071E-03     12.2028E-03
            2690            3137     11.9071E-03     12.2028E-03
            2709            3138     38.3189E-03     38.6163E-03
            2691            3138     38.3189E-03     38.6163E-03
            2692            3138     38.3189E-03     38.6163E-03
            2710            3138     38.3189E-03     38.6163E-03
            2692            3139     35.6405E-03     36.2519E-03
            2711            3139     35.6405E-03     36.2519E-03
            2693            3139     35.6405E-03     36.2519E-03
            2710            3139     35.6405E-03     36.2519E-03
            2711            3140     33.8348E-03     34.5611E-03
            2694            3140     33.8348E-03     34.5611E-03
            2693            3140     33.8348E-03     34.5611E-03
            2712            3140     33.8348E-03     34.5611E-03
            2695            3141     32.2852E-03     33.0686E-03
            2712            3141     32.2852E-03     33.0686E-03
            2694            3141     32.2852E-03     33.0686E-03
            2713            3141     32.2852E-03     33.0686E-03
            2714            3142     30.7720E-03     31.4998E-03
            2695            3142     30.7720E-03     31.4998E-03
            2696            3142     30.7720E-03     31.4998E-03
            2713            3142     30.7720E-03     31.4998E-03
            2715            3143     29.1700E-03     29.8066E-03
            2697            3143     29.1700E-03     29.8066E-03
            2696            3143     29.1700E-03     29.8066E-03
            2714            3143     29.1700E-03     29.8066E-03
            2698            3144     27.4639E-03     28.0405E-03
            2716            3144     27.4639E-03     28.0405E-03
            2715            3144     27.4639E-03     28.0405E-03
            2697            3144     27.4639E-03     28.0405E-03
            2698            3145     25.7387E-03     26.2535E-03
            2717            3145     25.7387E-03     26.2535E-03
            2716            3145     25.7387E-03     26.2535E-03
            2699            3145     25.7387E-03     26.2535E-03
            2700            3146     23.9847E-03     24.4638E-03
            2699            3146     23.9847E-03     24.4638E-03
            2718            3146     23.9847E-03     24.4638E-03
            2717            3146     23.9847E-03     24.4638E-03
            2700            3147     22.2436E-03     22.6984E-03
            2718            3147     22.2436E-03     22.6984E-03
            2701            3147     22.2436E-03     22.6984E-03
            2719            3147     22.2436E-03     22.6984E-03
            2719            3148     20.5037E-03     20.9577E-03
            2701            3148     20.5037E-03     20.9577E-03
            2702            3148     20.5037E-03     20.9577E-03
            2720            3148     20.5037E-03     20.9577E-03
            2702            3149     18.7870E-03     19.2562E-03
            2703            3149     18.7870E-03     19.2562E-03
            2721            3149     18.7870E-03     19.2562E-03
            2720            3149     18.7870E-03     19.2562E-03
            2704            3150     17.0774E-03     17.5961E-03
            2721            3150     17.0774E-03     17.5961E-03
            2722            3150     17.0774E-03     17.5961E-03
            2703            3150     17.0774E-03     17.5961E-03
            2705            3151     15.4104E-03     15.9881E-03
            2722            3151     15.4104E-03     15.9881E-03
            2704            3151     15.4104E-03     15.9881E-03
            2723            3151     15.4104E-03     15.9881E-03
            2706            3152     13.8649E-03     14.4402E-03
            2705            3152     13.8649E-03     14.4402E-03
            2724            3152     13.8649E-03     14.4402E-03
            2723            3152     13.8649E-03     14.4402E-03
            2724            3153     12.5737E-03     13.1095E-03
            2706            3153     12.5737E-03     13.1095E-03
            2707            3153     12.5737E-03     13.1095E-03
            2725            3153     12.5737E-03     13.1095E-03
            2708            3154     11.8799E-03     12.1598E-03
            2707            3154     11.8799E-03     12.1598E-03
            2726            3154     11.8799E-03     12.1598E-03
            2725            3154     11.8799E-03     12.1598E-03
            2710            3155     41.4845E-03     42.0016E-03
            2727            3155     41.4845E-03     42.0016E-03
            2728            3155     41.4845E-03     42.0016E-03
            2709            3155     41.4845E-03     42.0016E-03
            2729            3156     38.1981E-03     38.8334E-03
            2711            3156     38.1981E-03     38.8334E-03
            2710            3156     38.1981E-03     38.8334E-03
            2728            3156     38.1981E-03     38.8334E-03
            2712            3157     35.4473E-03     36.3327E-03
            2730            3157     35.4473E-03     36.3327E-03
            2711            3157     35.4473E-03     36.3327E-03
            2729            3157     35.4473E-03     36.3327E-03
            2731            3158     33.1430E-03     34.1110E-03
            2713            3158     33.1430E-03     34.1110E-03
            2712            3158     33.1430E-03     34.1110E-03
            2730            3158     33.1430E-03     34.1110E-03
            2731            3159     31.0499E-03     32.0235E-03
            2732            3159     31.0499E-03     32.0235E-03
            2713            3159     31.0499E-03     32.0235E-03
            2714            3159     31.0499E-03     32.0235E-03
            2732            3160     29.0694E-03     30.0347E-03
            2733            3160     29.0694E-03     30.0347E-03
            2714            3160     29.0694E-03     30.0347E-03
            2715            3160     29.0694E-03     30.0347E-03
            2715            3161     27.2065E-03     28.1170E-03
            2734            3161     27.2065E-03     28.1170E-03
            2716            3161     27.2065E-03     28.1170E-03
            2733            3161     27.2065E-03     28.1170E-03
            2716            3162     25.3730E-03     26.2426E-03
            2735            3162     25.3730E-03     26.2426E-03
            2734            3162     25.3730E-03     26.2426E-03
            2717            3162     25.3730E-03     26.2426E-03
            2717            3163     23.5890E-03     24.4210E-03
            2718            3163     23.5890E-03     24.4210E-03
            2735            3163     23.5890E-03     24.4210E-03
            2736            3163     23.5890E-03     24.4210E-03
            2737            3164     21.8273E-03     22.6372E-03
            2736            3164     21.8273E-03     22.6372E-03
            2718            3164     21.8273E-03     22.6372E-03
            2719            3164     21.8273E-03     22.6372E-03
            2738            3165     20.1051E-03     20.9033E-03
            2737            3165     20.1051E-03     20.9033E-03
            2719            3165     20.1051E-03     20.9033E-03
            2720            3165     20.1051E-03     20.9033E-03
            2720            3166     18.4099E-03     19.2135E-03
            2721            3166     18.4099E-03     19.2135E-03
            2739            3166     18.4099E-03     19.2135E-03
            2738            3166     18.4099E-03     19.2135E-03
            2721            3167     16.7849E-03     17.5950E-03
            2740            3167     16.7849E-03     17.5950E-03
            2722            3167     16.7849E-03     17.5950E-03
            2739            3167     16.7849E-03     17.5950E-03
            2740            3168     15.2369E-03     16.0367E-03
            2723            3168     15.2369E-03     16.0367E-03
            2722            3168     15.2369E-03     16.0367E-03
            2741            3168     15.2369E-03     16.0367E-03
            2723            3169     13.8128E-03     14.5895E-03
            2741            3169     13.8128E-03     14.5895E-03
            2742            3169     13.8128E-03     14.5895E-03
            2724            3169     13.8128E-03     14.5895E-03
            2724            3170     12.6690E-03     13.2954E-03
            2742            3170     12.6690E-03     13.2954E-03
            2743            3170     12.6690E-03     13.2954E-03
            2725            3170     12.6690E-03     13.2954E-03
            2744            3171     11.8929E-03     12.3339E-03
            2726            3171     11.8929E-03     12.3339E-03
            2725            3171     11.8929E-03     12.3339E-03
            2743            3171     11.8929E-03     12.3339E-03
            2728            3172     44.7286E-03     45.2372E-03
            2745            3172     44.7286E-03     45.2372E-03
            2746            3172     44.7286E-03     45.2372E-03
            2727            3172     44.7286E-03     45.2372E-03
            2746            3173     40.4230E-03     41.2875E-03
            2747            3173     40.4230E-03     41.2875E-03
            2728            3173     40.4230E-03     41.2875E-03
            2729            3173     40.4230E-03     41.2875E-03
            2748            3174     36.8035E-03     37.7802E-03
            2747            3174     36.8035E-03     37.7802E-03
            2730            3174     36.8035E-03     37.7802E-03
            2729            3174     36.8035E-03     37.7802E-03
            2730            3175     33.6439E-03     34.7625E-03
            2748            3175     33.6439E-03     34.7625E-03
            2749            3175     33.6439E-03     34.7625E-03
            2731            3175     33.6439E-03     34.7625E-03
            2731            3176     30.9611E-03     32.2003E-03
            2750            3176     30.9611E-03     32.2003E-03
            2749            3176     30.9611E-03     32.2003E-03
            2732            3176     30.9611E-03     32.2003E-03
            2751            3177     28.7357E-03     29.9744E-03
            2750            3177     28.7357E-03     29.9744E-03
            2732            3177     28.7357E-03     29.9744E-03
            2733            3177     28.7357E-03     29.9744E-03
            2751            3178     26.7099E-03     27.9322E-03
            2733            3178     26.7099E-03     27.9322E-03
            2752            3178     26.7099E-03     27.9322E-03
            2734            3178     26.7099E-03     27.9322E-03
            2752            3179     24.8316E-03     26.0252E-03
            2753            3179     24.8316E-03     26.0252E-03
            2735            3179     24.8316E-03     26.0252E-03
            2734            3179     24.8316E-03     26.0252E-03
            2753            3180     23.0295E-03     24.1966E-03
            2754            3180     23.0295E-03     24.1966E-03
            2736            3180     23.0295E-03     24.1966E-03
            2735            3180     23.0295E-03     24.1966E-03
            2754            3181     21.2868E-03     22.4351E-03
            2736            3181     21.2868E-03     22.4351E-03
            2755            3181     21.2868E-03     22.4351E-03
            2737            3181     21.2868E-03     22.4351E-03
            2755            3182     19.5889E-03     20.7248E-03
            2738            3182     19.5889E-03     20.7248E-03
            2737            3182     19.5889E-03     20.7248E-03
            2756            3182     19.5889E-03     20.7248E-03
            2756            3183     17.9572E-03     19.0829E-03
            2757            3183     17.9572E-03     19.0829E-03
            2739            3183     17.9572E-03     19.0829E-03
            2738            3183     17.9572E-03     19.0829E-03
            2739            3184     16.3987E-03     17.5080E-03
            2758            3184     16.3987E-03     17.5080E-03
            2757            3184     16.3987E-03     17.5080E-03
            2740            3184     16.3987E-03     17.5080E-03
            2741            3185     15.0057E-03     16.0723E-03
            2758            3185     15.0057E-03     16.0723E-03
            2740            3185     15.0057E-03     16.0723E-03
            2759            3185     15.0057E-03     16.0723E-03
            2742            3186     13.7925E-03     14.7566E-03
            2759            3186     13.7925E-03     14.7566E-03
            2760            3186     13.7925E-03     14.7566E-03
            2741            3186     13.7925E-03     14.7566E-03
            2742            3187     12.7570E-03     13.6008E-03
            2760            3187     12.7570E-03     13.6008E-03
            2743            3187     12.7570E-03     13.6008E-03
            2761            3187     12.7570E-03     13.6008E-03
            2761            3188     12.0875E-03     12.6793E-03
            2744            3188     12.0875E-03     12.6793E-03
            2762            3188     12.0875E-03     12.6793E-03
            2743            3188     12.0875E-03     12.6793E-03
            2746            3189     47.7133E-03     48.6575E-03
            2745            3189     47.7133E-03     48.6575E-03
            2764            3189     47.7133E-03     48.6575E-03
            2763            3189     47.7133E-03     48.6575E-03
            2764            3190     42.4855E-03     43.2802E-03
            2747            3190     42.4855E-03     43.2802E-03
            2746            3190     42.4855E-03     43.2802E-03
            2765            3190     42.4855E-03     43.2802E-03
            2748            3191     37.5207E-03     38.6206E-03
            2747            3191     37.5207E-03     38.6206E-03
            2765            3191     37.5207E-03     38.6206E-03
            2766            3191     37.5207E-03     38.6206E-03
            2749            3192     33.5062E-03     34.9151E-03
            2748            3192     33.5062E-03     34.9151E-03
            2766            3192     33.5062E-03     34.9151E-03
            2767            3192     33.5062E-03     34.9151E-03
            2750            3193     30.5854E-03     32.0667E-03
            2767            3193     30.5854E-03     32.0667E-03
            2749            3193     30.5854E-03     32.0667E-03
            2768            3193     30.5854E-03     32.0667E-03
            2751            3194     28.1682E-03     29.6748E-03
            2750            3194     28.1682E-03     29.6748E-03
            2768            3194     28.1682E-03     29.6748E-03
            2769            3194     28.1682E-03     29.6748E-03
            2769            3195     26.0825E-03     27.5926E-03
            2770            3195     26.0825E-03     27.5926E-03
            2751            3195     26.0825E-03     27.5926E-03
            2752            3195     26.0825E-03     27.5926E-03
            2770            3196     24.1867E-03     25.6839E-03
            2753            3196     24.1867E-03     25.6839E-03
            2771            3196     24.1867E-03     25.6839E-03
            2752            3196     24.1867E-03     25.6839E-03
            2754            3197     22.3977E-03     23.8872E-03
            2771            3197     22.3977E-03     23.8872E-03
            2772            3197     22.3977E-03     23.8872E-03
            2753            3197     22.3977E-03     23.8872E-03
            2772            3198     20.6841E-03     22.1628E-03
            2755            3198     20.6841E-03     22.1628E-03
            2754            3198     20.6841E-03     22.1628E-03
            2773            3198     20.6841E-03     22.1628E-03
            2755            3199     19.0285E-03     20.4998E-03
            2773            3199     19.0285E-03     20.4998E-03
            2756            3199     19.0285E-03     20.4998E-03
            2774            3199     19.0285E-03     20.4998E-03
            2756            3200     17.4434E-03     18.9005E-03
            2774            3200     17.4434E-03     18.9005E-03
            2757            3200     17.4434E-03     18.9005E-03
            2775            3200     17.4434E-03     18.9005E-03
            2775            3201     15.9699E-03     17.4029E-03
            2776            3201     15.9699E-03     17.4029E-03
            2758            3201     15.9699E-03     17.4029E-03
            2757            3201     15.9699E-03     17.4029E-03
            2759            3202     14.6505E-03     16.0306E-03
            2777            3202     14.6505E-03     16.0306E-03
            2776            3202     14.6505E-03     16.0306E-03
            2758            3202     14.6505E-03     16.0306E-03
            2760            3203     13.6897E-03     14.9391E-03
            2777            3203     13.6897E-03     14.9391E-03
            2778            3203     13.6897E-03     14.9391E-03
            2759            3203     13.6897E-03     14.9391E-03
            2779            3204     13.0149E-03     14.0388E-03
            2760            3204     13.0149E-03     14.0388E-03
            2778            3204     13.0149E-03     14.0388E-03
            2761            3204     13.0149E-03     14.0388E-03
            2779            3205     12.3964E-03     13.2369E-03
            2762            3205     12.3964E-03     13.2369E-03
            2761            3205     12.3964E-03     13.2369E-03
            2780            3205     12.3964E-03     13.2369E-03
            2763            3206     50.9996E-03     51.2314E-03
            2764            3206     50.9996E-03     51.2314E-03
            2782            3206     50.9996E-03     51.2314E-03
            2781            3206     50.9996E-03     51.2314E-03
            2765            3207     43.3457E-03     44.3821E-03
            2764            3207     43.3457E-03     44.3821E-03
            2783            3207     43.3457E-03     44.3821E-03
            2782            3207     43.3457E-03     44.3821E-03
            2783            3208     37.0123E-03     38.6048E-03
            2784            3208     37.0123E-03     38.6048E-03
            2765            3208     37.0123E-03     38.6048E-03
            2766            3208     37.0123E-03     38.6048E-03
            2766            3209     32.9844E-03     34.6762E-03
            2785            3209     32.9844E-03     34.6762E-03
            2767            3209     32.9844E-03     34.6762E-03
            2784            3209     32.9844E-03     34.6762E-03
            2786            3210     29.9560E-03     31.6823E-03
            2785            3210     29.9560E-03     31.6823E-03
            2768            3210     29.9560E-03     31.6823E-03
            2767            3210     29.9560E-03     31.6823E-03
            2768            3211     27.5061E-03     29.2685E-03
            2786            3211     27.5061E-03     29.2685E-03
            2769            3211     27.5061E-03     29.2685E-03
            2787            3211     27.5061E-03     29.2685E-03
            2770            3212     25.4246E-03     27.1998E-03
            2769            3212     25.4246E-03     27.1998E-03
            2788            3212     25.4246E-03     27.1998E-03
            2787            3212     25.4246E-03     27.1998E-03
            2771            3213     23.5335E-03     25.3283E-03
            2789            3213     23.5335E-03     25.3283E-03
            2788            3213     23.5335E-03     25.3283E-03
            2770            3213     23.5335E-03     25.3283E-03
            2789            3214     21.7767E-03     23.5805E-03
            2771            3214     21.7767E-03     23.5805E-03
            2790            3214     21.7767E-03     23.5805E-03
            2772            3214     21.7767E-03     23.5805E-03
            2791            3215     20.0913E-03     21.9043E-03
            2773            3215     20.0913E-03     21.9043E-03
            2772            3215     20.0913E-03     21.9043E-03
            2790            3215     20.0913E-03     21.9043E-03
            2774            3216     18.4794E-03     20.2913E-03
            2773            3216     18.4794E-03     20.2913E-03
            2792            3216     18.4794E-03     20.2913E-03
            2791            3216     18.4794E-03     20.2913E-03
            2774            3217     16.9349E-03     18.7413E-03
            2792            3217     16.9349E-03     18.7413E-03
            2775            3217     16.9349E-03     18.7413E-03
            2793            3217     16.9349E-03     18.7413E-03
            2776            3218     15.5112E-03     17.2927E-03
            2793            3218     15.5112E-03     17.2927E-03
            2794            3218     15.5112E-03     17.2927E-03
            2775            3218     15.5112E-03     17.2927E-03
            2776            3219     14.2637E-03     16.0022E-03
            2777            3219     14.2637E-03     16.0022E-03
            2794            3219     14.2637E-03     16.0022E-03
            2795            3219     14.2637E-03     16.0022E-03
            2778            3220     13.3280E-03     14.9783E-03
            2795            3220     13.3280E-03     14.9783E-03
            2777            3220     13.3280E-03     14.9783E-03
            2796            3220     13.3280E-03     14.9783E-03
            2778            3221     13.1628E-03     14.5525E-03
            2796            3221     13.1628E-03     14.5525E-03
            2797            3221     13.1628E-03     14.5525E-03
            2779            3221     13.1628E-03     14.5525E-03
            2798            3222     13.2754E-03     14.2247E-03
            2779            3222     13.2754E-03     14.2247E-03
            2797            3222     13.2754E-03     14.2247E-03
            2780            3222     13.2754E-03     14.2247E-03
            2799            3223     51.9055E-03     53.7349E-03
            2781            3223     51.9055E-03     53.7349E-03
            2782            3223     51.9055E-03     53.7349E-03
            2800            3223     51.9055E-03     53.7349E-03
            2783            3224     41.8724E-03     44.0585E-03
            2782            3224     41.8724E-03     44.0585E-03
            2800            3224     41.8724E-03     44.0585E-03
            2801            3224     41.8724E-03     44.0585E-03
            2784            3225     36.1122E-03     38.0990E-03
            2802            3225     36.1122E-03     38.0990E-03
            2801            3225     36.1122E-03     38.0990E-03
            2783            3225     36.1122E-03     38.0990E-03
            2785            3226     32.3020E-03     34.2185E-03
            2802            3226     32.3020E-03     34.2185E-03
            2803            3226     32.3020E-03     34.2185E-03
            2784            3226     32.3020E-03     34.2185E-03
            2786            3227     29.3090E-03     31.2481E-03
            2804            3227     29.3090E-03     31.2481E-03
            2803            3227     29.3090E-03     31.2481E-03
            2785            3227     29.3090E-03     31.2481E-03
            2787            3228     26.9204E-03     28.9008E-03
            2786            3228     26.9204E-03     28.9008E-03
            2805            3228     26.9204E-03     28.9008E-03
            2804            3228     26.9204E-03     28.9008E-03
            2806            3229     24.8307E-03     26.8701E-03
            2788            3229     24.8307E-03     26.8701E-03
            2787            3229     24.8307E-03     26.8701E-03
            2805            3229     24.8307E-03     26.8701E-03
            2806            3230     22.9675E-03     25.0557E-03
            2788            3230     22.9675E-03     25.0557E-03
            2789            3230     22.9675E-03     25.0557E-03
            2807            3230     22.9675E-03     25.0557E-03
            2789            3231     21.2198E-03     23.3495E-03
            2807            3231     21.2198E-03     23.3495E-03
            2808            3231     21.2198E-03     23.3495E-03
            2790            3231     21.2198E-03     23.3495E-03
            2808            3232     19.5711E-03     21.7272E-03
            2791            3232     19.5711E-03     21.7272E-03
            2790            3232     19.5711E-03     21.7272E-03
            2809            3232     19.5711E-03     21.7272E-03
            2810            3233     17.9843E-03     20.1550E-03
            2792            3233     17.9843E-03     20.1550E-03
            2809            3233     17.9843E-03     20.1550E-03
            2791            3233     17.9843E-03     20.1550E-03
            2811            3234     16.4894E-03     18.6572E-03
            2793            3234     16.4894E-03     18.6572E-03
            2792            3234     16.4894E-03     18.6572E-03
            2810            3234     16.4894E-03     18.6572E-03
            2812            3235     15.0847E-03     17.2392E-03
            2811            3235     15.0847E-03     17.2392E-03
            2793            3235     15.0847E-03     17.2392E-03
            2794            3235     15.0847E-03     17.2392E-03
            2794            3236     13.8848E-03     16.0065E-03
            2812            3236     13.8848E-03     16.0065E-03
            2813            3236     13.8848E-03     16.0065E-03
            2795            3236     13.8848E-03     16.0065E-03
            2814            3237     12.9228E-03     15.0060E-03
            2813            3237     12.9228E-03     15.0060E-03
            2796            3237     12.9228E-03     15.0060E-03
            2795            3237     12.9228E-03     15.0060E-03
            2796            3238     12.6877E-03     14.7023E-03
            2814            3238     12.6877E-03     14.7023E-03
            2797            3238     12.6877E-03     14.7023E-03
            2815            3238     12.6877E-03     14.7023E-03
            2798            3239     13.9185E-03     15.6668E-03
            2797            3239     13.9185E-03     15.6668E-03
            2815            3239     13.9185E-03     15.6668E-03
            2816            3239     13.9185E-03     15.6668E-03
            2817            3240     52.0118E-03     52.9677E-03
            2818            3240     52.0118E-03     52.9677E-03
            2800            3240     52.0118E-03     52.9677E-03
            2799            3240     52.0118E-03     52.9677E-03
            2800            3241     47.8110E-03     47.7924E-03
            2818            3241     47.8110E-03     47.7924E-03
            2801            3241     47.8110E-03     47.7924E-03
            2819            3241     47.8110E-03     47.7924E-03
            2801            3242     45.1818E-03     45.0616E-03
            2820            3242     45.1818E-03     45.0616E-03
            2802            3242     45.1818E-03     45.0616E-03
            2819            3242     45.1818E-03     45.0616E-03
            2803            3243     42.7045E-03     42.7549E-03
            2802            3243     42.7045E-03     42.7549E-03
            2820            3243     42.7045E-03     42.7549E-03
            2821            3243     42.7045E-03     42.7549E-03
            2804            3244     40.4929E-03     40.6806E-03
            2822            3244     40.4929E-03     40.6806E-03
            2821            3244     40.4929E-03     40.6806E-03
            2803            3244     40.4929E-03     40.6806E-03
            2822            3245     38.3132E-03     38.6939E-03
            2804            3245     38.3132E-03     38.6939E-03
            2805            3245     38.3132E-03     38.6939E-03
            2823            3245     38.3132E-03     38.6939E-03
            2824            3246     36.1992E-03     36.7064E-03
            2823            3246     36.1992E-03     36.7064E-03
            2805            3246     36.1992E-03     36.7064E-03
            2806            3246     36.1992E-03     36.7064E-03
            2825            3247     34.0809E-03     34.7145E-03
            2806            3247     34.0809E-03     34.7145E-03
            2807            3247     34.0809E-03     34.7145E-03
            2824            3247     34.0809E-03     34.7145E-03
            2807            3248     31.9774E-03     32.6882E-03
            2826            3248     31.9774E-03     32.6882E-03
            2808            3248     31.9774E-03     32.6882E-03
            2825            3248     31.9774E-03     32.6882E-03
            2826            3249     29.8741E-03     30.6481E-03
            2808            3249     29.8741E-03     30.6481E-03
            2827            3249     29.8741E-03     30.6481E-03
            2809            3249     29.8741E-03     30.6481E-03
            2810            3250     27.7938E-03     28.5954E-03
            2809            3250     27.7938E-03     28.5954E-03
            2828            3250     27.7938E-03     28.5954E-03
            2827            3250     27.7938E-03     28.5954E-03
            2811            3251     25.7530E-03     26.5620E-03
            2828            3251     25.7530E-03     26.5620E-03
            2810            3251     25.7530E-03     26.5620E-03
            2829            3251     25.7530E-03     26.5620E-03
            2812            3252     23.7962E-03     24.5754E-03
            2811            3252     23.7962E-03     24.5754E-03
            2830            3252     23.7962E-03     24.5754E-03
            2829            3252     23.7962E-03     24.5754E-03
            2813            3253     21.9766E-03     22.7076E-03
            2830            3253     21.9766E-03     22.7076E-03
            2831            3253     21.9766E-03     22.7076E-03
            2812            3253     21.9766E-03     22.7076E-03
            2813            3254     20.4130E-03     21.0525E-03
            2814            3254     20.4130E-03     21.0525E-03
            2831            3254     20.4130E-03     21.0525E-03
            2832            3254     20.4130E-03     21.0525E-03
            2815            3255     19.2492E-03     19.8983E-03
            2833            3255     19.2492E-03     19.8983E-03
            2832            3255     19.2492E-03     19.8983E-03
            2814            3255     19.2492E-03     19.8983E-03
            2834            3256     19.1370E-03     20.3589E-03
            2816            3256     19.1370E-03     20.3589E-03
            2833            3256     19.1370E-03     20.3589E-03
            2815            3256     19.1370E-03     20.3589E-03
            2817            3257     55.2184E-03     53.6291E-03
            2818            3257     55.2184E-03     53.6291E-03
            2836            3257     55.2184E-03     53.6291E-03
            2835            3257     55.2184E-03     53.6291E-03
            2837            3258     56.2084E-03     54.7387E-03
            2818            3258     56.2084E-03     54.7387E-03
            2819            3258     56.2084E-03     54.7387E-03
            2836            3258     56.2084E-03     54.7387E-03
            2838            3259     56.0253E-03     54.5659E-03
            2819            3259     56.0253E-03     54.5659E-03
            2820            3259     56.0253E-03     54.5659E-03
            2837            3259     56.0253E-03     54.5659E-03
            2820            3260     54.8615E-03     53.5492E-03
            2838            3260     54.8615E-03     53.5492E-03
            2839            3260     54.8615E-03     53.5492E-03
            2821            3260     54.8615E-03     53.5492E-03
            2839            3261     53.1483E-03     51.9923E-03
            2840            3261     53.1483E-03     51.9923E-03
            2821            3261     53.1483E-03     51.9923E-03
            2822            3261     53.1483E-03     51.9923E-03
            2822            3262     51.0455E-03     50.0491E-03
            2841            3262     51.0455E-03     50.0491E-03
            2823            3262     51.0455E-03     50.0491E-03
            2840            3262     51.0455E-03     50.0491E-03
            2823            3263     48.6910E-03     47.8288E-03
            2842            3263     48.6910E-03     47.8288E-03
            2841            3263     48.6910E-03     47.8288E-03
            2824            3263     48.6910E-03     47.8288E-03
            2843            3264     46.1641E-03     45.4069E-03
            2824            3264     46.1641E-03     45.4069E-03
            2842            3264     46.1641E-03     45.4069E-03
            2825            3264     46.1641E-03     45.4069E-03
            2843            3265     43.5218E-03     42.8489E-03
            2844            3265     43.5218E-03     42.8489E-03
            2826            3265     43.5218E-03     42.8489E-03
            2825            3265     43.5218E-03     42.8489E-03
            2827            3266     40.8181E-03     40.1972E-03
            2844            3266     40.8181E-03     40.1972E-03
            2845            3266     40.8181E-03     40.1972E-03
            2826            3266     40.8181E-03     40.1972E-03
            2827            3267     38.0780E-03     37.4919E-03
            2846            3267     38.0780E-03     37.4919E-03
            2845            3267     38.0780E-03     37.4919E-03
            2828            3267     38.0780E-03     37.4919E-03
            2846            3268     35.3490E-03     34.7674E-03
            2828            3268     35.3490E-03     34.7674E-03
            2847            3268     35.3490E-03     34.7674E-03
            2829            3268     35.3490E-03     34.7674E-03
            2847            3269     32.6472E-03     32.0557E-03
            2829            3269     32.6472E-03     32.0557E-03
            2848            3269     32.6472E-03     32.0557E-03
            2830            3269     32.6472E-03     32.0557E-03
            2849            3270     30.0429E-03     29.4341E-03
            2831            3270     30.0429E-03     29.4341E-03
            2848            3270     30.0429E-03     29.4341E-03
            2830            3270     30.0429E-03     29.4341E-03
            2849            3271     27.5285E-03     26.9627E-03
            2831            3271     27.5285E-03     26.9627E-03
            2832            3271     27.5285E-03     26.9627E-03
            2850            3271     27.5285E-03     26.9627E-03
            2850            3272     25.2022E-03     25.0722E-03
            2832            3272     25.2022E-03     25.0722E-03
            2851            3272     25.2022E-03     25.0722E-03
            2833            3272     25.2022E-03     25.0722E-03
            2852            3273     22.7786E-03     24.1466E-03
            2833            3273     22.7786E-03     24.1466E-03
            2851            3273     22.7786E-03     24.1466E-03
            2834            3273     22.7786E-03     24.1466E-03
            2836            3274     59.5624E-03     59.7407E-03
            2854            3274     59.5624E-03     59.7407E-03
            2835            3274     59.5624E-03     59.7407E-03
            2853            3274     59.5624E-03     59.7407E-03
            2837            3275     59.0597E-03     59.3544E-03
            2855            3275     59.0597E-03     59.3544E-03
            2854            3275     59.0597E-03     59.3544E-03
            2836            3275     59.0597E-03     59.3544E-03
            2856            3276     58.6801E-03     58.7174E-03
            2838            3276     58.6801E-03     58.7174E-03
            2855            3276     58.6801E-03     58.7174E-03
            2837            3276     58.6801E-03     58.7174E-03
            2856            3277     57.3559E-03     57.1872E-03
            2839            3277     57.3559E-03     57.1872E-03
            2857            3277     57.3559E-03     57.1872E-03
            2838            3277     57.3559E-03     57.1872E-03
            2840            3278     55.3734E-03     55.1113E-03
            2839            3278     55.3734E-03     55.1113E-03
            2858            3278     55.3734E-03     55.1113E-03
            2857            3278     55.3734E-03     55.1113E-03
            2859            3279     52.9642E-03     52.6726E-03
            2840            3279     52.9642E-03     52.6726E-03
            2841            3279     52.9642E-03     52.6726E-03
            2858            3279     52.9642E-03     52.6726E-03
            2860            3280     50.2878E-03     49.9937E-03
            2842            3280     50.2878E-03     49.9937E-03
            2841            3280     50.2878E-03     49.9937E-03
            2859            3280     50.2878E-03     49.9937E-03
            2861            3281     47.4453E-03     47.1713E-03
            2843            3281     47.4453E-03     47.1713E-03
            2860            3281     47.4453E-03     47.1713E-03
            2842            3281     47.4453E-03     47.1713E-03
            2861            3282     44.5194E-03     44.2590E-03
            2843            3282     44.5194E-03     44.2590E-03
            2862            3282     44.5194E-03     44.2590E-03
            2844            3282     44.5194E-03     44.2590E-03
            2863            3283     41.5422E-03     41.3010E-03
            2845            3283     41.5422E-03     41.3010E-03
            2862            3283     41.5422E-03     41.3010E-03
            2844            3283     41.5422E-03     41.3010E-03
            2845            3284     38.5535E-03     38.3245E-03
            2864            3284     38.5535E-03     38.3245E-03
            2846            3284     38.5535E-03     38.3245E-03
            2863            3284     38.5535E-03     38.3245E-03
            2847            3285     35.5611E-03     35.3502E-03
            2865            3285     35.5611E-03     35.3502E-03
            2864            3285     35.5611E-03     35.3502E-03
            2846            3285     35.5611E-03     35.3502E-03
            2866            3286     32.5747E-03     32.4108E-03
            2865            3286     32.5747E-03     32.4108E-03
            2847            3286     32.5747E-03     32.4108E-03
            2848            3286     32.5747E-03     32.4108E-03
            2849            3287     29.5947E-03     29.5476E-03
            2848            3287     29.5947E-03     29.5476E-03
            2867            3287     29.5947E-03     29.5476E-03
            2866            3287     29.5947E-03     29.5476E-03
            2850            3288     26.5839E-03     26.8806E-03
            2849            3288     26.5839E-03     26.8806E-03
            2868            3288     26.5839E-03     26.8806E-03
            2867            3288     26.5839E-03     26.8806E-03
            2869            3289     23.4935E-03     24.7215E-03
            2850            3289     23.4935E-03     24.7215E-03
            2851            3289     23.4935E-03     24.7215E-03
            2868            3289     23.4935E-03     24.7215E-03
            2870            3290     20.7819E-03     22.6014E-03
            2852            3290     20.7819E-03     22.6014E-03
            2851            3290     20.7819E-03     22.6014E-03
            2869            3290     20.7819E-03     22.6014E-03
            2871            3291     64.0809E-03     64.6905E-03
            2853            3291     64.0809E-03     64.6905E-03
            2854            3291     64.0809E-03     64.6905E-03
            2872            3291     64.0809E-03     64.6905E-03
            2873            3292     62.3486E-03     63.3793E-03
            2854            3292     62.3486E-03     63.3793E-03
            2872            3292     62.3486E-03     63.3793E-03
            2855            3292     62.3486E-03     63.3793E-03
            2873            3293     61.1254E-03     62.0436E-03
            2856            3293     61.1254E-03     62.0436E-03
            2855            3293     61.1254E-03     62.0436E-03
            2874            3293     61.1254E-03     62.0436E-03
            2856            3294     59.4168E-03     60.1301E-03
            2857            3294     59.4168E-03     60.1301E-03
            2874            3294     59.4168E-03     60.1301E-03
            2875            3294     59.4168E-03     60.1301E-03
            2875            3295     57.1355E-03     57.6423E-03
            2876            3295     57.1355E-03     57.6423E-03
            2858            3295     57.1355E-03     57.6423E-03
            2857            3295     57.1355E-03     57.6423E-03
            2859            3296     54.4422E-03     54.8110E-03
            2876            3296     54.4422E-03     54.8110E-03
            2858            3296     54.4422E-03     54.8110E-03
            2877            3296     54.4422E-03     54.8110E-03
            2878            3297     51.4920E-03     51.7783E-03
            2860            3297     51.4920E-03     51.7783E-03
            2859            3297     51.4920E-03     51.7783E-03
            2877            3297     51.4920E-03     51.7783E-03
            2861            3298     48.4110E-03     48.6368E-03
            2860            3298     48.4110E-03     48.6368E-03
            2879            3298     48.4110E-03     48.6368E-03
            2878            3298     48.4110E-03     48.6368E-03
            2879            3299     45.2518E-03     45.4516E-03
            2862            3299     45.2518E-03     45.4516E-03
            2880            3299     45.2518E-03     45.4516E-03
            2861            3299     45.2518E-03     45.4516E-03
            2880            3300     42.0741E-03     42.2565E-03
            2862            3300     42.0741E-03     42.2565E-03
            2881            3300     42.0741E-03     42.2565E-03
            2863            3300     42.0741E-03     42.2565E-03
            2863            3301     38.8823E-03     39.0721E-03
            2864            3301     38.8823E-03     39.0721E-03
            2881            3301     38.8823E-03     39.0721E-03
            2882            3301     38.8823E-03     39.0721E-03
            2882            3302     35.6872E-03     35.9111E-03
            2865            3302     35.6872E-03     35.9111E-03
            2864            3302     35.6872E-03     35.9111E-03
            2883            3302     35.6872E-03     35.9111E-03
            2883            3303     32.4762E-03     32.7969E-03
            2865            3303     32.4762E-03     32.7969E-03
            2866            3303     32.4762E-03     32.7969E-03
            2884            3303     32.4762E-03     32.7969E-03
            2866            3304     29.2152E-03     29.7339E-03
            2884            3304     29.2152E-03     29.7339E-03
            2867            3304     29.2152E-03     29.7339E-03
            2885            3304     29.2152E-03     29.7339E-03
            2867            3305     25.8800E-03     26.8590E-03
            2885            3305     25.8800E-03     26.8590E-03
            2868            3305     25.8800E-03     26.8590E-03
            2886            3305     25.8800E-03     26.8590E-03
            2886            3306     22.5948E-03     23.9915E-03
            2887            3306     22.5948E-03     23.9915E-03
            2869            3306     22.5948E-03     23.9915E-03
            2868            3306     22.5948E-03     23.9915E-03
            2870            3307     19.8692E-03     20.9690E-03
            2887            3307     19.8692E-03     20.9690E-03
            2888            3307     19.8692E-03     20.9690E-03
            2869            3307     19.8692E-03     20.9690E-03
            2872            3308     68.1561E-03     68.8833E-03
            2889            3308     68.1561E-03     68.8833E-03
            2890            3308     68.1561E-03     68.8833E-03
            2871            3308     68.1561E-03     68.8833E-03
            2890            3309     65.6785E-03     66.8650E-03
            2873            3309     65.6785E-03     66.8650E-03
            2872            3309     65.6785E-03     66.8650E-03
            2891            3309     65.6785E-03     66.8650E-03
            2892            3310     63.4487E-03     64.8238E-03
            2891            3310     63.4487E-03     64.8238E-03
            2874            3310     63.4487E-03     64.8238E-03
            2873            3310     63.4487E-03     64.8238E-03
            2875            3311     61.1276E-03     62.3757E-03
            2874            3311     61.1276E-03     62.3757E-03
            2893            3311     61.1276E-03     62.3757E-03
            2892            3311     61.1276E-03     62.3757E-03
            2876            3312     58.4162E-03     59.5053E-03
            2894            3312     58.4162E-03     59.5053E-03
            2893            3312     58.4162E-03     59.5053E-03
            2875            3312     58.4162E-03     59.5053E-03
            2877            3313     55.4051E-03     56.3378E-03
            2876            3313     55.4051E-03     56.3378E-03
            2895            3313     55.4051E-03     56.3378E-03
            2894            3313     55.4051E-03     56.3378E-03
            2878            3314     52.2202E-03     53.0199E-03
            2896            3314     52.2202E-03     53.0199E-03
            2877            3314     52.2202E-03     53.0199E-03
            2895            3314     52.2202E-03     53.0199E-03
            2879            3315     48.9302E-03     49.6460E-03
            2897            3315     48.9302E-03     49.6460E-03
            2878            3315     48.9302E-03     49.6460E-03
            2896            3315     48.9302E-03     49.6460E-03
            2879            3316     45.6196E-03     46.2690E-03
            2897            3316     45.6196E-03     46.2690E-03
            2898            3316     45.6196E-03     46.2690E-03
            2880            3316     45.6196E-03     46.2690E-03
            2898            3317     42.2922E-03     42.9130E-03
            2881            3317     42.2922E-03     42.9130E-03
            2880            3317     42.2922E-03     42.9130E-03
            2899            3317     42.2922E-03     42.9130E-03
            2900            3318     38.9769E-03     39.5940E-03
            2881            3318     38.9769E-03     39.5940E-03
            2899            3318     38.9769E-03     39.5940E-03
            2882            3318     38.9769E-03     39.5940E-03
            2901            3319     35.6544E-03     36.3197E-03
            2882            3319     35.6544E-03     36.3197E-03
            2883            3319     35.6544E-03     36.3197E-03
            2900            3319     35.6544E-03     36.3197E-03
            2883            3320     32.3130E-03     33.0792E-03
            2901            3320     32.3130E-03     33.0792E-03
            2902            3320     32.3130E-03     33.0792E-03
            2884            3320     32.3130E-03     33.0792E-03
            2884            3321     28.9201E-03     29.9097E-03
            2885            3321     28.9201E-03     29.9097E-03
            2902            3321     28.9201E-03     29.9097E-03
            2903            3321     28.9201E-03     29.9097E-03
            2903            3322     25.4875E-03     26.7363E-03
            2886            3322     25.4875E-03     26.7363E-03
            2885            3322     25.4875E-03     26.7363E-03
            2904            3322     25.4875E-03     26.7363E-03
            2905            3323     22.1784E-03     23.4708E-03
            2887            3323     22.1784E-03     23.4708E-03
            2886            3323     22.1784E-03     23.4708E-03
            2904            3323     22.1784E-03     23.4708E-03
            2887            3324     19.2457E-03     20.5832E-03
            2888            3324     19.2457E-03     20.5832E-03
            2906            3324     19.2457E-03     20.5832E-03
            2905            3324     19.2457E-03     20.5832E-03
            2908            3325     71.9458E-03     72.8060E-03
            2889            3325     71.9458E-03     72.8060E-03
            2907            3325     71.9458E-03     72.8060E-03
            2890            3325     71.9458E-03     72.8060E-03
            2909            3326     68.6433E-03     69.9754E-03
            2908            3326     68.6433E-03     69.9754E-03
            2891            3326     68.6433E-03     69.9754E-03
            2890            3326     68.6433E-03     69.9754E-03
            2910            3327     65.6099E-03     67.1295E-03
            2891            3327     65.6099E-03     67.1295E-03
            2892            3327     65.6099E-03     67.1295E-03
            2909            3327     65.6099E-03     67.1295E-03
            2910            3328     62.4678E-03     64.0529E-03
            2892            3328     62.4678E-03     64.0529E-03
            2911            3328     62.4678E-03     64.0529E-03
            2893            3328     62.4678E-03     64.0529E-03
            2894            3329     59.2210E-03     60.7155E-03
            2912            3329     59.2210E-03     60.7155E-03
            2911            3329     59.2210E-03     60.7155E-03
            2893            3329     59.2210E-03     60.7155E-03
            2913            3330     55.8585E-03     57.2179E-03
            2895            3330     55.8585E-03     57.2179E-03
            2912            3330     55.8585E-03     57.2179E-03
            2894            3330     55.8585E-03     57.2179E-03
            2913            3331     52.4206E-03     53.6710E-03
            2896            3331     52.4206E-03     53.6710E-03
            2895            3331     52.4206E-03     53.6710E-03
            2914            3331     52.4206E-03     53.6710E-03
            2896            3332     48.9955E-03     50.1398E-03
            2914            3332     48.9955E-03     50.1398E-03
            2897            3332     48.9955E-03     50.1398E-03
            2915            3332     48.9955E-03     50.1398E-03
            2916            3333     45.5676E-03     46.6438E-03
            2898            3333     45.5676E-03     46.6438E-03
            2915            3333     45.5676E-03     46.6438E-03
            2897            3333     45.5676E-03     46.6438E-03
            2917            3334     42.1733E-03     43.2048E-03
            2898            3334     42.1733E-03     43.2048E-03
            2899            3334     42.1733E-03     43.2048E-03
            2916            3334     42.1733E-03     43.2048E-03
            2918            3335     38.7913E-03     39.8194E-03
            2899            3335     38.7913E-03     39.8194E-03
            2900            3335     38.7913E-03     39.8194E-03
            2917            3335     38.7913E-03     39.8194E-03
            2901            3336     35.4335E-03     36.4934E-03
            2900            3336     35.4335E-03     36.4934E-03
            2919            3336     35.4335E-03     36.4934E-03
            2918            3336     35.4335E-03     36.4934E-03
            2902            3337     32.0645E-03     33.2222E-03
            2920            3337     32.0645E-03     33.2222E-03
            2919            3337     32.0645E-03     33.2222E-03
            2901            3337     32.0645E-03     33.2222E-03
            2921            3338     28.6791E-03     29.9741E-03
            2903            3338     28.6791E-03     29.9741E-03
            2902            3338     28.6791E-03     29.9741E-03
            2920            3338     28.6791E-03     29.9741E-03
            2921            3339     25.2961E-03     26.6896E-03
            2904            3339     25.2961E-03     26.6896E-03
            2903            3339     25.2961E-03     26.6896E-03
            2922            3339     25.2961E-03     26.6896E-03
            2922            3340     21.9589E-03     23.4539E-03
            2904            3340     21.9589E-03     23.4539E-03
            2923            3340     21.9589E-03     23.4539E-03
            2905            3340     21.9589E-03     23.4539E-03
            2905            3341     19.0231E-03     20.3349E-03
            2924            3341     19.0231E-03     20.3349E-03
            2923            3341     19.0231E-03     20.3349E-03
            2906            3341     19.0231E-03     20.3349E-03
            2925            3342     75.4466E-03     76.5369E-03
            2907            3342     75.4466E-03     76.5369E-03
            2926            3342     75.4466E-03     76.5369E-03
            2908            3342     75.4466E-03     76.5369E-03
            2908            3343     71.3996E-03     72.7487E-03
            2927            3343     71.3996E-03     72.7487E-03
            2909            3343     71.3996E-03     72.7487E-03
            2926            3343     71.3996E-03     72.7487E-03
            2928            3344     67.3299E-03     69.0159E-03
            2909            3344     67.3299E-03     69.0159E-03
            2910            3344     67.3299E-03     69.0159E-03
            2927            3344     67.3299E-03     69.0159E-03
            2910            3345     63.3843E-03     65.1649E-03
            2929            3345     63.3843E-03     65.1649E-03
            2911            3345     63.3843E-03     65.1649E-03
            2928            3345     63.3843E-03     65.1649E-03
            2911            3346     59.5231E-03     61.2782E-03
            2930            3346     59.5231E-03     61.2782E-03
            2929            3346     59.5231E-03     61.2782E-03
            2912            3346     59.5231E-03     61.2782E-03
            2931            3347     55.7573E-03     57.4658E-03
            2930            3347     55.7573E-03     57.4658E-03
            2912            3347     55.7573E-03     57.4658E-03
            2913            3347     55.7573E-03     57.4658E-03
            2932            3348     52.1494E-03     53.7554E-03
            2913            3348     52.1494E-03     53.7554E-03
            2914            3348     52.1494E-03     53.7554E-03
            2931            3348     52.1494E-03     53.7554E-03
            2914            3349     48.6054E-03     50.1278E-03
            2933            3349     48.6054E-03     50.1278E-03
            2932            3349     48.6054E-03     50.1278E-03
            2915            3349     48.6054E-03     50.1278E-03
            2915            3350     45.1410E-03     46.5939E-03
            2934            3350     45.1410E-03     46.5939E-03
            2933            3350     45.1410E-03     46.5939E-03
            2916            3350     45.1410E-03     46.5939E-03
            2934            3351     41.7199E-03     43.1307E-03
            2917            3351     41.7199E-03     43.1307E-03
            2935            3351     41.7199E-03     43.1307E-03
            2916            3351     41.7199E-03     43.1307E-03
            2935            3352     38.3501E-03     39.7463E-03
            2917            3352     38.3501E-03     39.7463E-03
            2918            3352     38.3501E-03     39.7463E-03
            2936            3352     38.3501E-03     39.7463E-03
            2936            3353     35.0075E-03     36.4254E-03
            2918            3353     35.0075E-03     36.4254E-03
            2937            3353     35.0075E-03     36.4254E-03
            2919            3353     35.0075E-03     36.4254E-03
            2920            3354     31.7173E-03     33.1873E-03
            2937            3354     31.7173E-03     33.1873E-03
            2938            3354     31.7173E-03     33.1873E-03
            2919            3354     31.7173E-03     33.1873E-03
            2939            3355     28.4451E-03     29.9798E-03
            2920            3355     28.4451E-03     29.9798E-03
            2921            3355     28.4451E-03     29.9798E-03
            2938            3355     28.4451E-03     29.9798E-03
            2940            3356     25.1782E-03     26.7923E-03
            2922            3356     25.1782E-03     26.7923E-03
            2939            3356     25.1782E-03     26.7923E-03
            2921            3356     25.1782E-03     26.7923E-03
            2923            3357     21.9941E-03     23.5850E-03
            2940            3357     21.9941E-03     23.5850E-03
            2922            3357     21.9941E-03     23.5850E-03
            2941            3357     21.9941E-03     23.5850E-03
            2924            3358     18.9415E-03     20.4607E-03
            2941            3358     18.9415E-03     20.4607E-03
            2942            3358     18.9415E-03     20.4607E-03
            2923            3358     18.9415E-03     20.4607E-03
            2926            3359     78.9734E-03     80.0043E-03
            2944            3359     78.9734E-03     80.0043E-03
            2943            3359     78.9734E-03     80.0043E-03
            2925            3359     78.9734E-03     80.0043E-03
            2944            3360     73.6806E-03     75.2832E-03
            2926            3360     73.6806E-03     75.2832E-03
            2945            3360     73.6806E-03     75.2832E-03
            2927            3360     73.6806E-03     75.2832E-03
            2927            3361     68.5891E-03     70.3438E-03
            2945            3361     68.5891E-03     70.3438E-03
            2928            3361     68.5891E-03     70.3438E-03
            2946            3361     68.5891E-03     70.3438E-03
            2947            3362     63.6828E-03     65.5683E-03
            2946            3362     63.6828E-03     65.5683E-03
            2928            3362     63.6828E-03     65.5683E-03
            2929            3362     63.6828E-03     65.5683E-03
            2948            3363     59.1740E-03     61.1750E-03
            2947            3363     59.1740E-03     61.1750E-03
            2929            3363     59.1740E-03     61.1750E-03
            2930            3363     59.1740E-03     61.1750E-03
            2931            3364     55.1816E-03     57.1409E-03
            2949            3364     55.1816E-03     57.1409E-03
            2948            3364     55.1816E-03     57.1409E-03
            2930            3364     55.1816E-03     57.1409E-03
            2950            3365     51.4247E-03     53.3279E-03
            2932            3365     51.4247E-03     53.3279E-03
            2949            3365     51.4247E-03     53.3279E-03
            2931            3365     51.4247E-03     53.3279E-03
            2950            3366     47.8560E-03     49.6979E-03
            2951            3366     47.8560E-03     49.6979E-03
            2933            3366     47.8560E-03     49.6979E-03
            2932            3366     47.8560E-03     49.6979E-03
            2933            3367     44.3932E-03     46.1806E-03
            2934            3367     44.3932E-03     46.1806E-03
            2952            3367     44.3932E-03     46.1806E-03
            2951            3367     44.3932E-03     46.1806E-03
            2934            3368     41.0081E-03     42.7623E-03
            2952            3368     41.0081E-03     42.7623E-03
            2935            3368     41.0081E-03     42.7623E-03
            2953            3368     41.0081E-03     42.7623E-03
            2936            3369     37.6813E-03     39.4177E-03
            2953            3369     37.6813E-03     39.4177E-03
            2935            3369     37.6813E-03     39.4177E-03
            2954            3369     37.6813E-03     39.4177E-03
            2936            3370     34.4240E-03     36.1634E-03
            2937            3370     34.4240E-03     36.1634E-03
            2954            3370     34.4240E-03     36.1634E-03
            2955            3370     34.4240E-03     36.1634E-03
            2938            3371     31.2284E-03     32.9796E-03
            2937            3371     31.2284E-03     32.9796E-03
            2956            3371     31.2284E-03     32.9796E-03
            2955            3371     31.2284E-03     32.9796E-03
            2938            3372     28.1656E-03     29.9451E-03
            2957            3372     28.1656E-03     29.9451E-03
            2939            3372     28.1656E-03     29.9451E-03
            2956            3372     28.1656E-03     29.9451E-03
            2958            3373     25.1671E-03     26.9610E-03
            2940            3373     25.1671E-03     26.9610E-03
            2957            3373     25.1671E-03     26.9610E-03
            2939            3373     25.1671E-03     26.9610E-03
            2940            3374     22.1491E-03     23.9320E-03
            2958            3374     22.1491E-03     23.9320E-03
            2959            3374     22.1491E-03     23.9320E-03
            2941            3374     22.1491E-03     23.9320E-03
            2960            3375     19.1994E-03     20.8784E-03
            2941            3375     19.1994E-03     20.8784E-03
            2942            3375     19.1994E-03     20.8784E-03
            2959            3375     19.1994E-03     20.8784E-03
            2943            3376     82.0771E-03     83.6779E-03
            2944            3376     82.0771E-03     83.6779E-03
            2961            3376     82.0771E-03     83.6779E-03
            2962            3376     82.0771E-03     83.6779E-03
            2962            3377     75.6667E-03     77.1074E-03
            2944            3377     75.6667E-03     77.1074E-03
            2963            3377     75.6667E-03     77.1074E-03
            2945            3377     75.6667E-03     77.1074E-03
            2963            3378     68.9387E-03     70.7041E-03
            2945            3378     68.9387E-03     70.7041E-03
            2964            3378     68.9387E-03     70.7041E-03
            2946            3378     68.9387E-03     70.7041E-03
            2964            3379     63.0023E-03     65.1181E-03
            2965            3379     63.0023E-03     65.1181E-03
            2946            3379     63.0023E-03     65.1181E-03
            2947            3379     63.0023E-03     65.1181E-03
            2965            3380     58.2950E-03     60.4580E-03
            2947            3380     58.2950E-03     60.4580E-03
            2948            3380     58.2950E-03     60.4580E-03
            2966            3380     58.2950E-03     60.4580E-03
            2948            3381     54.1454E-03     56.3083E-03
            2966            3381     54.1454E-03     56.3083E-03
            2949            3381     54.1454E-03     56.3083E-03
            2967            3381     54.1454E-03     56.3083E-03
            2950            3382     50.3809E-03     52.5281E-03
            2967            3382     50.3809E-03     52.5281E-03
            2968            3382     50.3809E-03     52.5281E-03
            2949            3382     50.3809E-03     52.5281E-03
            2968            3383     46.8439E-03     48.9572E-03
            2951            3383     46.8439E-03     48.9572E-03
            2969            3383     46.8439E-03     48.9572E-03
            2950            3383     46.8439E-03     48.9572E-03
            2951            3384     43.4341E-03     45.5299E-03
            2969            3384     43.4341E-03     45.5299E-03
            2952            3384     43.4341E-03     45.5299E-03
            2970            3384     43.4341E-03     45.5299E-03
            2970            3385     40.1201E-03     42.1949E-03
            2971            3385     40.1201E-03     42.1949E-03
            2952            3385     40.1201E-03     42.1949E-03
            2953            3385     40.1201E-03     42.1949E-03
            2972            3386     36.8731E-03     38.9387E-03
            2971            3386     36.8731E-03     38.9387E-03
            2953            3386     36.8731E-03     38.9387E-03
            2954            3386     36.8731E-03     38.9387E-03
            2955            3387     33.7074E-03     35.7586E-03
            2972            3387     33.7074E-03     35.7586E-03
            2973            3387     33.7074E-03     35.7586E-03
            2954            3387     33.7074E-03     35.7586E-03
            2974            3388     30.6560E-03     32.6989E-03
            2955            3388     30.6560E-03     32.6989E-03
            2973            3388     30.6560E-03     32.6989E-03
            2956            3388     30.6560E-03     32.6989E-03
            2975            3389     27.7499E-03     29.7670E-03
            2974            3389     27.7499E-03     29.7670E-03
            2957            3389     27.7499E-03     29.7670E-03
            2956            3389     27.7499E-03     29.7670E-03
            2976            3390     25.1660E-03     27.1547E-03
            2958            3390     25.1660E-03     27.1547E-03
            2975            3390     25.1660E-03     27.1547E-03
            2957            3390     25.1660E-03     27.1547E-03
            2959            3391     22.6193E-03     24.5922E-03
            2976            3391     22.6193E-03     24.5922E-03
            2958            3391     22.6193E-03     24.5922E-03
            2977            3391     22.6193E-03     24.5922E-03
            2978            3392     19.7706E-03     21.6526E-03
            2959            3392     19.7706E-03     21.6526E-03
            2960            3392     19.7706E-03     21.6526E-03
            2977            3392     19.7706E-03     21.6526E-03
            2961            3393     85.5076E-03     85.9971E-03
            2962            3393     85.5076E-03     85.9971E-03
            2979            3393     85.5076E-03     85.9971E-03
            2980            3393     85.5076E-03     85.9971E-03
            2962            3394     76.0809E-03     77.5506E-03
            2980            3394     76.0809E-03     77.5506E-03
            2981            3394     76.0809E-03     77.5506E-03
            2963            3394     76.0809E-03     77.5506E-03
            2981            3395     67.5665E-03     69.7043E-03
            2982            3395     67.5665E-03     69.7043E-03
            2964            3395     67.5665E-03     69.7043E-03
            2963            3395     67.5665E-03     69.7043E-03
            2964            3396     61.6857E-03     63.9278E-03
            2982            3396     61.6857E-03     63.9278E-03
            2983            3396     61.6857E-03     63.9278E-03
            2965            3396     61.6857E-03     63.9278E-03
            2983            3397     56.9403E-03     59.2119E-03
            2984            3397     56.9403E-03     59.2119E-03
            2966            3397     56.9403E-03     59.2119E-03
            2965            3397     56.9403E-03     59.2119E-03
            2966            3398     52.8419E-03     55.1624E-03
            2984            3398     52.8419E-03     55.1624E-03
            2985            3398     52.8419E-03     55.1624E-03
            2967            3398     52.8419E-03     55.1624E-03
            2967            3399     49.1660E-03     51.5045E-03
            2985            3399     49.1660E-03     51.5045E-03
            2986            3399     49.1660E-03     51.5045E-03
            2968            3399     49.1660E-03     51.5045E-03
            2986            3400     45.6988E-03     48.0712E-03
            2987            3400     45.6988E-03     48.0712E-03
            2969            3400     45.6988E-03     48.0712E-03
            2968            3400     45.6988E-03     48.0712E-03
            2969            3401     42.3888E-03     44.7761E-03
            2970            3401     42.3888E-03     44.7761E-03
            2988            3401     42.3888E-03     44.7761E-03
            2987            3401     42.3888E-03     44.7761E-03
            2970            3402     39.1567E-03     41.5601E-03
            2988            3402     39.1567E-03     41.5601E-03
            2971            3402     39.1567E-03     41.5601E-03
            2989            3402     39.1567E-03     41.5601E-03
            2971            3403     36.0136E-03     38.4139E-03
            2990            3403     36.0136E-03     38.4139E-03
            2989            3403     36.0136E-03     38.4139E-03
            2972            3403     36.0136E-03     38.4139E-03
            2973            3404     32.9455E-03     35.3353E-03
            2972            3404     32.9455E-03     35.3353E-03
            2990            3404     32.9455E-03     35.3353E-03
            2991            3404     32.9455E-03     35.3353E-03
            2992            3405     30.0218E-03     32.3719E-03
            2974            3405     30.0218E-03     32.3719E-03
            2973            3405     30.0218E-03     32.3719E-03
            2991            3405     30.0218E-03     32.3719E-03
            2974            3406     27.2907E-03     29.5870E-03
            2992            3406     27.2907E-03     29.5870E-03
            2975            3406     27.2907E-03     29.5870E-03
            2993            3406     27.2907E-03     29.5870E-03
            2975            3407     24.9106E-03     27.1117E-03
            2994            3407     24.9106E-03     27.1117E-03
            2993            3407     24.9106E-03     27.1117E-03
            2976            3407     24.9106E-03     27.1117E-03
            2976            3408     23.2566E-03     25.3505E-03
            2995            3408     23.2566E-03     25.3505E-03
            2994            3408     23.2566E-03     25.3505E-03
            2977            3408     23.2566E-03     25.3505E-03
            2996            3409     21.1913E-03     23.2801E-03
            2978            3409     21.1913E-03     23.2801E-03
            2995            3409     21.1913E-03     23.2801E-03
            2977            3409     21.1913E-03     23.2801E-03
            2979            3410     85.8488E-03     87.7488E-03
            2998            3410     85.8488E-03     87.7488E-03
            2997            3410     85.8488E-03     87.7488E-03
            2980            3410     85.8488E-03     87.7488E-03
            2999            3411     73.3175E-03     75.7386E-03
            2998            3411     73.3175E-03     75.7386E-03
            2981            3411     73.3175E-03     75.7386E-03
            2980            3411     73.3175E-03     75.7386E-03
            2981            3412     65.5099E-03     67.7447E-03
            3000            3412     65.5099E-03     67.7447E-03
            2999            3412     65.5099E-03     67.7447E-03
            2982            3412     65.5099E-03     67.7447E-03
            2982            3413     60.0247E-03     62.2337E-03
            2983            3413     60.0247E-03     62.2337E-03
            3000            3413     60.0247E-03     62.2337E-03
            3001            3413     60.0247E-03     62.2337E-03
            2983            3414     55.4274E-03     57.7295E-03
            3001            3414     55.4274E-03     57.7295E-03
            3002            3414     55.4274E-03     57.7295E-03
            2984            3414     55.4274E-03     57.7295E-03
            3003            3415     51.5178E-03     53.9285E-03
            2984            3415     51.5178E-03     53.9285E-03
            3002            3415     51.5178E-03     53.9285E-03
            2985            3415     51.5178E-03     53.9285E-03
            2986            3416     47.9231E-03     50.4547E-03
            3003            3416     47.9231E-03     50.4547E-03
            3004            3416     47.9231E-03     50.4547E-03
            2985            3416     47.9231E-03     50.4547E-03
            2986            3417     44.5780E-03     47.2063E-03
            3005            3417     44.5780E-03     47.2063E-03
            2987            3417     44.5780E-03     47.2063E-03
            3004            3417     44.5780E-03     47.2063E-03
            2987            3418     41.3502E-03     44.0571E-03
            3005            3418     41.3502E-03     44.0571E-03
            3006            3418     41.3502E-03     44.0571E-03
            2988            3418     41.3502E-03     44.0571E-03
            3006            3419     38.2328E-03     40.9864E-03
            2989            3419     38.2328E-03     40.9864E-03
            3007            3419     38.2328E-03     40.9864E-03
            2988            3419     38.2328E-03     40.9864E-03
            2990            3420     35.1799E-03     37.9553E-03
            2989            3420     35.1799E-03     37.9553E-03
            3008            3420     35.1799E-03     37.9553E-03
            3007            3420     35.1799E-03     37.9553E-03
            3008            3421     32.2397E-03     34.9990E-03
            2991            3421     32.2397E-03     34.9990E-03
            3009            3421     32.2397E-03     34.9990E-03
            2990            3421     32.2397E-03     34.9990E-03
            3010            3422     29.4054E-03     32.1180E-03
            2991            3422     29.4054E-03     32.1180E-03
            2992            3422     29.4054E-03     32.1180E-03
            3009            3422     29.4054E-03     32.1180E-03
            2993            3423     26.8427E-03     29.4555E-03
            3010            3423     26.8427E-03     29.4555E-03
            3011            3423     26.8427E-03     29.4555E-03
            2992            3423     26.8427E-03     29.4555E-03
            3011            3424     24.5629E-03     27.0369E-03
            3012            3424     24.5629E-03     27.0369E-03
            2993            3424     24.5629E-03     27.0369E-03
            2994            3424     24.5629E-03     27.0369E-03
            2995            3425     23.2584E-03     25.5028E-03
            3013            3425     23.2584E-03     25.5028E-03
            2994            3425     23.2584E-03     25.5028E-03
            3012            3425     23.2584E-03     25.5028E-03
            3014            3426     23.1964E-03     25.2330E-03
            2996            3426     23.1964E-03     25.2330E-03
            3013            3426     23.1964E-03     25.2330E-03
            2995            3426     23.1964E-03     25.2330E-03
            3015            3427     85.1106E-03     86.4111E-03
            3016            3427     85.1106E-03     86.4111E-03
            2997            3427     85.1106E-03     86.4111E-03
            2998            3427     85.1106E-03     86.4111E-03
            2998            3428     78.7373E-03     78.6075E-03
            3017            3428     78.7373E-03     78.6075E-03
            3016            3428     78.7373E-03     78.6075E-03
            2999            3428     78.7373E-03     78.6075E-03
            3000            3429     74.4500E-03     74.2539E-03
            3017            3429     74.4500E-03     74.2539E-03
            3018            3429     74.4500E-03     74.2539E-03
            2999            3429     74.4500E-03     74.2539E-03
            3000            3430     70.4169E-03     70.5127E-03
            3019            3430     70.4169E-03     70.5127E-03
            3001            3430     70.4169E-03     70.5127E-03
            3018            3430     70.4169E-03     70.5127E-03
            3001            3431     66.7417E-03     67.0839E-03
            3002            3431     66.7417E-03     67.0839E-03
            3019            3431     66.7417E-03     67.0839E-03
            3020            3431     66.7417E-03     67.0839E-03
            3002            3432     63.1060E-03     63.7637E-03
            3003            3432     63.1060E-03     63.7637E-03
            3020            3432     63.1060E-03     63.7637E-03
            3021            3432     63.1060E-03     63.7637E-03
            3003            3433     59.5587E-03     60.4259E-03
            3022            3433     59.5587E-03     60.4259E-03
            3004            3433     59.5587E-03     60.4259E-03
            3021            3433     59.5587E-03     60.4259E-03
            3004            3434     55.9989E-03     57.0694E-03
            3023            3434     55.9989E-03     57.0694E-03
            3022            3434     55.9989E-03     57.0694E-03
            3005            3434     55.9989E-03     57.0694E-03
            3005            3435     52.4602E-03     53.6530E-03
            3024            3435     52.4602E-03     53.6530E-03
            3006            3435     52.4602E-03     53.6530E-03
            3023            3435     52.4602E-03     53.6530E-03
            3007            3436     48.9189E-03     50.2068E-03
            3024            3436     48.9189E-03     50.2068E-03
            3006            3436     48.9189E-03     50.2068E-03
            3025            3436     48.9189E-03     50.2068E-03
            3007            3437     45.4101E-03     46.7327E-03
            3008            3437     45.4101E-03     46.7327E-03
            3026            3437     45.4101E-03     46.7327E-03
            3025            3437     45.4101E-03     46.7327E-03
            3008            3438     41.9595E-03     43.2744E-03
            3026            3438     41.9595E-03     43.2744E-03
            3009            3438     41.9595E-03     43.2744E-03
            3027            3438     41.9595E-03     43.2744E-03
            3010            3439     38.6256E-03     39.8666E-03
            3028            3439     38.6256E-03     39.8666E-03
            3009            3439     38.6256E-03     39.8666E-03
            3027            3439     38.6256E-03     39.8666E-03
            3029            3440     35.5059E-03     36.6084E-03
            3010            3440     35.5059E-03     36.6084E-03
            3011            3440     35.5059E-03     36.6084E-03
            3028            3440     35.5059E-03     36.6084E-03
            3012            3441     32.7424E-03     33.6050E-03
            3029            3441     32.7424E-03     33.6050E-03
            3030            3441     32.7424E-03     33.6050E-03
            3011            3441     32.7424E-03     33.6050E-03
            3013            3442     30.6486E-03     31.2634E-03
            3012            3442     30.6486E-03     31.2634E-03
            3030            3442     30.6486E-03     31.2634E-03
            3031            3442     30.6486E-03     31.2634E-03
            3013            3443     30.0904E-03     30.6992E-03
            3031            3443     30.0904E-03     30.6992E-03
            3032            3443     30.0904E-03     30.6992E-03
            3014            3443     30.0904E-03     30.6992E-03
            3033            3444     89.1649E-03     87.4424E-03
            3034            3444     89.1649E-03     87.4424E-03
            3016            3444     89.1649E-03     87.4424E-03
            3015            3444     89.1649E-03     87.4424E-03
            3035            3445     88.3285E-03     86.9141E-03
            3016            3445     88.3285E-03     86.9141E-03
            3034            3445     88.3285E-03     86.9141E-03
            3017            3445     88.3285E-03     86.9141E-03
            3017            3446     86.4012E-03     85.0141E-03
            3036            3446     86.4012E-03     85.0141E-03
            3018            3446     86.4012E-03     85.0141E-03
            3035            3446     86.4012E-03     85.0141E-03
            3018            3447     83.6998E-03     82.5108E-03
            3036            3447     83.6998E-03     82.5108E-03
            3019            3447     83.6998E-03     82.5108E-03
            3037            3447     83.6998E-03     82.5108E-03
            3038            3448     80.4573E-03     79.4965E-03
            3037            3448     80.4573E-03     79.4965E-03
            3019            3448     80.4573E-03     79.4965E-03
            3020            3448     80.4573E-03     79.4965E-03
            3038            3449     76.8610E-03     76.1285E-03
            3020            3449     76.8610E-03     76.1285E-03
            3021            3449     76.8610E-03     76.1285E-03
            3039            3449     76.8610E-03     76.1285E-03
            3039            3450     73.0054E-03     72.4691E-03
            3040            3450     73.0054E-03     72.4691E-03
            3021            3450     73.0054E-03     72.4691E-03
            3022            3450     73.0054E-03     72.4691E-03
            3041            3451     68.9834E-03     68.5989E-03
            3023            3451     68.9834E-03     68.5989E-03
            3022            3451     68.9834E-03     68.5989E-03
            3040            3451     68.9834E-03     68.5989E-03
            3042            3452     64.8396E-03     64.5750E-03
            3023            3452     64.8396E-03     64.5750E-03
            3041            3452     64.8396E-03     64.5750E-03
            3024            3452     64.8396E-03     64.5750E-03
            3025            3453     60.6430E-03     60.4481E-03
            3024            3453     60.6430E-03     60.4481E-03
            3042            3453     60.6430E-03     60.4481E-03
            3043            3453     60.6430E-03     60.4481E-03
            3025            3454     56.4147E-03     56.2598E-03
            3043            3454     56.4147E-03     56.2598E-03
            3044            3454     56.4147E-03     56.2598E-03
            3026            3454     56.4147E-03     56.2598E-03
            3027            3455     52.2265E-03     52.0608E-03
            3045            3455     52.2265E-03     52.0608E-03
            3044            3455     52.2265E-03     52.0608E-03
            3026            3455     52.2265E-03     52.0608E-03
            3045            3456     48.0953E-03     47.8866E-03
            3027            3456     48.0953E-03     47.8866E-03
            3046            3456     48.0953E-03     47.8866E-03
            3028            3456     48.0953E-03     47.8866E-03
            3029            3457     44.1468E-03     43.8617E-03
            3028            3457     44.1468E-03     43.8617E-03
            3046            3457     44.1468E-03     43.8617E-03
            3047            3457     44.1468E-03     43.8617E-03
            3030            3458     40.3604E-03     40.0413E-03
            3047            3458     40.3604E-03     40.0413E-03
            3029            3458     40.3604E-03     40.0413E-03
            3048            3458     40.3604E-03     40.0413E-03
            3048            3459     37.0066E-03     37.0639E-03
            3049            3459     37.0066E-03     37.0639E-03
            3031            3459     37.0066E-03     37.0639E-03
            3030            3459     37.0066E-03     37.0639E-03
            3050            3460     33.3446E-03     35.1520E-03
            3031            3460     33.3446E-03     35.1520E-03
            3032            3460     33.3446E-03     35.1520E-03
            3049            3460     33.3446E-03     35.1520E-03
            3034            3461     94.5402E-03     94.9738E-03
            3033            3461     94.5402E-03     94.9738E-03
            3051            3461     94.5402E-03     94.9738E-03
            3052            3461     94.5402E-03     94.9738E-03
            3052            3462     92.5956E-03     93.2951E-03
            3035            3462     92.5956E-03     93.2951E-03
            3034            3462     92.5956E-03     93.2951E-03
            3053            3462     92.5956E-03     93.2951E-03
            3053            3463     90.3130E-03     90.8241E-03
            3054            3463     90.3130E-03     90.8241E-03
            3036            3463     90.3130E-03     90.8241E-03
            3035            3463     90.3130E-03     90.8241E-03
            3036            3464     87.2746E-03     87.5575E-03
            3054            3464     87.2746E-03     87.5575E-03
            3055            3464     87.2746E-03     87.5575E-03
            3037            3464     87.2746E-03     87.5575E-03
            3055            3465     83.6327E-03     83.8053E-03
            3056            3465     83.6327E-03     83.8053E-03
            3038            3465     83.6327E-03     83.8053E-03
            3037            3465     83.6327E-03     83.8053E-03
            3038            3466     79.5860E-03     79.7329E-03
            3056            3466     79.5860E-03     79.7329E-03
            3039            3466     79.5860E-03     79.7329E-03
            3057            3466     79.5860E-03     79.7329E-03
            3058            3467     75.2931E-03     75.4389E-03
            3039            3467     75.2931E-03     75.4389E-03
            3057            3467     75.2931E-03     75.4389E-03
            3040            3467     75.2931E-03     75.4389E-03
            3059            3468     70.8356E-03     71.0127E-03
            3041            3468     70.8356E-03     71.0127E-03
            3058            3468     70.8356E-03     71.0127E-03
            3040            3468     70.8356E-03     71.0127E-03
            3042            3469     66.3078E-03     66.5024E-03
            3059            3469     66.3078E-03     66.5024E-03
            3041            3469     66.3078E-03     66.5024E-03
            3060            3469     66.3078E-03     66.5024E-03
            3043            3470     61.7327E-03     61.9516E-03
            3042            3470     61.7327E-03     61.9516E-03
            3060            3470     61.7327E-03     61.9516E-03
            3061            3470     61.7327E-03     61.9516E-03
            3044            3471     57.1637E-03     57.3918E-03
            3062            3471     57.1637E-03     57.3918E-03
            3061            3471     57.1637E-03     57.3918E-03
            3043            3471     57.1637E-03     57.3918E-03
            3063            3472     52.6056E-03     52.8473E-03
            3062            3472     52.6056E-03     52.8473E-03
            3044            3472     52.6056E-03     52.8473E-03
            3045            3472     52.6056E-03     52.8473E-03
            3064            3473     48.0868E-03     48.3674E-03
            3045            3473     48.0868E-03     48.3674E-03
            3046            3473     48.0868E-03     48.3674E-03
            3063            3473     48.0868E-03     48.3674E-03
            3046            3474     43.6074E-03     44.0083E-03
            3064            3474     43.6074E-03     44.0083E-03
            3047            3474     43.6074E-03     44.0083E-03
            3065            3474     43.6074E-03     44.0083E-03
            3065            3475     39.1485E-03     39.9334E-03
            3047            3475     39.1485E-03     39.9334E-03
            3048            3475     39.1485E-03     39.9334E-03
            3066            3475     39.1485E-03     39.9334E-03
            3066            3476     34.5905E-03     36.5503E-03
            3067            3476     34.5905E-03     36.5503E-03
            3048            3476     34.5905E-03     36.5503E-03
            3049            3476     34.5905E-03     36.5503E-03
            3050            3477     29.9057E-03     32.8690E-03
            3067            3477     29.9057E-03     32.8690E-03
            3068            3477     29.9057E-03     32.8690E-03
            3049            3477     29.9057E-03     32.8690E-03
            3070            3478     99.5489E-03     100.775E-03
            3052            3478     99.5489E-03     100.775E-03
            3069            3478     99.5489E-03     100.775E-03
            3051            3478     99.5489E-03     100.775E-03
            3053            3479     96.6463E-03     98.3257E-03
            3070            3479     96.6463E-03     98.3257E-03
            3052            3479     96.6463E-03     98.3257E-03
            3071            3479     96.6463E-03     98.3257E-03
            3053            3480     93.7629E-03     95.3364E-03
            3054            3480     93.7629E-03     95.3364E-03
            3071            3480     93.7629E-03     95.3364E-03
            3072            3480     93.7629E-03     95.3364E-03
            3073            3481     90.2249E-03     91.6085E-03
            3055            3481     90.2249E-03     91.6085E-03
            3054            3481     90.2249E-03     91.6085E-03
            3072            3481     90.2249E-03     91.6085E-03
            3055            3482     86.1899E-03     87.3213E-03
            3074            3482     86.1899E-03     87.3213E-03
            3073            3482     86.1899E-03     87.3213E-03
            3056            3482     86.1899E-03     87.3213E-03
            3056            3483     81.7529E-03     82.7085E-03
            3074            3483     81.7529E-03     82.7085E-03
            3075            3483     81.7529E-03     82.7085E-03
            3057            3483     81.7529E-03     82.7085E-03
            3058            3484     77.0809E-03     77.9268E-03
            3076            3484     77.0809E-03     77.9268E-03
            3075            3484     77.0809E-03     77.9268E-03
            3057            3484     77.0809E-03     77.9268E-03
            3076            3485     72.2971E-03     73.0571E-03
            3058            3485     72.2971E-03     73.0571E-03
            3077            3485     72.2971E-03     73.0571E-03
            3059            3485     72.2971E-03     73.0571E-03
            3060            3486     67.4457E-03     68.1670E-03
            3078            3486     67.4457E-03     68.1670E-03
            3059            3486     67.4457E-03     68.1670E-03
            3077            3486     67.4457E-03     68.1670E-03
            3079            3487     62.5932E-03     63.2857E-03
            3061            3487     62.5932E-03     63.2857E-03
            3060            3487     62.5932E-03     63.2857E-03
            3078            3487     62.5932E-03     63.2857E-03
            3079            3488     57.7375E-03     58.4354E-03
            3080            3488     57.7375E-03     58.4354E-03
            3062            3488     57.7375E-03     58.4354E-03
            3061            3488     57.7375E-03     58.4354E-03
            3063            3489     52.8942E-03     53.6290E-03
            3080            3489     52.8942E-03     53.6290E-03
            3062            3489     52.8942E-03     53.6290E-03
            3081            3489     52.8942E-03     53.6290E-03
            3064            3490     48.0479E-03     48.9021E-03
            3063            3490     48.0479E-03     48.9021E-03
            3082            3490     48.0479E-03     48.9021E-03
            3081            3490     48.0479E-03     48.9021E-03
            3083            3491     43.1554E-03     44.2523E-03
            3064            3491     43.1554E-03     44.2523E-03
            3065            3491     43.1554E-03     44.2523E-03
            3082            3491     43.1554E-03     44.2523E-03
            3083            3492     38.1759E-03     39.8679E-03
            3066            3492     38.1759E-03     39.8679E-03
            3065            3492     38.1759E-03     39.8679E-03
            3084            3492     38.1759E-03     39.8679E-03
            3066            3493     33.0747E-03     35.3879E-03
            3085            3493     33.0747E-03     35.3879E-03
            3084            3493     33.0747E-03     35.3879E-03
            3067            3493     33.0747E-03     35.3879E-03
            3086            3494     28.3148E-03     30.3363E-03
            3067            3494     28.3148E-03     30.3363E-03
            3068            3494     28.3148E-03     30.3363E-03
            3085            3494     28.3148E-03     30.3363E-03
            3088            3495     104.083E-03     105.319E-03
            3070            3495     104.083E-03     105.319E-03
            3087            3495     104.083E-03     105.319E-03
            3069            3495     104.083E-03     105.319E-03
            3071            3496     100.433E-03     102.355E-03
            3089            3496     100.433E-03     102.355E-03
            3088            3496     100.433E-03     102.355E-03
            3070            3496     100.433E-03     102.355E-03
            3071            3497     96.6590E-03     98.8242E-03
            3072            3497     96.6590E-03     98.8242E-03
            3089            3497     96.6590E-03     98.8242E-03
            3090            3497     96.6590E-03     98.8242E-03
            3072            3498     92.5834E-03     94.6022E-03
            3091            3498     92.5834E-03     94.6022E-03
            3090            3498     92.5834E-03     94.6022E-03
            3073            3498     92.5834E-03     94.6022E-03
            3091            3499     88.0338E-03     89.8733E-03
            3073            3499     88.0338E-03     89.8733E-03
            3074            3499     88.0338E-03     89.8733E-03
            3092            3499     88.0338E-03     89.8733E-03
            3093            3500     83.2131E-03     84.8437E-03
            3074            3500     83.2131E-03     84.8437E-03
            3092            3500     83.2131E-03     84.8437E-03
            3075            3500     83.2131E-03     84.8437E-03
            3076            3501     78.2318E-03     79.6812E-03
            3075            3501     78.2318E-03     79.6812E-03
            3094            3501     78.2318E-03     79.6812E-03
            3093            3501     78.2318E-03     79.6812E-03
            3076            3502     73.1686E-03     74.4967E-03
            3077            3502     73.1686E-03     74.4967E-03
            3094            3502     73.1686E-03     74.4967E-03
            3095            3502     73.1686E-03     74.4967E-03
            3077            3503     68.1073E-03     69.3383E-03
            3096            3503     68.1073E-03     69.3383E-03
            3078            3503     68.1073E-03     69.3383E-03
            3095            3503     68.1073E-03     69.3383E-03
            3078            3504     63.0444E-03     64.2309E-03
            3096            3504     63.0444E-03     64.2309E-03
            3097            3504     63.0444E-03     64.2309E-03
            3079            3504     63.0444E-03     64.2309E-03
            3079            3505     58.0088E-03     59.1864E-03
            3098            3505     58.0088E-03     59.1864E-03
            3080            3505     58.0088E-03     59.1864E-03
            3097            3505     58.0088E-03     59.1864E-03
            3080            3506     52.9742E-03     54.2153E-03
            3081            3506     52.9742E-03     54.2153E-03
            3098            3506     52.9742E-03     54.2153E-03
            3099            3506     52.9742E-03     54.2153E-03
            3081            3507     47.9181E-03     49.2937E-03
            3099            3507     47.9181E-03     49.2937E-03
            3082            3507     47.9181E-03     49.2937E-03
            3100            3507     47.9181E-03     49.2937E-03
            3083            3508     42.7940E-03     44.4739E-03
            3100            3508     42.7940E-03     44.4739E-03
            3101            3508     42.7940E-03     44.4739E-03
            3082            3508     42.7940E-03     44.4739E-03
            3084            3509     37.5535E-03     39.6088E-03
            3101            3509     37.5535E-03     39.6088E-03
            3102            3509     37.5535E-03     39.6088E-03
            3083            3509     37.5535E-03     39.6088E-03
            3102            3510     32.3074E-03     34.4876E-03
            3084            3510     32.3074E-03     34.4876E-03
            3103            3510     32.3074E-03     34.4876E-03
            3085            3510     32.3074E-03     34.4876E-03
            3086            3511     27.2310E-03     29.5974E-03
            3104            3511     27.2310E-03     29.5974E-03
            3085            3511     27.2310E-03     29.5974E-03
            3103            3511     27.2310E-03     29.5974E-03
            3106            3512     108.171E-03     109.584E-03
            3088            3512     108.171E-03     109.584E-03
            3087            3512     108.171E-03     109.584E-03
            3105            3512     108.171E-03     109.584E-03
            3089            3513     103.706E-03     105.761E-03
            3106            3513     103.706E-03     105.761E-03
            3088            3513     103.706E-03     105.761E-03
            3107            3513     103.706E-03     105.761E-03
            3108            3514     99.1438E-03     101.483E-03
            3090            3514     99.1438E-03     101.483E-03
            3089            3514     99.1438E-03     101.483E-03
            3107            3514     99.1438E-03     101.483E-03
            3091            3515     94.2454E-03     96.6721E-03
            3108            3515     94.2454E-03     96.6721E-03
            3090            3515     94.2454E-03     96.6721E-03
            3109            3515     94.2454E-03     96.6721E-03
            3092            3516     89.1520E-03     91.4544E-03
            3109            3516     89.1520E-03     91.4544E-03
            3110            3516     89.1520E-03     91.4544E-03
            3091            3516     89.1520E-03     91.4544E-03
            3092            3517     83.9241E-03     86.0451E-03
            3093            3517     83.9241E-03     86.0451E-03
            3111            3517     83.9241E-03     86.0451E-03
            3110            3517     83.9241E-03     86.0451E-03
            3112            3518     78.6464E-03     80.6065E-03
            3093            3518     78.6464E-03     80.6065E-03
            3111            3518     78.6464E-03     80.6065E-03
            3094            3518     78.6464E-03     80.6065E-03
            3112            3519     73.4099E-03     75.2168E-03
            3094            3519     73.4099E-03     75.2168E-03
            3095            3519     73.4099E-03     75.2168E-03
            3113            3519     73.4099E-03     75.2168E-03
            3095            3520     68.1947E-03     69.8993E-03
            3114            3520     68.1947E-03     69.8993E-03
            3113            3520     68.1947E-03     69.8993E-03
            3096            3520     68.1947E-03     69.8993E-03
            3096            3521     63.0337E-03     64.6723E-03
            3097            3521     63.0337E-03     64.6723E-03
            3114            3521     63.0337E-03     64.6723E-03
            3115            3521     63.0337E-03     64.6723E-03
            3115            3522     57.8980E-03     59.5300E-03
            3097            3522     57.8980E-03     59.5300E-03
            3098            3522     57.8980E-03     59.5300E-03
            3116            3522     57.8980E-03     59.5300E-03
            3117            3523     52.7917E-03     54.4719E-03
            3099            3523     52.7917E-03     54.4719E-03
            3098            3523     52.7917E-03     54.4719E-03
            3116            3523     52.7917E-03     54.4719E-03
            3118            3524     47.6651E-03     49.4903E-03
            3117            3524     47.6651E-03     49.4903E-03
            3100            3524     47.6651E-03     49.4903E-03
            3099            3524     47.6651E-03     49.4903E-03
            3119            3525     42.4836E-03     44.5189E-03
            3101            3525     42.4836E-03     44.5189E-03
            3100            3525     42.4836E-03     44.5189E-03
            3118            3525     42.4836E-03     44.5189E-03
            3101            3526     37.2259E-03     39.4471E-03
            3120            3526     37.2259E-03     39.4471E-03
            3102            3526     37.2259E-03     39.4471E-03
            3119            3526     37.2259E-03     39.4471E-03
            3121            3527     31.8764E-03     34.3128E-03
            3103            3527     31.8764E-03     34.3128E-03
            3102            3527     31.8764E-03     34.3128E-03
            3120            3527     31.8764E-03     34.3128E-03
            3121            3528     26.7813E-03     29.1044E-03
            3122            3528     26.7813E-03     29.1044E-03
            3103            3528     26.7813E-03     29.1044E-03
            3104            3528     26.7813E-03     29.1044E-03
            3124            3529     111.904E-03     113.556E-03
            3105            3529     111.904E-03     113.556E-03
            3106            3529     111.904E-03     113.556E-03
            3123            3529     111.904E-03     113.556E-03
            3124            3530     106.629E-03     108.698E-03
            3106            3530     106.629E-03     108.698E-03
            3125            3530     106.629E-03     108.698E-03
            3107            3530     106.629E-03     108.698E-03
            3107            3531     100.967E-03     103.481E-03
            3108            3531     100.967E-03     103.481E-03
            3125            3531     100.967E-03     103.481E-03
            3126            3531     100.967E-03     103.481E-03
            3109            3532     95.2201E-03     97.8532E-03
            3108            3532     95.2201E-03     97.8532E-03
            3126            3532     95.2201E-03     97.8532E-03
            3127            3532     95.2201E-03     97.8532E-03
            3127            3533     89.4782E-03     92.0556E-03
            3109            3533     89.4782E-03     92.0556E-03
            3110            3533     89.4782E-03     92.0556E-03
            3128            3533     89.4782E-03     92.0556E-03
            3111            3534     83.8225E-03     86.3122E-03
            3110            3534     83.8225E-03     86.3122E-03
            3129            3534     83.8225E-03     86.3122E-03
            3128            3534     83.8225E-03     86.3122E-03
            3112            3535     78.3621E-03     80.6985E-03
            3129            3535     78.3621E-03     80.6985E-03
            3111            3535     78.3621E-03     80.6985E-03
            3130            3535     78.3621E-03     80.6985E-03
            3131            3536     72.9968E-03     75.2037E-03
            3112            3536     72.9968E-03     75.2037E-03
            3130            3536     72.9968E-03     75.2037E-03
            3113            3536     72.9968E-03     75.2037E-03
            3131            3537     67.7388E-03     69.8424E-03
            3113            3537     67.7388E-03     69.8424E-03
            3114            3537     67.7388E-03     69.8424E-03
            3132            3537     67.7388E-03     69.8424E-03
            3115            3538     62.5452E-03     64.5855E-03
            3132            3538     62.5452E-03     64.5855E-03
            3133            3538     62.5452E-03     64.5855E-03
            3114            3538     62.5452E-03     64.5855E-03
            3134            3539     57.4164E-03     59.4384E-03
            3116            3539     57.4164E-03     59.4384E-03
            3115            3539     57.4164E-03     59.4384E-03
            3133            3539     57.4164E-03     59.4384E-03
            3116            3540     52.3190E-03     54.3785E-03
            3134            3540     52.3190E-03     54.3785E-03
            3135            3540     52.3190E-03     54.3785E-03
            3117            3540     52.3190E-03     54.3785E-03
            3135            3541     47.2653E-03     49.4212E-03
            3118            3541     47.2653E-03     49.4212E-03
            3136            3541     47.2653E-03     49.4212E-03
            3117            3541     47.2653E-03     49.4212E-03
            3136            3542     42.1904E-03     44.4798E-03
            3118            3542     42.1904E-03     44.4798E-03
            3119            3542     42.1904E-03     44.4798E-03
            3137            3542     42.1904E-03     44.4798E-03
            3120            3543     37.0406E-03     39.4968E-03
            3137            3543     37.0406E-03     39.4968E-03
            3138            3543     37.0406E-03     39.4968E-03
            3119            3543     37.0406E-03     39.4968E-03
            3138            3544     31.8380E-03     34.3764E-03
            3139            3544     31.8380E-03     34.3764E-03
            3121            3544     31.8380E-03     34.3764E-03
            3120            3544     31.8380E-03     34.3764E-03
            3122            3545     26.5944E-03     29.1552E-03
            3121            3545     26.5944E-03     29.1552E-03
            3140            3545     26.5944E-03     29.1552E-03
            3139            3545     26.5944E-03     29.1552E-03
            3141            3546     115.615E-03     117.159E-03
            3142            3546     115.615E-03     117.159E-03
            3123            3546     115.615E-03     117.159E-03
            3124            3546     115.615E-03     117.159E-03
            3125            3547     108.919E-03     111.272E-03
            3142            3547     108.919E-03     111.272E-03
            3124            3547     108.919E-03     111.272E-03
            3143            3547     108.919E-03     111.272E-03
            3143            3548     102.108E-03     104.671E-03
            3144            3548     102.108E-03     104.671E-03
            3125            3548     102.108E-03     104.671E-03
            3126            3548     102.108E-03     104.671E-03
            3126            3549     95.3039E-03     97.9941E-03
            3127            3549     95.3039E-03     97.9941E-03
            3145            3549     95.3039E-03     97.9941E-03
            3144            3549     95.3039E-03     97.9941E-03
            3128            3550     88.8547E-03     91.6564E-03
            3146            3550     88.8547E-03     91.6564E-03
            3127            3550     88.8547E-03     91.6564E-03
            3145            3550     88.8547E-03     91.6564E-03
            3129            3551     82.9909E-03     85.7064E-03
            3128            3551     82.9909E-03     85.7064E-03
            3146            3551     82.9909E-03     85.7064E-03
            3147            3551     82.9909E-03     85.7064E-03
            3129            3552     77.3968E-03     80.0129E-03
            3130            3552     77.3968E-03     80.0129E-03
            3147            3552     77.3968E-03     80.0129E-03
            3148            3552     77.3968E-03     80.0129E-03
            3131            3553     72.0284E-03     74.5482E-03
            3130            3553     72.0284E-03     74.5482E-03
            3148            3553     72.0284E-03     74.5482E-03
            3149            3553     72.0284E-03     74.5482E-03
            3149            3554     66.7946E-03     69.2303E-03
            3131            3554     66.7946E-03     69.2303E-03
            3150            3554     66.7946E-03     69.2303E-03
            3132            3554     66.7946E-03     69.2303E-03
            3150            3555     61.6568E-03     64.0438E-03
            3151            3555     61.6568E-03     64.0438E-03
            3133            3555     61.6568E-03     64.0438E-03
            3132            3555     61.6568E-03     64.0438E-03
            3134            3556     56.5925E-03     58.9557E-03
            3152            3556     56.5925E-03     58.9557E-03
            3151            3556     56.5925E-03     58.9557E-03
            3133            3556     56.5925E-03     58.9557E-03
            3152            3557     51.6048E-03     53.9839E-03
            3153            3557     51.6048E-03     53.9839E-03
            3135            3557     51.6048E-03     53.9839E-03
            3134            3557     51.6048E-03     53.9839E-03
            3153            3558     46.6744E-03     49.0932E-03
            3135            3558     46.6744E-03     49.0932E-03
            3136            3558     46.6744E-03     49.0932E-03
            3154            3558     46.6744E-03     49.0932E-03
            3155            3559     41.8599E-03     44.3761E-03
            3137            3559     41.8599E-03     44.3761E-03
            3136            3559     41.8599E-03     44.3761E-03
            3154            3559     41.8599E-03     44.3761E-03
            3155            3560     37.0318E-03     39.6666E-03
            3137            3560     37.0318E-03     39.6666E-03
            3156            3560     37.0318E-03     39.6666E-03
            3138            3560     37.0318E-03     39.6666E-03
            3156            3561     32.0470E-03     34.7564E-03
            3157            3561     32.0470E-03     34.7564E-03
            3138            3561     32.0470E-03     34.7564E-03
            3139            3561     32.0470E-03     34.7564E-03
            3157            3562     26.9007E-03     29.6467E-03
            3140            3562     26.9007E-03     29.6467E-03
            3158            3562     26.9007E-03     29.6467E-03
            3139            3562     26.9007E-03     29.6467E-03
            3142            3563     118.738E-03     120.991E-03
            3159            3563     118.738E-03     120.991E-03
            3141            3563     118.738E-03     120.991E-03
            3160            3563     118.738E-03     120.991E-03
            3142            3564     110.769E-03     112.871E-03
            3160            3564     110.769E-03     112.871E-03
            3143            3564     110.769E-03     112.871E-03
            3161            3564     110.769E-03     112.871E-03
            3162            3565     102.052E-03     104.515E-03
            3143            3565     102.052E-03     104.515E-03
            3161            3565     102.052E-03     104.515E-03
            3144            3565     102.052E-03     104.515E-03
            3144            3566     94.0497E-03     96.9099E-03
            3162            3566     94.0497E-03     96.9099E-03
            3163            3566     94.0497E-03     96.9099E-03
            3145            3566     94.0497E-03     96.9099E-03
            3146            3567     87.4452E-03     90.3238E-03
            3163            3567     87.4452E-03     90.3238E-03
            3164            3567     87.4452E-03     90.3238E-03
            3145            3567     87.4452E-03     90.3238E-03
            3147            3568     81.4579E-03     84.3079E-03
            3165            3568     81.4579E-03     84.3079E-03
            3146            3568     81.4579E-03     84.3079E-03
            3164            3568     81.4579E-03     84.3079E-03
            3166            3569     75.9100E-03     78.7227E-03
            3147            3569     75.9100E-03     78.7227E-03
            3165            3569     75.9100E-03     78.7227E-03
            3148            3569     75.9100E-03     78.7227E-03
            3148            3570     70.6268E-03     73.3830E-03
            3167            3570     70.6268E-03     73.3830E-03
            3166            3570     70.6268E-03     73.3830E-03
            3149            3570     70.6268E-03     73.3830E-03
            3167            3571     65.4907E-03     68.2186E-03
            3168            3571     65.4907E-03     68.2186E-03
            3149            3571     65.4907E-03     68.2186E-03
            3150            3571     65.4907E-03     68.2186E-03
            3168            3572     60.4716E-03     63.1678E-03
            3169            3572     60.4716E-03     63.1678E-03
            3150            3572     60.4716E-03     63.1678E-03
            3151            3572     60.4716E-03     63.1678E-03
            3151            3573     55.5301E-03     58.2153E-03
            3170            3573     55.5301E-03     58.2153E-03
            3169            3573     55.5301E-03     58.2153E-03
            3152            3573     55.5301E-03     58.2153E-03
            3153            3574     50.6835E-03     53.3548E-03
            3171            3574     50.6835E-03     53.3548E-03
            3170            3574     50.6835E-03     53.3548E-03
            3152            3574     50.6835E-03     53.3548E-03
            3153            3575     45.9605E-03     48.6402E-03
            3171            3575     45.9605E-03     48.6402E-03
            3172            3575     45.9605E-03     48.6402E-03
            3154            3575     45.9605E-03     48.6402E-03
            3154            3576     41.3837E-03     44.0681E-03
            3172            3576     41.3837E-03     44.0681E-03
            3173            3576     41.3837E-03     44.0681E-03
            3155            3576     41.3837E-03     44.0681E-03
            3173            3577     37.1193E-03     39.8802E-03
            3155            3577     37.1193E-03     39.8802E-03
            3156            3577     37.1193E-03     39.8802E-03
            3174            3577     37.1193E-03     39.8802E-03
            3174            3578     32.7161E-03     35.6473E-03
            3156            3578     32.7161E-03     35.6473E-03
            3175            3578     32.7161E-03     35.6473E-03
            3157            3578     32.7161E-03     35.6473E-03
            3157            3579     27.7417E-03     30.6360E-03
            3158            3579     27.7417E-03     30.6360E-03
            3175            3579     27.7417E-03     30.6360E-03
            3176            3579     27.7417E-03     30.6360E-03
            3178            3580     122.210E-03     122.940E-03
            3177            3580     122.210E-03     122.940E-03
            3159            3580     122.210E-03     122.940E-03
            3160            3580     122.210E-03     122.940E-03
            3160            3581     110.651E-03     112.580E-03
            3178            3581     110.651E-03     112.580E-03
            3161            3581     110.651E-03     112.580E-03
            3179            3581     110.651E-03     112.580E-03
            3161            3582     99.7587E-03     102.478E-03
            3162            3582     99.7587E-03     102.478E-03
            3180            3582     99.7587E-03     102.478E-03
            3179            3582     99.7587E-03     102.478E-03
            3162            3583     91.8972E-03     94.7193E-03
            3180            3583     91.8972E-03     94.7193E-03
            3181            3583     91.8972E-03     94.7193E-03
            3163            3583     91.8972E-03     94.7193E-03
            3164            3584     85.3225E-03     88.1659E-03
            3181            3584     85.3225E-03     88.1659E-03
            3182            3584     85.3225E-03     88.1659E-03
            3163            3584     85.3225E-03     88.1659E-03
            3182            3585     79.4716E-03     82.3748E-03
            3183            3585     79.4716E-03     82.3748E-03
            3164            3585     79.4716E-03     82.3748E-03
            3165            3585     79.4716E-03     82.3748E-03
            3165            3586     74.1003E-03     77.0263E-03
            3166            3586     74.1003E-03     77.0263E-03
            3184            3586     74.1003E-03     77.0263E-03
            3183            3586     74.1003E-03     77.0263E-03
            3167            3587     68.9577E-03     71.9317E-03
            3166            3587     68.9577E-03     71.9317E-03
            3184            3587     68.9577E-03     71.9317E-03
            3185            3587     68.9577E-03     71.9317E-03
            3168            3588     63.9963E-03     66.9915E-03
            3167            3588     63.9963E-03     66.9915E-03
            3185            3588     63.9963E-03     66.9915E-03
            3186            3588     63.9963E-03     66.9915E-03
            3187            3589     59.1206E-03     62.1391E-03
            3169            3589     59.1206E-03     62.1391E-03
            3186            3589     59.1206E-03     62.1391E-03
            3168            3589     59.1206E-03     62.1391E-03
            3188            3590     54.3513E-03     57.3652E-03
            3187            3590     54.3513E-03     57.3652E-03
            3169            3590     54.3513E-03     57.3652E-03
            3170            3590     54.3513E-03     57.3652E-03
            3188            3591     49.6680E-03     52.6673E-03
            3170            3591     49.6680E-03     52.6673E-03
            3189            3591     49.6680E-03     52.6673E-03
            3171            3591     49.6680E-03     52.6673E-03
            3189            3592     45.1571E-03     48.1046E-03
            3190            3592     45.1571E-03     48.1046E-03
            3172            3592     45.1571E-03     48.1046E-03
            3171            3592     45.1571E-03     48.1046E-03
            3190            3593     40.8654E-03     43.7530E-03
            3191            3593     40.8654E-03     43.7530E-03
            3172            3593     40.8654E-03     43.7530E-03
            3173            3593     40.8654E-03     43.7530E-03
            3174            3594     36.9741E-03     39.7767E-03
            3173            3594     36.9741E-03     39.7767E-03
            3191            3594     36.9741E-03     39.7767E-03
            3192            3594     36.9741E-03     39.7767E-03
            3174            3595     33.8109E-03     36.6816E-03
            3175            3595     33.8109E-03     36.6816E-03
            3193            3595     33.8109E-03     36.6816E-03
            3192            3595     33.8109E-03     36.6816E-03
            3194            3596     29.6975E-03     32.9596E-03
            3175            3596     29.6975E-03     32.9596E-03
            3176            3596     29.6975E-03     32.9596E-03
            3193            3596     29.6975E-03     32.9596E-03
            3178            3597     121.842E-03     123.828E-03
            3195            3597     121.842E-03     123.828E-03
            3177            3597     121.842E-03     123.828E-03
            3196            3597     121.842E-03     123.828E-03
            3179            3598     106.508E-03     109.197E-03
            3197            3598     106.508E-03     109.197E-03
            3178            3598     106.508E-03     109.197E-03
            3196            3598     106.508E-03     109.197E-03
            3198            3599     96.4970E-03     98.9991E-03
            3180            3599     96.4970E-03     98.9991E-03
            3179            3599     96.4970E-03     98.9991E-03
            3197            3599     96.4970E-03     98.9991E-03
            3181            3600     89.2056E-03     91.7235E-03
            3198            3600     89.2056E-03     91.7235E-03
            3199            3600     89.2056E-03     91.7235E-03
            3180            3600     89.2056E-03     91.7235E-03
            3199            3601     82.8921E-03     85.5732E-03
            3182            3601     82.8921E-03     85.5732E-03
            3200            3601     82.8921E-03     85.5732E-03
            3181            3601     82.8921E-03     85.5732E-03
            3201            3602     77.3598E-03     80.2183E-03
            3200            3602     77.3598E-03     80.2183E-03
            3183            3602     77.3598E-03     80.2183E-03
            3182            3602     77.3598E-03     80.2183E-03
            3202            3603     72.1646E-03     75.2084E-03
            3184            3603     72.1646E-03     75.2084E-03
            3183            3603     72.1646E-03     75.2084E-03
            3201            3603     72.1646E-03     75.2084E-03
            3202            3604     67.2459E-03     70.4366E-03
            3203            3604     67.2459E-03     70.4366E-03
            3185            3604     67.2459E-03     70.4366E-03
            3184            3604     67.2459E-03     70.4366E-03
            3185            3605     62.4486E-03     65.7567E-03
            3204            3605     62.4486E-03     65.7567E-03
            3203            3605     62.4486E-03     65.7567E-03
            3186            3605     62.4486E-03     65.7567E-03
            3186            3606     57.7751E-03     61.1517E-03
            3187            3606     57.7751E-03     61.1517E-03
            3205            3606     57.7751E-03     61.1517E-03
            3204            3606     57.7751E-03     61.1517E-03
            3188            3607     53.1710E-03     56.5780E-03
            3187            3607     53.1710E-03     56.5780E-03
            3206            3607     53.1710E-03     56.5780E-03
            3205            3607     53.1710E-03     56.5780E-03
            3189            3608     48.7045E-03     52.0833E-03
            3206            3608     48.7045E-03     52.0833E-03
            3188            3608     48.7045E-03     52.0833E-03
            3207            3608     48.7045E-03     52.0833E-03
            3208            3609     44.3665E-03     47.6673E-03
            3189            3609     44.3665E-03     47.6673E-03
            3190            3609     44.3665E-03     47.6673E-03
            3207            3609     44.3665E-03     47.6673E-03
            3209            3610     40.3751E-03     43.5151E-03
            3208            3610     40.3751E-03     43.5151E-03
            3191            3610     40.3751E-03     43.5151E-03
            3190            3610     40.3751E-03     43.5151E-03
            3191            3611     36.7291E-03     39.6433E-03
            3192            3611     36.7291E-03     39.6433E-03
            3209            3611     36.7291E-03     39.6433E-03
            3210            3611     36.7291E-03     39.6433E-03
            3210            3612     34.3116E-03     36.8873E-03
            3193            3612     34.3116E-03     36.8873E-03
            3211            3612     34.3116E-03     36.8873E-03
            3192            3612     34.3116E-03     36.8873E-03
            3193            3613     32.9973E-03     35.5109E-03
            3212            3613     32.9973E-03     35.5109E-03
            3211            3613     32.9973E-03     35.5109E-03
            3194            3613     32.9973E-03     35.5109E-03
            3196            3614     120.093E-03     121.874E-03
            3195            3614     120.093E-03     121.874E-03
            3214            3614     120.093E-03     121.874E-03
            3213            3614     120.093E-03     121.874E-03
            3197            3615     111.355E-03     111.169E-03
            3215            3615     111.355E-03     111.169E-03
            3214            3615     111.355E-03     111.169E-03
            3196            3615     111.355E-03     111.169E-03
            3197            3616     105.316E-03     105.081E-03
            3216            3616     105.316E-03     105.081E-03
            3215            3616     105.316E-03     105.081E-03
            3198            3616     105.316E-03     105.081E-03
            3198            3617     99.5853E-03     99.7837E-03
            3199            3617     99.5853E-03     99.7837E-03
            3217            3617     99.5853E-03     99.7837E-03
            3216            3617     99.5853E-03     99.7837E-03
            3200            3618     94.3393E-03     94.8857E-03
            3217            3618     94.3393E-03     94.8857E-03
            3199            3618     94.3393E-03     94.8857E-03
            3218            3618     94.3393E-03     94.8857E-03
            3218            3619     89.1019E-03     90.0861E-03
            3219            3619     89.1019E-03     90.0861E-03
            3200            3619     89.1019E-03     90.0861E-03
            3201            3619     89.1019E-03     90.0861E-03
            3202            3620     84.0028E-03     85.2677E-03
            3220            3620     84.0028E-03     85.2677E-03
            3219            3620     84.0028E-03     85.2677E-03
            3201            3620     84.0028E-03     85.2677E-03
            3221            3621     78.8618E-03     80.3941E-03
            3202            3621     78.8618E-03     80.3941E-03
            3220            3621     78.8618E-03     80.3941E-03
            3203            3621     78.8618E-03     80.3941E-03
            3204            3622     73.7639E-03     75.4513E-03
            3203            3622     73.7639E-03     75.4513E-03
            3222            3622     73.7639E-03     75.4513E-03
            3221            3622     73.7639E-03     75.4513E-03
            3222            3623     68.6476E-03     70.4548E-03
            3204            3623     68.6476E-03     70.4548E-03
            3205            3623     68.6476E-03     70.4548E-03
            3223            3623     68.6476E-03     70.4548E-03
            3224            3624     63.5818E-03     65.4270E-03
            3223            3624     63.5818E-03     65.4270E-03
            3205            3624     63.5818E-03     65.4270E-03
            3206            3624     63.5818E-03     65.4270E-03
            3224            3625     58.5784E-03     60.4082E-03
            3207            3625     58.5784E-03     60.4082E-03
            3225            3625     58.5784E-03     60.4082E-03
            3206            3625     58.5784E-03     60.4082E-03
            3225            3626     53.7302E-03     55.4512E-03
            3226            3626     53.7302E-03     55.4512E-03
            3208            3626     53.7302E-03     55.4512E-03
            3207            3626     53.7302E-03     55.4512E-03
            3208            3627     49.1587E-03     50.6731E-03
            3226            3627     49.1587E-03     50.6731E-03
            3227            3627     49.1587E-03     50.6731E-03
            3209            3627     49.1587E-03     50.6731E-03
            3227            3628     45.0519E-03     46.1974E-03
            3210            3628     45.0519E-03     46.1974E-03
            3209            3628     45.0519E-03     46.1974E-03
            3228            3628     45.0519E-03     46.1974E-03
            3210            3629     41.8819E-03     42.5621E-03
            3228            3629     41.8819E-03     42.5621E-03
            3229            3629     41.8819E-03     42.5621E-03
            3211            3629     41.8819E-03     42.5621E-03
            3212            3630     40.7671E-03     40.9482E-03
            3211            3630     40.7671E-03     40.9482E-03
            3230            3630     40.7671E-03     40.9482E-03
            3229            3630     40.7671E-03     40.9482E-03
            3214            3631     125.054E-03     123.294E-03
            3213            3631     125.054E-03     123.294E-03
            3232            3631     125.054E-03     123.294E-03
            3231            3631     125.054E-03     123.294E-03
            3214            3632     122.138E-03     120.863E-03
            3233            3632     122.138E-03     120.863E-03
            3232            3632     122.138E-03     120.863E-03
            3215            3632     122.138E-03     120.863E-03
            3215            3633     118.341E-03     117.145E-03
            3216            3633     118.341E-03     117.145E-03
            3233            3633     118.341E-03     117.145E-03
            3234            3633     118.341E-03     117.145E-03
            3235            3634     113.972E-03     112.989E-03
            3217            3634     113.972E-03     112.989E-03
            3234            3634     113.972E-03     112.989E-03
            3216            3634     113.972E-03     112.989E-03
            3217            3635     109.002E-03     108.343E-03
            3235            3635     109.002E-03     108.343E-03
            3236            3635     109.002E-03     108.343E-03
            3218            3635     109.002E-03     108.343E-03
            3218            3636     103.739E-03     103.352E-03
            3236            3636     103.739E-03     103.352E-03
            3219            3636     103.739E-03     103.352E-03
            3237            3636     103.739E-03     103.352E-03
            3238            3637     98.1904E-03     98.0415E-03
            3219            3637     98.1904E-03     98.0415E-03
            3237            3637     98.1904E-03     98.0415E-03
            3220            3637     98.1904E-03     98.0415E-03
            3220            3638     92.4926E-03     92.5282E-03
            3238            3638     92.4926E-03     92.5282E-03
            3221            3638     92.4926E-03     92.5282E-03
            3239            3638     92.4926E-03     92.5282E-03
            3240            3639     86.6803E-03     86.8395E-03
            3222            3639     86.6803E-03     86.8395E-03
            3239            3639     86.6803E-03     86.8395E-03
            3221            3639     86.6803E-03     86.8395E-03
            3223            3640     80.8190E-03     81.0623E-03
            3241            3640     80.8190E-03     81.0623E-03
            3222            3640     80.8190E-03     81.0623E-03
            3240            3640     80.8190E-03     81.0623E-03
            3241            3641     74.9400E-03     75.2128E-03
            3242            3641     74.9400E-03     75.2128E-03
            3224            3641     74.9400E-03     75.2128E-03
            3223            3641     74.9400E-03     75.2128E-03
            3242            3642     69.1185E-03     69.3764E-03
            3243            3642     69.1185E-03     69.3764E-03
            3224            3642     69.1185E-03     69.3764E-03
            3225            3642     69.1185E-03     69.3764E-03
            3244            3643     63.3709E-03     63.5605E-03
            3225            3643     63.3709E-03     63.5605E-03
            3243            3643     63.3709E-03     63.5605E-03
            3226            3643     63.3709E-03     63.5605E-03
            3226            3644     57.8777E-03     57.9481E-03
            3244            3644     57.8777E-03     57.9481E-03
            3227            3644     57.8777E-03     57.9481E-03
            3245            3644     57.8777E-03     57.9481E-03
            3245            3645     52.5936E-03     52.5707E-03
            3228            3645     52.5936E-03     52.5707E-03
            3227            3645     52.5936E-03     52.5707E-03
            3246            3645     52.5936E-03     52.5707E-03
            3247            3646     47.9989E-03     48.2611E-03
            3228            3646     47.9989E-03     48.2611E-03
            3229            3646     47.9989E-03     48.2611E-03
            3246            3646     47.9989E-03     48.2611E-03
            3247            3647     42.9564E-03     45.2011E-03
            3230            3647     42.9564E-03     45.2011E-03
            3229            3647     42.9564E-03     45.2011E-03
            3248            3647     42.9564E-03     45.2011E-03
            3232            3648     131.527E-03     132.266E-03
            3249            3648     131.527E-03     132.266E-03
            3250            3648     131.527E-03     132.266E-03
            3231            3648     131.527E-03     132.266E-03
            3251            3649     127.812E-03     129.073E-03
            3250            3649     127.812E-03     129.073E-03
            3232            3649     127.812E-03     129.073E-03
            3233            3649     127.812E-03     129.073E-03
            3251            3650     123.420E-03     124.504E-03
            3233            3650     123.420E-03     124.504E-03
            3234            3650     123.420E-03     124.504E-03
            3252            3650     123.420E-03     124.504E-03
            3252            3651     118.394E-03     119.270E-03
            3235            3651     118.394E-03     119.270E-03
            3253            3651     118.394E-03     119.270E-03
            3234            3651     118.394E-03     119.270E-03
            3253            3652     112.866E-03     113.572E-03
            3236            3652     112.866E-03     113.572E-03
            3235            3652     112.866E-03     113.572E-03
            3254            3652     112.866E-03     113.572E-03
            3236            3653     106.937E-03     107.614E-03
            3254            3653     106.937E-03     107.614E-03
            3255            3653     106.937E-03     107.614E-03
            3237            3653     106.937E-03     107.614E-03
            3237            3654     100.812E-03     101.483E-03
            3238            3654     100.812E-03     101.483E-03
            3255            3654     100.812E-03     101.483E-03
            3256            3654     100.812E-03     101.483E-03
            3256            3655     94.5660E-03     95.2521E-03
            3238            3655     94.5660E-03     95.2521E-03
            3257            3655     94.5660E-03     95.2521E-03
            3239            3655     94.5660E-03     95.2521E-03
            3240            3656     88.2695E-03     88.9797E-03
            3257            3656     88.2695E-03     88.9797E-03
            3258            3656     88.2695E-03     88.9797E-03
            3239            3656     88.2695E-03     88.9797E-03
            3258            3657     81.9710E-03     82.6885E-03
            3240            3657     81.9710E-03     82.6885E-03
            3241            3657     81.9710E-03     82.6885E-03
            3259            3657     81.9710E-03     82.6885E-03
            3241            3658     75.6916E-03     76.4192E-03
            3242            3658     75.6916E-03     76.4192E-03
            3259            3658     75.6916E-03     76.4192E-03
            3260            3658     75.6916E-03     76.4192E-03
            3243            3659     69.4545E-03     70.1777E-03
            3261            3659     69.4545E-03     70.1777E-03
            3242            3659     69.4545E-03     70.1777E-03
            3260            3659     69.4545E-03     70.1777E-03
            3243            3660     63.2805E-03     64.0367E-03
            3244            3660     63.2805E-03     64.0367E-03
            3262            3660     63.2805E-03     64.0367E-03
            3261            3660     63.2805E-03     64.0367E-03
            3263            3661     57.1664E-03     58.0332E-03
            3245            3661     57.1664E-03     58.0332E-03
            3262            3661     57.1664E-03     58.0332E-03
            3244            3661     57.1664E-03     58.0332E-03
            3245            3662     51.1144E-03     52.3771E-03
            3263            3662     51.1144E-03     52.3771E-03
            3246            3662     51.1144E-03     52.3771E-03
            3264            3662     51.1144E-03     52.3771E-03
            3246            3663     44.9343E-03     47.5816E-03
            3264            3663     44.9343E-03     47.5816E-03
            3265            3663     44.9343E-03     47.5816E-03
            3247            3663     44.9343E-03     47.5816E-03
            3265            3664     38.1500E-03     42.2021E-03
            3247            3664     38.1500E-03     42.2021E-03
            3248            3664     38.1500E-03     42.2021E-03
            3266            3664     38.1500E-03     42.2021E-03
            3249            3665     136.978E-03     139.012E-03
            3268            3665     136.978E-03     139.012E-03
            3267            3665     136.978E-03     139.012E-03
            3250            3665     136.978E-03     139.012E-03
            3250            3666     132.580E-03     135.014E-03
            3268            3666     132.580E-03     135.014E-03
            3251            3666     132.580E-03     135.014E-03
            3269            3666     132.580E-03     135.014E-03
            3269            3667     127.611E-03     130.056E-03
            3270            3667     127.611E-03     130.056E-03
            3252            3667     127.611E-03     130.056E-03
            3251            3667     127.611E-03     130.056E-03
            3270            3668     121.949E-03     124.132E-03
            3271            3668     121.949E-03     124.132E-03
            3253            3668     121.949E-03     124.132E-03
            3252            3668     121.949E-03     124.132E-03
            3271            3669     115.825E-03     117.711E-03
            3254            3669     115.825E-03     117.711E-03
            3272            3669     115.825E-03     117.711E-03
            3253            3669     115.825E-03     117.711E-03
            3255            3670     109.368E-03     111.027E-03
            3254            3670     109.368E-03     111.027E-03
            3272            3670     109.368E-03     111.027E-03
            3273            3670     109.368E-03     111.027E-03
            3256            3671     102.772E-03     104.260E-03
            3255            3671     102.772E-03     104.260E-03
            3273            3671     102.772E-03     104.260E-03
            3274            3671     102.772E-03     104.260E-03
            3274            3672     96.1001E-03     97.4874E-03
            3275            3672     96.1001E-03     97.4874E-03
            3257            3672     96.1001E-03     97.4874E-03
            3256            3672     96.1001E-03     97.4874E-03
            3258            3673     89.4493E-03     90.7598E-03
            3276            3673     89.4493E-03     90.7598E-03
            3275            3673     89.4493E-03     90.7598E-03
            3257            3673     89.4493E-03     90.7598E-03
            3258            3674     82.8116E-03     84.0869E-03
            3276            3674     82.8116E-03     84.0869E-03
            3277            3674     82.8116E-03     84.0869E-03
            3259            3674     82.8116E-03     84.0869E-03
            3278            3675     76.2283E-03     77.4887E-03
            3277            3675     76.2283E-03     77.4887E-03
            3260            3675     76.2283E-03     77.4887E-03
            3259            3675     76.2283E-03     77.4887E-03
            3261            3676     69.6676E-03     70.9665E-03
            3278            3676     69.6676E-03     70.9665E-03
            3279            3676     69.6676E-03     70.9665E-03
            3260            3676     69.6676E-03     70.9665E-03
            3280            3677     63.1340E-03     64.5515E-03
            3279            3677     63.1340E-03     64.5515E-03
            3261            3677     63.1340E-03     64.5515E-03
            3262            3677     63.1340E-03     64.5515E-03
            3262            3678     56.5518E-03     58.2452E-03
            3263            3678     56.5518E-03     58.2452E-03
            3280            3678     56.5518E-03     58.2452E-03
            3281            3678     56.5518E-03     58.2452E-03
            3264            3679     49.8510E-03     52.2418E-03
            3282            3679     49.8510E-03     52.2418E-03
            3263            3679     49.8510E-03     52.2418E-03
            3281            3679     49.8510E-03     52.2418E-03
            3282            3680     42.8388E-03     46.0534E-03
            3283            3680     42.8388E-03     46.0534E-03
            3265            3680     42.8388E-03     46.0534E-03
            3264            3680     42.8388E-03     46.0534E-03
            3283            3681     35.8888E-03     38.9056E-03
            3265            3681     35.8888E-03     38.9056E-03
            3266            3681     35.8888E-03     38.9056E-03
            3284            3681     35.8888E-03     38.9056E-03
            3285            3682     141.983E-03     143.797E-03
            3286            3682     141.983E-03     143.797E-03
            3267            3682     141.983E-03     143.797E-03
            3268            3682     141.983E-03     143.797E-03
            3269            3683     136.513E-03     139.495E-03
            3286            3683     136.513E-03     139.495E-03
            3287            3683     136.513E-03     139.495E-03
            3268            3683     136.513E-03     139.495E-03
            3270            3684     130.820E-03     133.925E-03
            3269            3684     130.820E-03     133.925E-03
            3287            3684     130.820E-03     133.925E-03
            3288            3684     130.820E-03     133.925E-03
            3271            3685     124.479E-03     127.465E-03
            3270            3685     124.479E-03     127.465E-03
            3289            3685     124.479E-03     127.465E-03
            3288            3685     124.479E-03     127.465E-03
            3289            3686     117.714E-03     120.460E-03
            3272            3686     117.714E-03     120.460E-03
            3290            3686     117.714E-03     120.460E-03
            3271            3686     117.714E-03     120.460E-03
            3291            3687     110.819E-03     113.249E-03
            3272            3687     110.819E-03     113.249E-03
            3290            3687     110.819E-03     113.249E-03
            3273            3687     110.819E-03     113.249E-03
            3291            3688     103.819E-03     106.040E-03
            3292            3688     103.819E-03     106.040E-03
            3273            3688     103.819E-03     106.040E-03
            3274            3688     103.819E-03     106.040E-03
            3274            3689     96.8925E-03     98.9206E-03
            3275            3689     96.8925E-03     98.9206E-03
            3292            3689     96.8925E-03     98.9206E-03
            3293            3689     96.8925E-03     98.9206E-03
            3293            3690     89.9840E-03     91.8952E-03
            3276            3690     89.9840E-03     91.8952E-03
            3275            3690     89.9840E-03     91.8952E-03
            3294            3690     89.9840E-03     91.8952E-03
            3276            3691     83.1580E-03     84.9925E-03
            3294            3691     83.1580E-03     84.9925E-03
            3277            3691     83.1580E-03     84.9925E-03
            3295            3691     83.1580E-03     84.9925E-03
            3277            3692     76.3635E-03     78.1817E-03
            3278            3692     76.3635E-03     78.1817E-03
            3296            3692     76.3635E-03     78.1817E-03
            3295            3692     76.3635E-03     78.1817E-03
            3278            3693     69.6250E-03     71.5011E-03
            3279            3693     69.6250E-03     71.5011E-03
            3296            3693     69.6250E-03     71.5011E-03
            3297            3693     69.6250E-03     71.5011E-03
            3280            3694     62.8610E-03     64.8980E-03
            3297            3694     62.8610E-03     64.8980E-03
            3279            3694     62.8610E-03     64.8980E-03
            3298            3694     62.8610E-03     64.8980E-03
            3280            3695     56.0303E-03     58.4184E-03
            3298            3695     56.0303E-03     58.4184E-03
            3281            3695     56.0303E-03     58.4184E-03
            3299            3695     56.0303E-03     58.4184E-03
            3299            3696     48.9962E-03     51.8897E-03
            3300            3696     48.9962E-03     51.8897E-03
            3281            3696     48.9962E-03     51.8897E-03
            3282            3696     48.9962E-03     51.8897E-03
            3283            3697     41.7699E-03     44.8885E-03
            3300            3697     41.7699E-03     44.8885E-03
            3282            3697     41.7699E-03     44.8885E-03
            3301            3697     41.7699E-03     44.8885E-03
            3301            3698     34.4453E-03     37.8986E-03
            3302            3698     34.4453E-03     37.8986E-03
            3284            3698     34.4453E-03     37.8986E-03
            3283            3698     34.4453E-03     37.8986E-03
            3286            3699     146.028E-03     148.383E-03
            3285            3699     146.028E-03     148.383E-03
            3304            3699     146.028E-03     148.383E-03
            3303            3699     146.028E-03     148.383E-03
            3305            3700     139.968E-03     142.837E-03
            3304            3700     139.968E-03     142.837E-03
            3286            3700     139.968E-03     142.837E-03
            3287            3700     139.968E-03     142.837E-03
            3287            3701     133.056E-03     136.521E-03
            3306            3701     133.056E-03     136.521E-03
            3288            3701     133.056E-03     136.521E-03
            3305            3701     133.056E-03     136.521E-03
            3306            3702     125.850E-03     129.307E-03
            3288            3702     125.850E-03     129.307E-03
            3307            3702     125.850E-03     129.307E-03
            3289            3702     125.850E-03     129.307E-03
            3307            3703     118.495E-03     121.718E-03
            3308            3703     118.495E-03     121.718E-03
            3289            3703     118.495E-03     121.718E-03
            3290            3703     118.495E-03     121.718E-03
            3291            3704     111.102E-03     114.139E-03
            3308            3704     111.102E-03     114.139E-03
            3309            3704     111.102E-03     114.139E-03
            3290            3704     111.102E-03     114.139E-03
            3309            3705     103.928E-03     106.697E-03
            3292            3705     103.928E-03     106.697E-03
            3310            3705     103.928E-03     106.697E-03
            3291            3705     103.928E-03     106.697E-03
            3293            3706     96.8099E-03     99.3986E-03
            3310            3706     96.8099E-03     99.3986E-03
            3311            3706     96.8099E-03     99.3986E-03
            3292            3706     96.8099E-03     99.3986E-03
            3312            3707     89.8249E-03     92.2677E-03
            3293            3707     89.8249E-03     92.2677E-03
            3294            3707     89.8249E-03     92.2677E-03
            3311            3707     89.8249E-03     92.2677E-03
            3294            3708     82.8953E-03     85.2558E-03
            3295            3708     82.8953E-03     85.2558E-03
            3313            3708     82.8953E-03     85.2558E-03
            3312            3708     82.8953E-03     85.2558E-03
            3313            3709     76.0496E-03     78.3897E-03
            3296            3709     76.0496E-03     78.3897E-03
            3314            3709     76.0496E-03     78.3897E-03
            3295            3709     76.0496E-03     78.3897E-03
            3315            3710     69.2252E-03     71.6155E-03
            3296            3710     69.2252E-03     71.6155E-03
            3297            3710     69.2252E-03     71.6155E-03
            3314            3710     69.2252E-03     71.6155E-03
            3298            3711     62.4399E-03     64.9944E-03
            3316            3711     62.4399E-03     64.9944E-03
            3315            3711     62.4399E-03     64.9944E-03
            3297            3711     62.4399E-03     64.9944E-03
            3317            3712     55.5700E-03     58.4160E-03
            3316            3712     55.5700E-03     58.4160E-03
            3298            3712     55.5700E-03     58.4160E-03
            3299            3712     55.5700E-03     58.4160E-03
            3317            3713     48.5545E-03     51.6483E-03
            3299            3713     48.5545E-03     51.6483E-03
            3318            3713     48.5545E-03     51.6483E-03
            3300            3713     48.5545E-03     51.6483E-03
            3301            3714     41.2671E-03     44.7463E-03
            3319            3714     41.2671E-03     44.7463E-03
            3300            3714     41.2671E-03     44.7463E-03
            3318            3714     41.2671E-03     44.7463E-03
            3302            3715     33.9323E-03     37.4275E-03
            3301            3715     33.9323E-03     37.4275E-03
            3319            3715     33.9323E-03     37.4275E-03
            3320            3715     33.9323E-03     37.4275E-03
            3303            3716     150.192E-03     152.234E-03
            3304            3716     150.192E-03     152.234E-03
            3322            3716     150.192E-03     152.234E-03
            3321            3716     150.192E-03     152.234E-03
            3323            3717     142.411E-03     145.692E-03
            3304            3717     142.411E-03     145.692E-03
            3305            3717     142.411E-03     145.692E-03
            3322            3717     142.411E-03     145.692E-03
            3323            3718     134.340E-03     137.823E-03
            3306            3718     134.340E-03     137.823E-03
            3305            3718     134.340E-03     137.823E-03
            3324            3718     134.340E-03     137.823E-03
            3324            3719     125.996E-03     129.567E-03
            3306            3719     125.996E-03     129.567E-03
            3325            3719     125.996E-03     129.567E-03
            3307            3719     125.996E-03     129.567E-03
            3326            3720     117.890E-03     121.477E-03
            3307            3720     117.890E-03     121.477E-03
            3308            3720     117.890E-03     121.477E-03
            3325            3720     117.890E-03     121.477E-03
            3309            3721     110.359E-03     113.726E-03
            3326            3721     110.359E-03     113.726E-03
            3327            3721     110.359E-03     113.726E-03
            3308            3721     110.359E-03     113.726E-03
            3327            3722     103.034E-03     106.224E-03
            3310            3722     103.034E-03     106.224E-03
            3309            3722     103.034E-03     106.224E-03
            3328            3722     103.034E-03     106.224E-03
            3310            3723     95.9435E-03     98.9643E-03
            3329            3723     95.9435E-03     98.9643E-03
            3311            3723     95.9435E-03     98.9643E-03
            3328            3723     95.9435E-03     98.9643E-03
            3311            3724     88.9590E-03     91.8611E-03
            3330            3724     88.9590E-03     91.8611E-03
            3312            3724     88.9590E-03     91.8611E-03
            3329            3724     88.9590E-03     91.8611E-03
            3312            3725     82.0793E-03     84.9098E-03
            3330            3725     82.0793E-03     84.9098E-03
            3331            3725     82.0793E-03     84.9098E-03
            3313            3725     82.0793E-03     84.9098E-03
            3331            3726     75.2572E-03     78.0617E-03
            3332            3726     75.2572E-03     78.0617E-03
            3313            3726     75.2572E-03     78.0617E-03
            3314            3726     75.2572E-03     78.0617E-03
            3332            3727     68.5112E-03     71.3523E-03
            3314            3727     68.5112E-03     71.3523E-03
            3315            3727     68.5112E-03     71.3523E-03
            3333            3727     68.5112E-03     71.3523E-03
            3333            3728     61.7898E-03     64.7370E-03
            3316            3728     61.7898E-03     64.7370E-03
            3334            3728     61.7898E-03     64.7370E-03
            3315            3728     61.7898E-03     64.7370E-03
            3317            3729     55.1578E-03     58.2741E-03
            3334            3729     55.1578E-03     58.2741E-03
            3316            3729     55.1578E-03     58.2741E-03
            3335            3729     55.1578E-03     58.2741E-03
            3317            3730     48.3937E-03     51.8255E-03
            3336            3730     48.3937E-03     51.8255E-03
            3318            3730     48.3937E-03     51.8255E-03
            3335            3730     48.3937E-03     51.8255E-03
            3336            3731     41.3902E-03     44.9626E-03
            3337            3731     41.3902E-03     44.9626E-03
            3319            3731     41.3902E-03     44.9626E-03
            3318            3731     41.3902E-03     44.9626E-03
            3320            3732     33.9965E-03     37.7838E-03
            3338            3732     33.9965E-03     37.7838E-03
            3319            3732     33.9965E-03     37.7838E-03
            3337            3732     33.9965E-03     37.7838E-03
            3339            3733     153.370E-03     156.320E-03
            3340            3733     153.370E-03     156.320E-03
            3322            3733     153.370E-03     156.320E-03
            3321            3733     153.370E-03     156.320E-03
            3322            3734     144.312E-03     147.160E-03
            3341            3734     144.312E-03     147.160E-03
            3340            3734     144.312E-03     147.160E-03
            3323            3734     144.312E-03     147.160E-03
            3323            3735     134.036E-03     137.359E-03
            3341            3735     134.036E-03     137.359E-03
            3342            3735     134.036E-03     137.359E-03
            3324            3735     134.036E-03     137.359E-03
            3343            3736     124.391E-03     128.101E-03
            3324            3736     124.391E-03     128.101E-03
            3325            3736     124.391E-03     128.101E-03
            3342            3736     124.391E-03     128.101E-03
            3325            3737     116.187E-03     119.847E-03
            3344            3737     116.187E-03     119.847E-03
            3326            3737     116.187E-03     119.847E-03
            3343            3737     116.187E-03     119.847E-03
            3345            3738     108.563E-03     112.119E-03
            3344            3738     108.563E-03     112.119E-03
            3327            3738     108.563E-03     112.119E-03
            3326            3738     108.563E-03     112.119E-03
            3328            3739     101.360E-03     104.812E-03
            3345            3739     101.360E-03     104.812E-03
            3346            3739     101.360E-03     104.812E-03
            3327            3739     101.360E-03     104.812E-03
            3328            3740     94.3816E-03     97.7393E-03
            3329            3740     94.3816E-03     97.7393E-03
            3347            3740     94.3816E-03     97.7393E-03
            3346            3740     94.3816E-03     97.7393E-03
            3348            3741     87.5384E-03     90.8367E-03
            3330            3741     87.5384E-03     90.8367E-03
            3329            3741     87.5384E-03     90.8367E-03
            3347            3741     87.5384E-03     90.8367E-03
            3349            3742     80.7858E-03     84.0420E-03
            3330            3742     80.7858E-03     84.0420E-03
            3348            3742     80.7858E-03     84.0420E-03
            3331            3742     80.7858E-03     84.0420E-03
            3349            3743     74.1033E-03     77.3436E-03
            3331            3743     74.1033E-03     77.3436E-03
            3332            3743     74.1033E-03     77.3436E-03
            3350            3743     74.1033E-03     77.3436E-03
            3351            3744     67.4935E-03     70.7391E-03
            3350            3744     67.4935E-03     70.7391E-03
            3333            3744     67.4935E-03     70.7391E-03
            3332            3744     67.4935E-03     70.7391E-03
            3334            3745     60.9977E-03     64.2702E-03
            3351            3745     60.9977E-03     64.2702E-03
            3352            3745     60.9977E-03     64.2702E-03
            3333            3745     60.9977E-03     64.2702E-03
            3334            3746     54.6055E-03     57.9599E-03
            3352            3746     54.6055E-03     57.9599E-03
            3335            3746     54.6055E-03     57.9599E-03
            3353            3746     54.6055E-03     57.9599E-03
            3336            3747     48.5166E-03     52.0419E-03
            3354            3747     48.5166E-03     52.0419E-03
            3353            3747     48.5166E-03     52.0419E-03
            3335            3747     48.5166E-03     52.0419E-03
            3337            3748     42.1180E-03     46.0129E-03
            3336            3748     42.1180E-03     46.0129E-03
            3354            3748     42.1180E-03     46.0129E-03
            3355            3748     42.1180E-03     46.0129E-03
            3356            3749     34.9903E-03     38.9125E-03
            3355            3749     34.9903E-03     38.9125E-03
            3337            3749     34.9903E-03     38.9125E-03
            3338            3749     34.9903E-03     38.9125E-03
            3357            3750     156.938E-03     157.931E-03
            3358            3750     156.938E-03     157.931E-03
            3340            3750     156.938E-03     157.931E-03
            3339            3750     156.938E-03     157.931E-03
            3341            3751     143.747E-03     146.256E-03
            3340            3751     143.747E-03     146.256E-03
            3358            3751     143.747E-03     146.256E-03
            3359            3751     143.747E-03     146.256E-03
            3360            3752     131.002E-03     134.427E-03
            3359            3752     131.002E-03     134.427E-03
            3342            3752     131.002E-03     134.427E-03
            3341            3752     131.002E-03     134.427E-03
            3361            3753     121.555E-03     125.108E-03
            3342            3753     121.555E-03     125.108E-03
            3360            3753     121.555E-03     125.108E-03
            3343            3753     121.555E-03     125.108E-03
            3343            3754     113.459E-03     117.000E-03
            3361            3754     113.459E-03     117.000E-03
            3362            3754     113.459E-03     117.000E-03
            3344            3754     113.459E-03     117.000E-03
            3345            3755     106.058E-03     109.653E-03
            3362            3755     106.058E-03     109.653E-03
            3363            3755     106.058E-03     109.653E-03
            3344            3755     106.058E-03     109.653E-03
            3364            3756     99.1106E-03     102.717E-03
            3363            3756     99.1106E-03     102.717E-03
            3346            3756     99.1106E-03     102.717E-03
            3345            3756     99.1106E-03     102.717E-03
            3346            3757     92.3526E-03     95.9994E-03
            3365            3757     92.3526E-03     95.9994E-03
            3347            3757     92.3526E-03     95.9994E-03
            3364            3757     92.3526E-03     95.9994E-03
            3365            3758     85.7405E-03     89.4079E-03
            3366            3758     85.7405E-03     89.4079E-03
            3348            3758     85.7405E-03     89.4079E-03
            3347            3758     85.7405E-03     89.4079E-03
            3366            3759     79.1881E-03     82.8736E-03
            3349            3759     79.1881E-03     82.8736E-03
            3367            3759     79.1881E-03     82.8736E-03
            3348            3759     79.1881E-03     82.8736E-03
            3367            3760     72.7164E-03     76.4020E-03
            3350            3760     72.7164E-03     76.4020E-03
            3368            3760     72.7164E-03     76.4020E-03
            3349            3760     72.7164E-03     76.4020E-03
            3350            3761     66.3160E-03     69.9798E-03
            3351            3761     66.3160E-03     69.9798E-03
            3368            3761     66.3160E-03     69.9798E-03
            3369            3761     66.3160E-03     69.9798E-03
            3352            3762     60.0727E-03     63.6972E-03
            3351            3762     60.0727E-03     63.6972E-03
            3369            3762     60.0727E-03     63.6972E-03
            3370            3762     60.0727E-03     63.6972E-03
            3352            3763     54.0547E-03     57.6149E-03
            3371            3763     54.0547E-03     57.6149E-03
            3353            3763     54.0547E-03     57.6149E-03
            3370            3763     54.0547E-03     57.6149E-03
            3353            3764     48.4416E-03     51.9495E-03
            3354            3764     48.4416E-03     51.9495E-03
            3372            3764     48.4416E-03     51.9495E-03
            3371            3764     48.4416E-03     51.9495E-03
            3373            3765     43.5843E-03     47.3254E-03
            3354            3765     43.5843E-03     47.3254E-03
            3355            3765     43.5843E-03     47.3254E-03
            3372            3765     43.5843E-03     47.3254E-03
            3373            3766     37.3839E-03     41.8166E-03
            3355            3766     37.3839E-03     41.8166E-03
            3356            3766     37.3839E-03     41.8166E-03
            3374            3766     37.3839E-03     41.8166E-03
            3376            3767     155.966E-03     158.053E-03
            3357            3767     155.966E-03     158.053E-03
            3375            3767     155.966E-03     158.053E-03
            3358            3767     155.966E-03     158.053E-03
            3358            3768     138.397E-03     141.412E-03
            3377            3768     138.397E-03     141.412E-03
            3359            3768     138.397E-03     141.412E-03
            3376            3768     138.397E-03     141.412E-03
            3378            3769     126.669E-03     129.572E-03
            3360            3769     126.669E-03     129.572E-03
            3377            3769     126.669E-03     129.572E-03
            3359            3769     126.669E-03     129.572E-03
            3379            3770     117.948E-03     120.941E-03
            3360            3770     117.948E-03     120.941E-03
            3361            3770     117.948E-03     120.941E-03
            3378            3770     117.948E-03     120.941E-03
            3361            3771     110.189E-03     113.458E-03
            3362            3771     110.189E-03     113.458E-03
            3379            3771     110.189E-03     113.458E-03
            3380            3771     110.189E-03     113.458E-03
            3362            3772     103.234E-03     106.751E-03
            3381            3772     103.234E-03     106.751E-03
            3380            3772     103.234E-03     106.751E-03
            3363            3772     103.234E-03     106.751E-03
            3382            3773     96.5594E-03     100.321E-03
            3381            3773     96.5594E-03     100.321E-03
            3363            3773     96.5594E-03     100.321E-03
            3364            3773     96.5594E-03     100.321E-03
            3364            3774     90.1279E-03     94.0737E-03
            3382            3774     90.1279E-03     94.0737E-03
            3383            3774     90.1279E-03     94.0737E-03
            3365            3774     90.1279E-03     94.0737E-03
            3365            3775     83.7695E-03     87.8512E-03
            3383            3775     83.7695E-03     87.8512E-03
            3384            3775     83.7695E-03     87.8512E-03
            3366            3775     83.7695E-03     87.8512E-03
            3367            3776     77.4989E-03     81.6635E-03
            3385            3776     77.4989E-03     81.6635E-03
            3366            3776     77.4989E-03     81.6635E-03
            3384            3776     77.4989E-03     81.6635E-03
            3386            3777     71.2646E-03     75.4570E-03
            3385            3777     71.2646E-03     75.4570E-03
            3367            3777     71.2646E-03     75.4570E-03
            3368            3777     71.2646E-03     75.4570E-03
            3368            3778     65.1497E-03     69.3117E-03
            3369            3778     65.1497E-03     69.3117E-03
            3386            3778     65.1497E-03     69.3117E-03
            3387            3778     65.1497E-03     69.3117E-03
            3370            3779     59.1561E-03     63.2116E-03
            3388            3779     59.1561E-03     63.2116E-03
            3369            3779     59.1561E-03     63.2116E-03
            3387            3779     59.1561E-03     63.2116E-03
            3389            3780     53.5416E-03     57.3926E-03
            3371            3780     53.5416E-03     57.3926E-03
            3370            3780     53.5416E-03     57.3926E-03
            3388            3780     53.5416E-03     57.3926E-03
            3390            3781     48.3173E-03     51.8739E-03
            3371            3781     48.3173E-03     51.8739E-03
            3389            3781     48.3173E-03     51.8739E-03
            3372            3781     48.3173E-03     51.8739E-03
            3372            3782     44.5412E-03     47.6497E-03
            3373            3782     44.5412E-03     47.6497E-03
            3391            3782     44.5412E-03     47.6497E-03
            3390            3782     44.5412E-03     47.6497E-03
            3374            3783     41.8098E-03     45.0161E-03
            3373            3783     41.8098E-03     45.0161E-03
            3391            3783     41.8098E-03     45.0161E-03
            3392            3783     41.8098E-03     45.0161E-03
            4348            4562     154.331E-03     159.226E-03
            4366            4562     154.331E-03     159.226E-03
            4365            4562     154.331E-03     159.226E-03
            4347            4562     154.331E-03     159.226E-03
            4366            4563     138.009E-03     140.844E-03
            4367            4563     138.009E-03     140.844E-03
            4349            4563     138.009E-03     140.844E-03
            4348            4563     138.009E-03     140.844E-03
            4349            4564     126.160E-03     128.613E-03
            4350            4564     126.160E-03     128.613E-03
            4368            4564     126.160E-03     128.613E-03
            4367            4564     126.160E-03     128.613E-03
            4369            4565     115.234E-03     117.774E-03
            4368            4565     115.234E-03     117.774E-03
            4351            4565     115.234E-03     117.774E-03
            4350            4565     115.234E-03     117.774E-03
            4352            4566     105.142E-03     107.765E-03
            4351            4566     105.142E-03     107.765E-03
            4370            4566     105.142E-03     107.765E-03
            4369            4566     105.142E-03     107.765E-03
            4352            4567     95.3479E-03     98.1759E-03
            4370            4567     95.3479E-03     98.1759E-03
            4371            4567     95.3479E-03     98.1759E-03
            4353            4567     95.3479E-03     98.1759E-03
            4353            4568     85.8333E-03     88.7856E-03
            4371            4568     85.8333E-03     88.7856E-03
            4354            4568     85.8333E-03     88.7856E-03
            4372            4568     85.8333E-03     88.7856E-03
            4355            4569     76.4177E-03     79.5137E-03
            4373            4569     76.4177E-03     79.5137E-03
            4372            4569     76.4177E-03     79.5137E-03
            4354            4569     76.4177E-03     79.5137E-03
            4355            4570     67.0948E-03     70.2714E-03
            4374            4570     67.0948E-03     70.2714E-03
            4373            4570     67.0948E-03     70.2714E-03
            4356            4570     67.0948E-03     70.2714E-03
            4356            4571     57.7960E-03     61.0393E-03
            4375            4571     57.7960E-03     61.0393E-03
            4374            4571     57.7960E-03     61.0393E-03
            4357            4571     57.7960E-03     61.0393E-03
            4357            4572     48.5163E-03     51.7802E-03
            4376            4572     48.5163E-03     51.7802E-03
            4358            4572     48.5163E-03     51.7802E-03
            4375            4572     48.5163E-03     51.7802E-03
            4358            4573     39.2322E-03     42.4806E-03
            4377            4573     39.2322E-03     42.4806E-03
            4376            4573     39.2322E-03     42.4806E-03
            4359            4573     39.2322E-03     42.4806E-03
            4378            4574     29.9295E-03     33.1142E-03
            4377            4574     29.9295E-03     33.1142E-03
            4359            4574     29.9295E-03     33.1142E-03
            4360            4574     29.9295E-03     33.1142E-03
            4379            4575     20.6090E-03     23.6514E-03
            4378            4575     20.6090E-03     23.6514E-03
            4360            4575     20.6090E-03     23.6514E-03
            4361            4575     20.6090E-03     23.6514E-03
            4362            4576     11.2645E-03     14.0520E-03
            4380            4576     11.2645E-03     14.0520E-03
            4361            4576     11.2645E-03     14.0520E-03
            4379            4576     11.2645E-03     14.0520E-03
            4380            4577     5.17727E-03     5.77399E-03
            4363            4577     5.17727E-03     5.77399E-03
            4381            4577     5.17727E-03     5.77399E-03
            4362            4577     5.17727E-03     5.77399E-03
            4364            4578     9.49344E-03     8.52378E-03
            4382            4578     9.49344E-03     8.52378E-03
            4381            4578     9.49344E-03     8.52378E-03
            4363            4578     9.49344E-03     8.52378E-03
            4383            4579     159.686E-03     161.871E-03
            4365            4579     159.686E-03     161.871E-03
            4384            4579     159.686E-03     161.871E-03
            4366            4579     159.686E-03     161.871E-03
            4385            4580     137.438E-03     140.605E-03
            4367            4580     137.438E-03     140.605E-03
            4384            4580     137.438E-03     140.605E-03
            4366            4580     137.438E-03     140.605E-03
            4386            4581     121.914E-03     124.916E-03
            4385            4581     121.914E-03     124.916E-03
            4368            4581     121.914E-03     124.916E-03
            4367            4581     121.914E-03     124.916E-03
            4386            4582     110.001E-03     113.020E-03
            4369            4582     110.001E-03     113.020E-03
            4368            4582     110.001E-03     113.020E-03
            4387            4582     110.001E-03     113.020E-03
            4387            4583     99.3148E-03     102.527E-03
            4369            4583     99.3148E-03     102.527E-03
            4370            4583     99.3148E-03     102.527E-03
            4388            4583     99.3148E-03     102.527E-03
            4370            4584     89.6281E-03     93.0483E-03
            4371            4584     89.6281E-03     93.0483E-03
            4389            4584     89.6281E-03     93.0483E-03
            4388            4584     89.6281E-03     93.0483E-03
            4390            4585     80.3564E-03     83.9859E-03
            4371            4585     80.3564E-03     83.9859E-03
            4372            4585     80.3564E-03     83.9859E-03
            4389            4585     80.3564E-03     83.9859E-03
            4372            4586     71.4071E-03     75.2076E-03
            4373            4586     71.4071E-03     75.2076E-03
            4391            4586     71.4071E-03     75.2076E-03
            4390            4586     71.4071E-03     75.2076E-03
            4391            4587     62.5890E-03     66.5188E-03
            4373            4587     62.5890E-03     66.5188E-03
            4374            4587     62.5890E-03     66.5188E-03
            4392            4587     62.5890E-03     66.5188E-03
            4375            4588     53.8597E-03     57.8682E-03
            4374            4588     53.8597E-03     57.8682E-03
            4392            4588     53.8597E-03     57.8682E-03
            4393            4588     53.8597E-03     57.8682E-03
            4394            4589     45.1550E-03     49.1869E-03
            4376            4589     45.1550E-03     49.1869E-03
            4375            4589     45.1550E-03     49.1869E-03
            4393            4589     45.1550E-03     49.1869E-03
            4376            4590     36.4408E-03     40.4285E-03
            4395            4590     36.4408E-03     40.4285E-03
            4394            4590     36.4408E-03     40.4285E-03
            4377            4590     36.4408E-03     40.4285E-03
            4377            4591     27.7069E-03     31.5593E-03
            4395            4591     27.7069E-03     31.5593E-03
            4396            4591     27.7069E-03     31.5593E-03
            4378            4591     27.7069E-03     31.5593E-03
            4397            4592     18.8818E-03     22.4668E-03
            4379            4592     18.8818E-03     22.4668E-03
            4396            4592     18.8818E-03     22.4668E-03
            4378            4592     18.8818E-03     22.4668E-03
            4380            4593     10.1572E-03     13.1636E-03
            4398            4593     10.1572E-03     13.1636E-03
            4379            4593     10.1572E-03     13.1636E-03
            4397            4593     10.1572E-03     13.1636E-03
            4380            4594     6.08941E-03     6.05936E-03
            4399            4594     6.08941E-03     6.05936E-03
            4398            4594     6.08941E-03     6.05936E-03
            4381            4594     6.08941E-03     6.05936E-03
            4399            4595     12.0182E-03     9.61520E-03
            4382            4595     12.0182E-03     9.61520E-03
            4381            4595     12.0182E-03     9.61520E-03
            4400            4595     12.0182E-03     9.61520E-03
            4401            4596     159.944E-03     160.440E-03
            4384            4596     159.944E-03     160.440E-03
            4402            4596     159.944E-03     160.440E-03
            4383            4596     159.944E-03     160.440E-03
            4403            4597     142.968E-03     145.019E-03
            4402            4597     142.968E-03     145.019E-03
            4385            4597     142.968E-03     145.019E-03
            4384            4597     142.968E-03     145.019E-03
            4404            4598     126.411E-03     129.544E-03
            4386            4598     126.411E-03     129.544E-03
            4403            4598     126.411E-03     129.544E-03
            4385            4598     126.411E-03     129.544E-03
            4405            4599     113.717E-03     117.052E-03
            4387            4599     113.717E-03     117.052E-03
            4386            4599     113.717E-03     117.052E-03
            4404            4599     113.717E-03     117.052E-03
            4387            4600     102.666E-03     106.037E-03
            4406            4600     102.666E-03     106.037E-03
            4405            4600     102.666E-03     106.037E-03
            4388            4600     102.666E-03     106.037E-03
            4406            4601     92.5073E-03     95.9653E-03
            4388            4601     92.5073E-03     95.9653E-03
            4389            4601     92.5073E-03     95.9653E-03
            4407            4601     92.5073E-03     95.9653E-03
            4408            4602     82.9478E-03     86.4277E-03
            4407            4602     82.9478E-03     86.4277E-03
            4390            4602     82.9478E-03     86.4277E-03
            4389            4602     82.9478E-03     86.4277E-03
            4391            4603     73.6616E-03     77.1923E-03
            4408            4603     73.6616E-03     77.1923E-03
            4390            4603     73.6616E-03     77.1923E-03
            4409            4603     73.6616E-03     77.1923E-03
            4410            4604     64.5777E-03     68.1231E-03
            4409            4604     64.5777E-03     68.1231E-03
            4391            4604     64.5777E-03     68.1231E-03
            4392            4604     64.5777E-03     68.1231E-03
            4393            4605     55.5743E-03     59.1294E-03
            4410            4605     55.5743E-03     59.1294E-03
            4392            4605     55.5743E-03     59.1294E-03
            4411            4605     55.5743E-03     59.1294E-03
            4393            4606     46.6294E-03     50.1556E-03
            4411            4606     46.6294E-03     50.1556E-03
            4394            4606     46.6294E-03     50.1556E-03
            4412            4606     46.6294E-03     50.1556E-03
            4394            4607     37.7012E-03     41.1595E-03
            4413            4607     37.7012E-03     41.1595E-03
            4412            4607     37.7012E-03     41.1595E-03
            4395            4607     37.7012E-03     41.1595E-03
            4395            4608     28.7929E-03     32.0944E-03
            4396            4608     28.7929E-03     32.0944E-03
            4414            4608     28.7929E-03     32.0944E-03
            4413            4608     28.7929E-03     32.0944E-03
            4396            4609     19.9052E-03     22.9289E-03
            4397            4609     19.9052E-03     22.9289E-03
            4414            4609     19.9052E-03     22.9289E-03
            4415            4609     19.9052E-03     22.9289E-03
            4397            4610     11.6742E-03     13.7569E-03
            4398            4610     11.6742E-03     13.7569E-03
            4416            4610     11.6742E-03     13.7569E-03
            4415            4610     11.6742E-03     13.7569E-03
            4398            4611     8.15047E-03     7.12177E-03
            4416            4611     8.15047E-03     7.12177E-03
            4399            4611     8.15047E-03     7.12177E-03
            4417            4611     8.15047E-03     7.12177E-03
            4399            4612     12.3473E-03     8.56521E-03
            4400            4612     12.3473E-03     8.56521E-03
            4418            4612     12.3473E-03     8.56521E-03
            4417            4612     12.3473E-03     8.56521E-03
            4420            4613     155.027E-03     157.600E-03
            4419            4613     155.027E-03     157.600E-03
            4401            4613     155.027E-03     157.600E-03
            4402            4613     155.027E-03     157.600E-03
            4421            4614     142.883E-03     145.215E-03
            4420            4614     142.883E-03     145.215E-03
            4402            4614     142.883E-03     145.215E-03
            4403            4614     142.883E-03     145.215E-03
            4404            4615     129.380E-03     132.166E-03
            4403            4615     129.380E-03     132.166E-03
            4421            4615     129.380E-03     132.166E-03
            4422            4615     129.380E-03     132.166E-03
            4423            4616     116.564E-03     119.898E-03
            4405            4616     116.564E-03     119.898E-03
            4422            4616     116.564E-03     119.898E-03
            4404            4616     116.564E-03     119.898E-03
            4423            4617     105.478E-03     108.869E-03
            4424            4617     105.478E-03     108.869E-03
            4405            4617     105.478E-03     108.869E-03
            4406            4617     105.478E-03     108.869E-03
            4406            4618     95.1328E-03     98.4962E-03
            4424            4618     95.1328E-03     98.4962E-03
            4407            4618     95.1328E-03     98.4962E-03
            4425            4618     95.1328E-03     98.4962E-03
            4426            4619     85.3174E-03     88.6435E-03
            4407            4619     85.3174E-03     88.6435E-03
            4408            4619     85.3174E-03     88.6435E-03
            4425            4619     85.3174E-03     88.6435E-03
            4426            4620     75.8245E-03     79.0742E-03
            4427            4620     75.8245E-03     79.0742E-03
            4408            4620     75.8245E-03     79.0742E-03
            4409            4620     75.8245E-03     79.0742E-03
            4427            4621     66.5057E-03     69.7115E-03
            4428            4621     66.5057E-03     69.7115E-03
            4409            4621     66.5057E-03     69.7115E-03
            4410            4621     66.5057E-03     69.7115E-03
            4410            4622     57.3204E-03     60.4659E-03
            4428            4622     57.3204E-03     60.4659E-03
            4429            4622     57.3204E-03     60.4659E-03
            4411            4622     57.3204E-03     60.4659E-03
            4412            4623     48.2074E-03     51.3009E-03
            4429            4623     48.2074E-03     51.3009E-03
            4430            4623     48.2074E-03     51.3009E-03
            4411            4623     48.2074E-03     51.3009E-03
            4430            4624     39.1839E-03     42.1839E-03
            4431            4624     39.1839E-03     42.1839E-03
            4412            4624     39.1839E-03     42.1839E-03
            4413            4624     39.1839E-03     42.1839E-03
            4414            4625     30.2389E-03     33.1010E-03
            4413            4625     30.2389E-03     33.1010E-03
            4431            4625     30.2389E-03     33.1010E-03
            4432            4625     30.2389E-03     33.1010E-03
            4432            4626     21.5962E-03     24.0979E-03
            4433            4626     21.5962E-03     24.0979E-03
            4415            4626     21.5962E-03     24.0979E-03
            4414            4626     21.5962E-03     24.0979E-03
            4415            4627     13.7949E-03     15.3707E-03
            4416            4627     13.7949E-03     15.3707E-03
            4433            4627     13.7949E-03     15.3707E-03
            4434            4627     13.7949E-03     15.3707E-03
            4416            4628     9.75147E-03     8.84117E-03
            4417            4628     9.75147E-03     8.84117E-03
            4434            4628     9.75147E-03     8.84117E-03
            4435            4628     9.75147E-03     8.84117E-03
            4436            4629     12.1561E-03     9.02876E-03
            4435            4629     12.1561E-03     9.02876E-03
            4418            4629     12.1561E-03     9.02876E-03
            4417            4629     12.1561E-03     9.02876E-03
            4438            4630     150.669E-03     152.373E-03
            4437            4630     150.669E-03     152.373E-03
            4419            4630     150.669E-03     152.373E-03
            4420            4630     150.669E-03     152.373E-03
            4421            4631     140.195E-03     142.911E-03
            4438            4631     140.195E-03     142.911E-03
            4439            4631     140.195E-03     142.911E-03
            4420            4631     140.195E-03     142.911E-03
            4440            4632     129.270E-03     132.238E-03
            4422            4632     129.270E-03     132.238E-03
            4439            4632     129.270E-03     132.238E-03
            4421            4632     129.270E-03     132.238E-03
            4441            4633     118.119E-03     121.236E-03
            4422            4633     118.119E-03     121.236E-03
            4440            4633     118.119E-03     121.236E-03
            4423            4633     118.119E-03     121.236E-03
            4424            4634     107.259E-03     110.536E-03
            4441            4634     107.259E-03     110.536E-03
            4442            4634     107.259E-03     110.536E-03
            4423            4634     107.259E-03     110.536E-03
            4425            4635     97.0839E-03     100.265E-03
            4424            4635     97.0839E-03     100.265E-03
            4442            4635     97.0839E-03     100.265E-03
            4443            4635     97.0839E-03     100.265E-03
            4444            4636     87.2118E-03     90.2735E-03
            4426            4636     87.2118E-03     90.2735E-03
            4443            4636     87.2118E-03     90.2735E-03
            4425            4636     87.2118E-03     90.2735E-03
            4445            4637     77.6125E-03     80.5588E-03
            4426            4637     77.6125E-03     80.5588E-03
            4444            4637     77.6125E-03     80.5588E-03
            4427            4637     77.6125E-03     80.5588E-03
            4428            4638     68.1891E-03     71.0212E-03
            4445            4638     68.1891E-03     71.0212E-03
            4427            4638     68.1891E-03     71.0212E-03
            4446            4638     68.1891E-03     71.0212E-03
            4428            4639     58.8926E-03     61.6481E-03
            4446            4639     58.8926E-03     61.6481E-03
            4447            4639     58.8926E-03     61.6481E-03
            4429            4639     58.8926E-03     61.6481E-03
            4447            4640     49.7240E-03     52.4058E-03
            4448            4640     49.7240E-03     52.4058E-03
            4429            4640     49.7240E-03     52.4058E-03
            4430            4640     49.7240E-03     52.4058E-03
            4430            4641     40.6791E-03     43.2955E-03
            4448            4641     40.6791E-03     43.2955E-03
            4449            4641     40.6791E-03     43.2955E-03
            4431            4641     40.6791E-03     43.2955E-03
            4431            4642     31.8711E-03     34.3463E-03
            4450            4642     31.8711E-03     34.3463E-03
            4432            4642     31.8711E-03     34.3463E-03
            4449            4642     31.8711E-03     34.3463E-03
            4451            4643     23.4658E-03     25.6483E-03
            4433            4643     23.4658E-03     25.6483E-03
            4450            4643     23.4658E-03     25.6483E-03
            4432            4643     23.4658E-03     25.6483E-03
            4433            4644     16.1642E-03     17.5682E-03
            4452            4644     16.1642E-03     17.5682E-03
            4451            4644     16.1642E-03     17.5682E-03
            4434            4644     16.1642E-03     17.5682E-03
            4453            4645     12.1849E-03     11.6328E-03
            4435            4645     12.1849E-03     11.6328E-03
            4452            4645     12.1849E-03     11.6328E-03
            4434            4645     12.1849E-03     11.6328E-03
            4453            4646     13.6276E-03     10.7998E-03
            4454            4646     13.6276E-03     10.7998E-03
            4436            4646     13.6276E-03     10.7998E-03
            4435            4646     13.6276E-03     10.7998E-03
            4456            4647     145.581E-03     147.511E-03
            4438            4647     145.581E-03     147.511E-03
            4437            4647     145.581E-03     147.511E-03
            4455            4647     145.581E-03     147.511E-03
            4456            4648     136.975E-03     139.388E-03
            4439            4648     136.975E-03     139.388E-03
            4457            4648     136.975E-03     139.388E-03
            4438            4648     136.975E-03     139.388E-03
            4439            4649     127.606E-03     130.542E-03
            4457            4649     127.606E-03     130.542E-03
            4440            4649     127.606E-03     130.542E-03
            4458            4649     127.606E-03     130.542E-03
            4458            4650     117.868E-03     120.941E-03
            4440            4650     117.868E-03     120.941E-03
            4441            4650     117.868E-03     120.941E-03
            4459            4650     117.868E-03     120.941E-03
            4459            4651     107.972E-03     110.962E-03
            4441            4651     107.972E-03     110.962E-03
            4442            4651     107.972E-03     110.962E-03
            4460            4651     107.972E-03     110.962E-03
            4460            4652     98.0856E-03     100.975E-03
            4442            4652     98.0856E-03     100.975E-03
            4461            4652     98.0856E-03     100.975E-03
            4443            4652     98.0856E-03     100.975E-03
            4443            4653     88.4147E-03     91.1212E-03
            4462            4653     88.4147E-03     91.1212E-03
            4444            4653     88.4147E-03     91.1212E-03
            4461            4653     88.4147E-03     91.1212E-03
            4444            4654     78.8623E-03     81.4090E-03
            4445            4654     78.8623E-03     81.4090E-03
            4462            4654     78.8623E-03     81.4090E-03
            4463            4654     78.8623E-03     81.4090E-03
            4445            4655     69.4578E-03     71.8780E-03
            4464            4655     69.4578E-03     71.8780E-03
            4446            4655     69.4578E-03     71.8780E-03
            4463            4655     69.4578E-03     71.8780E-03
            4446            4656     60.1847E-03     62.5098E-03
            4464            4656     60.1847E-03     62.5098E-03
            4447            4656     60.1847E-03     62.5098E-03
            4465            4656     60.1847E-03     62.5098E-03
            4465            4657     51.0538E-03     53.3253E-03
            4466            4657     51.0538E-03     53.3253E-03
            4447            4657     51.0538E-03     53.3253E-03
            4448            4657     51.0538E-03     53.3253E-03
            4467            4658     42.1244E-03     44.3573E-03
            4448            4658     42.1244E-03     44.3573E-03
            4466            4658     42.1244E-03     44.3573E-03
            4449            4658     42.1244E-03     44.3573E-03
            4449            4659     33.5094E-03     35.6741E-03
            4450            4659     33.5094E-03     35.6741E-03
            4468            4659     33.5094E-03     35.6741E-03
            4467            4659     33.5094E-03     35.6741E-03
            4468            4660     25.4957E-03     27.4306E-03
            4469            4660     25.4957E-03     27.4306E-03
            4451            4660     25.4957E-03     27.4306E-03
            4450            4660     25.4957E-03     27.4306E-03
            4470            4661     18.8650E-03     20.0781E-03
            4452            4661     18.8650E-03     20.0781E-03
            4469            4661     18.8650E-03     20.0781E-03
            4451            4661     18.8650E-03     20.0781E-03
            4453            4662     15.0995E-03     14.6862E-03
            4470            4662     15.0995E-03     14.6862E-03
            4452            4662     15.0995E-03     14.6862E-03
            4471            4662     15.0995E-03     14.6862E-03
            4453            4663     15.6839E-03     13.4423E-03
            4454            4663     15.6839E-03     13.4423E-03
            4471            4663     15.6839E-03     13.4423E-03
            4472            4663     15.6839E-03     13.4423E-03
            4456            4664     140.473E-03     142.161E-03
            4473            4664     140.473E-03     142.161E-03
            4474            4664     140.473E-03     142.161E-03
            4455            4664     140.473E-03     142.161E-03
            4474            4665     132.992E-03     135.430E-03
            4475            4665     132.992E-03     135.430E-03
            4456            4665     132.992E-03     135.430E-03
            4457            4665     132.992E-03     135.430E-03
            4457            4666     125.073E-03     127.827E-03
            4476            4666     125.073E-03     127.827E-03
            4458            4666     125.073E-03     127.827E-03
            4475            4666     125.073E-03     127.827E-03
            4459            4667     116.469E-03     119.287E-03
            4458            4667     116.469E-03     119.287E-03
            4477            4667     116.469E-03     119.287E-03
            4476            4667     116.469E-03     119.287E-03
            4478            4668     107.437E-03     110.092E-03
            4459            4668     107.437E-03     110.092E-03
            4460            4668     107.437E-03     110.092E-03
            4477            4668     107.437E-03     110.092E-03
            4461            4669     98.1550E-03     100.586E-03
            4478            4669     98.1550E-03     100.586E-03
            4479            4669     98.1550E-03     100.586E-03
            4460            4669     98.1550E-03     100.586E-03
            4480            4670     88.7892E-03     91.0254E-03
            4461            4670     88.7892E-03     91.0254E-03
            4479            4670     88.7892E-03     91.0254E-03
            4462            4670     88.7892E-03     91.0254E-03
            4462            4671     79.4796E-03     81.5357E-03
            4481            4671     79.4796E-03     81.5357E-03
            4480            4671     79.4796E-03     81.5357E-03
            4463            4671     79.4796E-03     81.5357E-03
            4463            4672     70.2404E-03     72.1703E-03
            4481            4672     70.2404E-03     72.1703E-03
            4482            4672     70.2404E-03     72.1703E-03
            4464            4672     70.2404E-03     72.1703E-03
            4483            4673     61.1285E-03     62.9768E-03
            4482            4673     61.1285E-03     62.9768E-03
            4465            4673     61.1285E-03     62.9768E-03
            4464            4673     61.1285E-03     62.9768E-03
            4466            4674     52.1809E-03     53.9968E-03
            4484            4674     52.1809E-03     53.9968E-03
            4483            4674     52.1809E-03     53.9968E-03
            4465            4674     52.1809E-03     53.9968E-03
            4466            4675     43.4744E-03     45.2980E-03
            4485            4675     43.4744E-03     45.2980E-03
            4484            4675     43.4744E-03     45.2980E-03
            4467            4675     43.4744E-03     45.2980E-03
            4467            4676     35.1591E-03     37.0161E-03
            4485            4676     35.1591E-03     37.0161E-03
            4486            4676     35.1591E-03     37.0161E-03
            4468            4676     35.1591E-03     37.0161E-03
            4487            4677     27.6399E-03     29.3636E-03
            4468            4677     27.6399E-03     29.3636E-03
            4486            4677     27.6399E-03     29.3636E-03
            4469            4677     27.6399E-03     29.3636E-03
            4469            4678     21.5551E-03     22.7212E-03
            4487            4678     21.5551E-03     22.7212E-03
            4470            4678     21.5551E-03     22.7212E-03
            4488            4678     21.5551E-03     22.7212E-03
            4489            4679     18.1447E-03     18.0554E-03
            4470            4679     18.1447E-03     18.0554E-03
            4471            4679     18.1447E-03     18.0554E-03
            4488            4679     18.1447E-03     18.0554E-03
            4490            4680     18.3620E-03     16.5144E-03
            4471            4680     18.3620E-03     16.5144E-03
            4489            4680     18.3620E-03     16.5144E-03
            4472            4680     18.3620E-03     16.5144E-03
            4473            4681     134.890E-03     136.405E-03
            4491            4681     134.890E-03     136.405E-03
            4492            4681     134.890E-03     136.405E-03
            4474            4681     134.890E-03     136.405E-03
            4492            4682     128.561E-03     130.883E-03
            4475            4682     128.561E-03     130.883E-03
            4474            4682     128.561E-03     130.883E-03
            4493            4682     128.561E-03     130.883E-03
            4476            4683     121.708E-03     124.237E-03
            4493            4683     121.708E-03     124.237E-03
            4475            4683     121.708E-03     124.237E-03
            4494            4683     121.708E-03     124.237E-03
            4477            4684     114.168E-03     116.486E-03
            4476            4684     114.168E-03     116.486E-03
            4494            4684     114.168E-03     116.486E-03
            4495            4684     114.168E-03     116.486E-03
            4478            4685     105.890E-03     107.983E-03
            4477            4685     105.890E-03     107.983E-03
            4496            4685     105.890E-03     107.983E-03
            4495            4685     105.890E-03     107.983E-03
            4497            4686     97.2387E-03     99.0710E-03
            4478            4686     97.2387E-03     99.0710E-03
            4496            4686     97.2387E-03     99.0710E-03
            4479            4686     97.2387E-03     99.0710E-03
            4479            4687     88.3696E-03     89.9893E-03
            4498            4687     88.3696E-03     89.9893E-03
            4497            4687     88.3696E-03     89.9893E-03
            4480            4687     88.3696E-03     89.9893E-03
            4480            4688     79.4296E-03     80.9073E-03
            4498            4688     79.4296E-03     80.9073E-03
            4499            4688     79.4296E-03     80.9073E-03
            4481            4688     79.4296E-03     80.9073E-03
            4499            4689     70.5374E-03     71.9068E-03
            4482            4689     70.5374E-03     71.9068E-03
            4500            4689     70.5374E-03     71.9068E-03
            4481            4689     70.5374E-03     71.9068E-03
            4483            4690     61.7435E-03     63.0606E-03
            4500            4690     61.7435E-03     63.0606E-03
            4482            4690     61.7435E-03     63.0606E-03
            4501            4690     61.7435E-03     63.0606E-03
            4484            4691     53.1277E-03     54.4376E-03
            4483            4691     53.1277E-03     54.4376E-03
            4501            4691     53.1277E-03     54.4376E-03
            4502            4691     53.1277E-03     54.4376E-03
            4485            4692     44.7827E-03     46.1484E-03
            4484            4692     44.7827E-03     46.1484E-03
            4503            4692     44.7827E-03     46.1484E-03
            4502            4692     44.7827E-03     46.1484E-03
            4503            4693     36.8903E-03     38.3595E-03
            4504            4693     36.8903E-03     38.3595E-03
            4486            4693     36.8903E-03     38.3595E-03
            4485            4693     36.8903E-03     38.3595E-03
            4504            4694     29.7866E-03     31.3839E-03
            4487            4694     29.7866E-03     31.3839E-03
            4505            4694     29.7866E-03     31.3839E-03
            4486            4694     29.7866E-03     31.3839E-03
            4505            4695     24.3170E-03     25.5864E-03
            4488            4695     24.3170E-03     25.5864E-03
            4506            4695     24.3170E-03     25.5864E-03
            4487            4695     24.3170E-03     25.5864E-03
            4506            4696     21.2675E-03     21.4891E-03
            4489            4696     21.2675E-03     21.4891E-03
            4488            4696     21.2675E-03     21.4891E-03
            4507            4696     21.2675E-03     21.4891E-03
            4489            4697     21.2345E-03     20.0405E-03
            4490            4697     21.2345E-03     20.0405E-03
            4507            4697     21.2345E-03     20.0405E-03
            4508            4697     21.2345E-03     20.0405E-03
            4509            4698     128.609E-03     130.217E-03
            4491            4698     128.609E-03     130.217E-03
            4510            4698     128.609E-03     130.217E-03
            4492            4698     128.609E-03     130.217E-03
            4510            4699     123.464E-03     125.436E-03
            4493            4699     123.464E-03     125.436E-03
            4492            4699     123.464E-03     125.436E-03
            4511            4699     123.464E-03     125.436E-03
            4493            4700     117.722E-03     119.523E-03
            4511            4700     117.722E-03     119.523E-03
            4494            4700     117.722E-03     119.523E-03
            4512            4700     117.722E-03     119.523E-03
            4494            4701     110.908E-03     112.471E-03
            4513            4701     110.908E-03     112.471E-03
            4512            4701     110.908E-03     112.471E-03
            4495            4701     110.908E-03     112.471E-03
            4514            4702     103.451E-03     104.689E-03
            4495            4702     103.451E-03     104.689E-03
            4496            4702     103.451E-03     104.689E-03
            4513            4702     103.451E-03     104.689E-03
            4515            4703     95.4554E-03     96.4882E-03
            4497            4703     95.4554E-03     96.4882E-03
            4514            4703     95.4554E-03     96.4882E-03
            4496            4703     95.4554E-03     96.4882E-03
            4516            4704     87.1872E-03     88.0936E-03
            4498            4704     87.1872E-03     88.0936E-03
            4497            4704     87.1872E-03     88.0936E-03
            4515            4704     87.1872E-03     88.0936E-03
            4499            4705     78.8072E-03     79.6206E-03
            4517            4705     78.8072E-03     79.6206E-03
            4516            4705     78.8072E-03     79.6206E-03
            4498            4705     78.8072E-03     79.6206E-03
            4517            4706     70.4141E-03     71.1906E-03
            4499            4706     70.4141E-03     71.1906E-03
            4500            4706     70.4141E-03     71.1906E-03
            4518            4706     70.4141E-03     71.1906E-03
            4500            4707     62.1188E-03     62.8750E-03
            4519            4707     62.1188E-03     62.8750E-03
            4501            4707     62.1188E-03     62.8750E-03
            4518            4707     62.1188E-03     62.8750E-03
            4501            4708     53.9970E-03     54.7739E-03
            4502            4708     53.9970E-03     54.7739E-03
            4520            4708     53.9970E-03     54.7739E-03
            4519            4708     53.9970E-03     54.7739E-03
            4521            4709     46.1617E-03     47.0133E-03
            4503            4709     46.1617E-03     47.0133E-03
            4520            4709     46.1617E-03     47.0133E-03
            4502            4709     46.1617E-03     47.0133E-03
            4521            4710     38.7897E-03     39.8039E-03
            4504            4710     38.7897E-03     39.8039E-03
            4503            4710     38.7897E-03     39.8039E-03
            4522            4710     38.7897E-03     39.8039E-03
            4523            4711     32.1703E-03     33.4859E-03
            4504            4711     32.1703E-03     33.4859E-03
            4522            4711     32.1703E-03     33.4859E-03
            4505            4711     32.1703E-03     33.4859E-03
            4506            4712     26.9625E-03     28.5960E-03
            4523            4712     26.9625E-03     28.5960E-03
            4524            4712     26.9625E-03     28.5960E-03
            4505            4712     26.9625E-03     28.5960E-03
            4525            4713     24.4107E-03     25.2850E-03
            4524            4713     24.4107E-03     25.2850E-03
            4506            4713     24.4107E-03     25.2850E-03
            4507            4713     24.4107E-03     25.2850E-03
            4507            4714     24.3307E-03     23.6453E-03
            4508            4714     24.3307E-03     23.6453E-03
            4525            4714     24.3307E-03     23.6453E-03
            4526            4714     24.3307E-03     23.6453E-03
            4527            4715     121.666E-03     122.147E-03
            4509            4715     121.666E-03     122.147E-03
            4510            4715     121.666E-03     122.147E-03
            4528            4715     121.666E-03     122.147E-03
            4528            4716     117.772E-03     118.563E-03
            4510            4716     117.772E-03     118.563E-03
            4511            4716     117.772E-03     118.563E-03
            4529            4716     117.772E-03     118.563E-03
            4530            4717     112.780E-03     113.349E-03
            4529            4717     112.780E-03     113.349E-03
            4512            4717     112.780E-03     113.349E-03
            4511            4717     112.780E-03     113.349E-03
            4512            4718     106.868E-03     107.120E-03
            4513            4718     106.868E-03     107.120E-03
            4531            4718     106.868E-03     107.120E-03
            4530            4718     106.868E-03     107.120E-03
            4532            4719     100.154E-03     100.278E-03
            4513            4719     100.154E-03     100.278E-03
            4531            4719     100.154E-03     100.278E-03
            4514            4719     100.154E-03     100.278E-03
            4514            4720     92.9408E-03     93.0394E-03
            4533            4720     92.9408E-03     93.0394E-03
            4532            4720     92.9408E-03     93.0394E-03
            4515            4720     92.9408E-03     93.0394E-03
            4533            4721     85.4300E-03     85.5359E-03
            4516            4721     85.4300E-03     85.5359E-03
            4515            4721     85.4300E-03     85.5359E-03
            4534            4721     85.4300E-03     85.5359E-03
            4534            4722     77.7564E-03     77.9105E-03
            4535            4722     77.7564E-03     77.9105E-03
            4516            4722     77.7564E-03     77.9105E-03
            4517            4722     77.7564E-03     77.9105E-03
            4535            4723     70.0600E-03     70.2451E-03
            4518            4723     70.0600E-03     70.2451E-03
            4536            4723     70.0600E-03     70.2451E-03
            4517            4723     70.0600E-03     70.2451E-03
            4536            4724     62.4218E-03     62.6514E-03
            4537            4724     62.4218E-03     62.6514E-03
            4518            4724     62.4218E-03     62.6514E-03
            4519            4724     62.4218E-03     62.6514E-03
            4537            4725     54.9590E-03     55.2260E-03
            4520            4725     54.9590E-03     55.2260E-03
            4519            4725     54.9590E-03     55.2260E-03
            4538            4725     54.9590E-03     55.2260E-03
            4521            4726     47.7811E-03     48.1146E-03
            4520            4726     47.7811E-03     48.1146E-03
            4539            4726     47.7811E-03     48.1146E-03
            4538            4726     47.7811E-03     48.1146E-03
            4521            4727     41.0440E-03     41.5321E-03
            4540            4727     41.0440E-03     41.5321E-03
            4539            4727     41.0440E-03     41.5321E-03
            4522            4727     41.0440E-03     41.5321E-03
            4541            4728     35.0099E-03     35.8118E-03
            4522            4728     35.0099E-03     35.8118E-03
            4540            4728     35.0099E-03     35.8118E-03
            4523            4728     35.0099E-03     35.8118E-03
            4524            4729     29.9525E-03     31.5292E-03
            4542            4729     29.9525E-03     31.5292E-03
            4523            4729     29.9525E-03     31.5292E-03
            4541            4729     29.9525E-03     31.5292E-03
            4542            4730     26.9205E-03     29.2863E-03
            4543            4730     26.9205E-03     29.2863E-03
            4525            4730     26.9205E-03     29.2863E-03
            4524            4730     26.9205E-03     29.2863E-03
            4526            4731     27.4332E-03     28.2555E-03
            4543            4731     27.4332E-03     28.2555E-03
            4525            4731     27.4332E-03     28.2555E-03
            4544            4731     27.4332E-03     28.2555E-03
            4528            4732     113.834E-03     111.929E-03
            4527            4732     113.834E-03     111.929E-03
            4545            4732     113.834E-03     111.929E-03
            4546            4732     113.834E-03     111.929E-03
            4528            4733     111.243E-03     109.644E-03
            4547            4733     111.243E-03     109.644E-03
            4529            4733     111.243E-03     109.644E-03
            4546            4733     111.243E-03     109.644E-03
            4547            4734     107.151E-03     105.498E-03
            4529            4734     107.151E-03     105.498E-03
            4530            4734     107.151E-03     105.498E-03
            4548            4734     107.151E-03     105.498E-03
            4549            4735     102.062E-03     100.637E-03
            4548            4735     102.062E-03     100.637E-03
            4531            4735     102.062E-03     100.637E-03
            4530            4735     102.062E-03     100.637E-03
            4532            4736     96.2463E-03     95.0997E-03
            4549            4736     96.2463E-03     95.0997E-03
            4531            4736     96.2463E-03     95.0997E-03
            4550            4736     96.2463E-03     95.0997E-03
            4550            4737     89.9738E-03     89.1005E-03
            4533            4737     89.9738E-03     89.1005E-03
            4551            4737     89.9738E-03     89.1005E-03
            4532            4737     89.9738E-03     89.1005E-03
            4533            4738     83.3769E-03     82.7466E-03
            4552            4738     83.3769E-03     82.7466E-03
            4534            4738     83.3769E-03     82.7466E-03
            4551            4738     83.3769E-03     82.7466E-03
            4552            4739     76.6044E-03     76.1546E-03
            4535            4739     76.6044E-03     76.1546E-03
            4553            4739     76.6044E-03     76.1546E-03
            4534            4739     76.6044E-03     76.1546E-03
            4536            4740     69.7474E-03     69.4489E-03
            4553            4740     69.7474E-03     69.4489E-03
            4554            4740     69.7474E-03     69.4489E-03
            4535            4740     69.7474E-03     69.4489E-03
            4555            4741     62.9338E-03     62.7232E-03
            4536            4741     62.9338E-03     62.7232E-03
            4554            4741     62.9338E-03     62.7232E-03
            4537            4741     62.9338E-03     62.7232E-03
            4555            4742     56.2505E-03     56.1123E-03
            4537            4742     56.2505E-03     56.1123E-03
            4556            4742     56.2505E-03     56.1123E-03
            4538            4742     56.2505E-03     56.1123E-03
            4539            4743     49.8509E-03     49.7438E-03
            4557            4743     49.8509E-03     49.7438E-03
            4556            4743     49.8509E-03     49.7438E-03
            4538            4743     49.8509E-03     49.7438E-03
            4558            4744     43.8595E-03     43.8231E-03
            4539            4744     43.8595E-03     43.8231E-03
            4557            4744     43.8595E-03     43.8231E-03
            4540            4744     43.8595E-03     43.8231E-03
            4540            4745     38.4895E-03     38.6183E-03
            4559            4745     38.4895E-03     38.6183E-03
            4558            4745     38.4895E-03     38.6183E-03
            4541            4745     38.4895E-03     38.6183E-03
            4560            4746     33.9182E-03     34.5591E-03
            4542            4746     33.9182E-03     34.5591E-03
            4541            4746     33.9182E-03     34.5591E-03
            4559            4746     33.9182E-03     34.5591E-03
            4561            4747     30.1503E-03     32.4380E-03
            4560            4747     30.1503E-03     32.4380E-03
            4542            4747     30.1503E-03     32.4380E-03
            4543            4747     30.1503E-03     32.4380E-03
            4561            4748     28.4425E-03     32.9874E-03
            4544            4748     28.4425E-03     32.9874E-03
            4562            4748     28.4425E-03     32.9874E-03
            4543            4748     28.4425E-03     32.9874E-03
            4564            4749     109.792E-03     111.778E-03
            4546            4749     109.792E-03     111.778E-03
            4545            4749     109.792E-03     111.778E-03
            4563            4749     109.792E-03     111.778E-03
            4547            4750     99.7907E-03     99.7190E-03
            4565            4750     99.7907E-03     99.7190E-03
            4546            4750     99.7907E-03     99.7190E-03
            4564            4750     99.7907E-03     99.7190E-03
            4547            4751     92.6071E-03     92.4014E-03
            4548            4751     92.6071E-03     92.4014E-03
            4565            4751     92.6071E-03     92.4014E-03
            4566            4751     92.6071E-03     92.4014E-03
            4567            4752     85.7805E-03     85.8879E-03
            4549            4752     85.7805E-03     85.8879E-03
            4566            4752     85.7805E-03     85.8879E-03
            4548            4752     85.7805E-03     85.8879E-03
            4567            4753     79.4242E-03     79.7933E-03
            4549            4753     79.4242E-03     79.7933E-03
            4568            4753     79.4242E-03     79.7933E-03
            4550            4753     79.4242E-03     79.7933E-03
            4550            4754     73.1351E-03     73.8625E-03
            4569            4754     73.1351E-03     73.8625E-03
            4568            4754     73.1351E-03     73.8625E-03
            4551            4754     73.1351E-03     73.8625E-03
            4552            4755     66.9780E-03     67.9363E-03
            4569            4755     66.9780E-03     67.9363E-03
            4570            4755     66.9780E-03     67.9363E-03
            4551            4755     66.9780E-03     67.9363E-03
            4552            4756     60.8282E-03     62.0218E-03
            4570            4756     60.8282E-03     62.0218E-03
            4571            4756     60.8282E-03     62.0218E-03
            4553            4756     60.8282E-03     62.0218E-03
            4553            4757     54.7476E-03     56.0788E-03
            4572            4757     54.7476E-03     56.0788E-03
            4554            4757     54.7476E-03     56.0788E-03
            4571            4757     54.7476E-03     56.0788E-03
            4572            4758     48.7009E-03     50.1451E-03
            4573            4758     48.7009E-03     50.1451E-03
            4554            4758     48.7009E-03     50.1451E-03
            4555            4758     48.7009E-03     50.1451E-03
            4573            4759     42.7622E-03     44.2487E-03
            4556            4759     42.7622E-03     44.2487E-03
            4555            4759     42.7622E-03     44.2487E-03
            4574            4759     42.7622E-03     44.2487E-03
            4557            4760     36.9465E-03     38.4374E-03
            4575            4760     36.9465E-03     38.4374E-03
            4574            4760     36.9465E-03     38.4374E-03
            4556            4760     36.9465E-03     38.4374E-03
            4575            4761     31.3475E-03     32.7806E-03
            4576            4761     31.3475E-03     32.7806E-03
            4558            4761     31.3475E-03     32.7806E-03
            4557            4761     31.3475E-03     32.7806E-03
            4558            4762     26.0654E-03     27.4105E-03
            4576            4762     26.0654E-03     27.4105E-03
            4577            4762     26.0654E-03     27.4105E-03
            4559            4762     26.0654E-03     27.4105E-03
            4560            4763     21.3648E-03     22.4605E-03
            4559            4763     21.3648E-03     22.4605E-03
            4577            4763     21.3648E-03     22.4605E-03
            4578            4763     21.3648E-03     22.4605E-03
            4579            4764     18.9011E-03     19.5276E-03
            4561            4764     18.9011E-03     19.5276E-03
            4578            4764     18.9011E-03     19.5276E-03
            4560            4764     18.9011E-03     19.5276E-03
            4579            4765     19.4268E-03     22.1051E-03
            4562            4765     19.4268E-03     22.1051E-03
            4580            4765     19.4268E-03     22.1051E-03
            4561            4765     19.4268E-03     22.1051E-03
            4582            4766     112.565E-03     114.639E-03
            4564            4766     112.565E-03     114.639E-03
            4563            4766     112.565E-03     114.639E-03
            4581            4766     112.565E-03     114.639E-03
            4582            4767     94.5466E-03     97.3177E-03
            4565            4767     94.5466E-03     97.3177E-03
            4564            4767     94.5466E-03     97.3177E-03
            4583            4767     94.5466E-03     97.3177E-03
            4565            4768     82.4157E-03     85.0131E-03
            4566            4768     82.4157E-03     85.0131E-03
            4584            4768     82.4157E-03     85.0131E-03
            4583            4768     82.4157E-03     85.0131E-03
            4566            4769     73.4632E-03     75.9929E-03
            4585            4769     73.4632E-03     75.9929E-03
            4567            4769     73.4632E-03     75.9929E-03
            4584            4769     73.4632E-03     75.9929E-03
            4585            4770     65.6893E-03     68.3061E-03
            4568            4770     65.6893E-03     68.3061E-03
            4567            4770     65.6893E-03     68.3061E-03
            4586            4770     65.6893E-03     68.3061E-03
            4587            4771     58.8708E-03     61.5929E-03
            4568            4771     58.8708E-03     61.5929E-03
            4586            4771     58.8708E-03     61.5929E-03
            4569            4771     58.8708E-03     61.5929E-03
            4570            4772     52.4987E-03     55.3418E-03
            4569            4772     52.4987E-03     55.3418E-03
            4587            4772     52.4987E-03     55.3418E-03
            4588            4772     52.4987E-03     55.3418E-03
            4571            4773     46.4750E-03     49.4213E-03
            4588            4773     46.4750E-03     49.4213E-03
            4570            4773     46.4750E-03     49.4213E-03
            4589            4773     46.4750E-03     49.4213E-03
            4590            4774     40.6234E-03     43.6447E-03
            4589            4774     40.6234E-03     43.6447E-03
            4571            4774     40.6234E-03     43.6447E-03
            4572            4774     40.6234E-03     43.6447E-03
            4573            4775     34.8952E-03     37.9599E-03
            4590            4775     34.8952E-03     37.9599E-03
            4572            4775     34.8952E-03     37.9599E-03
            4591            4775     34.8952E-03     37.9599E-03
            4592            4776     29.2310E-03     32.2915E-03
            4591            4776     29.2310E-03     32.2915E-03
            4574            4776     29.2310E-03     32.2915E-03
            4573            4776     29.2310E-03     32.2915E-03
            4575            4777     23.6044E-03     26.6100E-03
            4574            4777     23.6044E-03     26.6100E-03
            4592            4777     23.6044E-03     26.6100E-03
            4593            4777     23.6044E-03     26.6100E-03
            4575            4778     18.0332E-03     20.8931E-03
            4594            4778     18.0332E-03     20.8931E-03
            4593            4778     18.0332E-03     20.8931E-03
            4576            4778     18.0332E-03     20.8931E-03
            4594            4779     12.6010E-03     15.1471E-03
            4595            4779     12.6010E-03     15.1471E-03
            4576            4779     12.6010E-03     15.1471E-03
            4577            4779     12.6010E-03     15.1471E-03
            4577            4780     7.87846E-03     9.59393E-03
            4595            4780     7.87846E-03     9.59393E-03
            4578            4780     7.87846E-03     9.59393E-03
            4596            4780     7.87846E-03     9.59393E-03
            4579            4781     6.96581E-03     6.57705E-03
            4578            4781     6.96581E-03     6.57705E-03
            4597            4781     6.96581E-03     6.57705E-03
            4596            4781     6.96581E-03     6.57705E-03
            4598            4782     11.2346E-03     9.16821E-03
            4580            4782     11.2346E-03     9.16821E-03
            4579            4782     11.2346E-03     9.16821E-03
            4597            4782     11.2346E-03     9.16821E-03
            4600            4783     111.687E-03     111.984E-03
            4581            4783     111.687E-03     111.984E-03
            4599            4783     111.687E-03     111.984E-03
            4582            4783     111.687E-03     111.984E-03
            4583            4784     98.1113E-03     99.5863E-03
            4600            4784     98.1113E-03     99.5863E-03
            4601            4784     98.1113E-03     99.5863E-03
            4582            4784     98.1113E-03     99.5863E-03
            4584            4785     85.2835E-03     87.6176E-03
            4602            4785     85.2835E-03     87.6176E-03
            4601            4785     85.2835E-03     87.6176E-03
            4583            4785     85.2835E-03     87.6176E-03
            4602            4786     75.8116E-03     78.3435E-03
            4603            4786     75.8116E-03     78.3435E-03
            4584            4786     75.8116E-03     78.3435E-03
            4585            4786     75.8116E-03     78.3435E-03
            4585            4787     67.8798E-03     70.4480E-03
            4586            4787     67.8798E-03     70.4480E-03
            4603            4787     67.8798E-03     70.4480E-03
            4604            4787     67.8798E-03     70.4480E-03
            4604            4788     60.8081E-03     63.4551E-03
            4587            4788     60.8081E-03     63.4551E-03
            4586            4788     60.8081E-03     63.4551E-03
            4605            4788     60.8081E-03     63.4551E-03
            4588            4789     54.3405E-03     57.0053E-03
            4605            4789     54.3405E-03     57.0053E-03
            4606            4789     54.3405E-03     57.0053E-03
            4587            4789     54.3405E-03     57.0053E-03
            4589            4790     48.1802E-03     50.8776E-03
            4607            4790     48.1802E-03     50.8776E-03
            4588            4790     48.1802E-03     50.8776E-03
            4606            4790     48.1802E-03     50.8776E-03
            4589            4791     42.2522E-03     44.9506E-03
            4590            4791     42.2522E-03     44.9506E-03
            4607            4791     42.2522E-03     44.9506E-03
            4608            4791     42.2522E-03     44.9506E-03
            4608            4792     36.4453E-03     39.1287E-03
            4609            4792     36.4453E-03     39.1287E-03
            4591            4792     36.4453E-03     39.1287E-03
            4590            4792     36.4453E-03     39.1287E-03
            4610            4793     30.7417E-03     33.3732E-03
            4592            4793     30.7417E-03     33.3732E-03
            4591            4793     30.7417E-03     33.3732E-03
            4609            4793     30.7417E-03     33.3732E-03
            4611            4794     25.1184E-03     27.6426E-03
            4610            4794     25.1184E-03     27.6426E-03
            4592            4794     25.1184E-03     27.6426E-03
            4593            4794     25.1184E-03     27.6426E-03
            4611            4795     19.6373E-03     21.9540E-03
            4612            4795     19.6373E-03     21.9540E-03
            4594            4795     19.6373E-03     21.9540E-03
            4593            4795     19.6373E-03     21.9540E-03
            4594            4796     14.4301E-03     16.3405E-03
            4612            4796     14.4301E-03     16.3405E-03
            4613            4796     14.4301E-03     16.3405E-03
            4595            4796     14.4301E-03     16.3405E-03
            4614            4797     10.3493E-03     11.2629E-03
            4613            4797     10.3493E-03     11.2629E-03
            4596            4797     10.3493E-03     11.2629E-03
            4595            4797     10.3493E-03     11.2629E-03
            4615            4798     9.12049E-03     8.23406E-03
            4597            4798     9.12049E-03     8.23406E-03
            4614            4798     9.12049E-03     8.23406E-03
            4596            4798     9.12049E-03     8.23406E-03
            4615            4799     11.1978E-03     8.89053E-03
            4597            4799     11.1978E-03     8.89053E-03
            4598            4799     11.1978E-03     8.89053E-03
            4616            4799     11.1978E-03     8.89053E-03
            4617            4800     106.695E-03     108.526E-03
            4599            4800     106.695E-03     108.526E-03
            4600            4800     106.695E-03     108.526E-03
            4618            4800     106.695E-03     108.526E-03
            4619            4801     97.1663E-03     98.6950E-03
            4618            4801     97.1663E-03     98.6950E-03
            4600            4801     97.1663E-03     98.6950E-03
            4601            4801     97.1663E-03     98.6950E-03
            4601            4802     86.9370E-03     88.8200E-03
            4620            4802     86.9370E-03     88.8200E-03
            4602            4802     86.9370E-03     88.8200E-03
            4619            4802     86.9370E-03     88.8200E-03
            4602            4803     77.5426E-03     79.8840E-03
            4620            4803     77.5426E-03     79.8840E-03
            4621            4803     77.5426E-03     79.8840E-03
            4603            4803     77.5426E-03     79.8840E-03
            4622            4804     69.7118E-03     72.1658E-03
            4604            4804     69.7118E-03     72.1658E-03
            4621            4804     69.7118E-03     72.1658E-03
            4603            4804     69.7118E-03     72.1658E-03
            4604            4805     62.6323E-03     65.1082E-03
            4623            4805     62.6323E-03     65.1082E-03
            4622            4805     62.6323E-03     65.1082E-03
            4605            4805     62.6323E-03     65.1082E-03
            4605            4806     56.0785E-03     58.5601E-03
            4624            4806     56.0785E-03     58.5601E-03
            4606            4806     56.0785E-03     58.5601E-03
            4623            4806     56.0785E-03     58.5601E-03
            4606            4807     49.8652E-03     52.3053E-03
            4607            4807     49.8652E-03     52.3053E-03
            4625            4807     49.8652E-03     52.3053E-03
            4624            4807     49.8652E-03     52.3053E-03
            4607            4808     43.8530E-03     46.2577E-03
            4608            4808     43.8530E-03     46.2577E-03
            4625            4808     43.8530E-03     46.2577E-03
            4626            4808     43.8530E-03     46.2577E-03
            4608            4809     38.0029E-03     40.3449E-03
            4627            4809     38.0029E-03     40.3449E-03
            4626            4809     38.0029E-03     40.3449E-03
            4609            4809     38.0029E-03     40.3449E-03
            4628            4810     32.2648E-03     34.5257E-03
            4610            4810     32.2648E-03     34.5257E-03
            4609            4810     32.2648E-03     34.5257E-03
            4627            4810     32.2648E-03     34.5257E-03
            4629            4811     26.6756E-03     28.7993E-03
            4628            4811     26.6756E-03     28.7993E-03
            4610            4811     26.6756E-03     28.7993E-03
            4611            4811     26.6756E-03     28.7993E-03
            4630            4812     21.2657E-03     23.1589E-03
            4629            4812     21.2657E-03     23.1589E-03
            4612            4812     21.2657E-03     23.1589E-03
            4611            4812     21.2657E-03     23.1589E-03
            4630            4813     16.3056E-03     17.7488E-03
            4612            4813     16.3056E-03     17.7488E-03
            4631            4813     16.3056E-03     17.7488E-03
            4613            4813     16.3056E-03     17.7488E-03
            4614            4814     12.3130E-03     12.8609E-03
            4631            4814     12.3130E-03     12.8609E-03
            4632            4814     12.3130E-03     12.8609E-03
            4613            4814     12.3130E-03     12.8609E-03
            4633            4815     10.3549E-03     9.52193E-03
            4615            4815     10.3549E-03     9.52193E-03
            4614            4815     10.3549E-03     9.52193E-03
            4632            4815     10.3549E-03     9.52193E-03
            4634            4816     11.3589E-03     9.36995E-03
            4633            4816     11.3589E-03     9.36995E-03
            4615            4816     11.3589E-03     9.36995E-03
            4616            4816     11.3589E-03     9.36995E-03
            4635            4817     102.289E-03     103.411E-03
            4618            4817     102.289E-03     103.411E-03
            4617            4817     102.289E-03     103.411E-03
            4636            4817     102.289E-03     103.411E-03
            4618            4818     94.2200E-03     96.0086E-03
            4637            4818     94.2200E-03     96.0086E-03
            4636            4818     94.2200E-03     96.0086E-03
            4619            4818     94.2200E-03     96.0086E-03
            4619            4819     86.2239E-03     88.1514E-03
            4637            4819     86.2239E-03     88.1514E-03
            4620            4819     86.2239E-03     88.1514E-03
            4638            4819     86.2239E-03     88.1514E-03
            4621            4820     78.3120E-03     80.4040E-03
            4639            4820     78.3120E-03     80.4040E-03
            4620            4820     78.3120E-03     80.4040E-03
            4638            4820     78.3120E-03     80.4040E-03
            4639            4821     70.8289E-03     73.1104E-03
            4621            4821     70.8289E-03     73.1104E-03
            4622            4821     70.8289E-03     73.1104E-03
            4640            4821     70.8289E-03     73.1104E-03
            4640            4822     64.0159E-03     66.2935E-03
            4623            4822     64.0159E-03     66.2935E-03
            4622            4822     64.0159E-03     66.2935E-03
            4641            4822     64.0159E-03     66.2935E-03
            4642            4823     57.5291E-03     59.7671E-03
            4623            4823     57.5291E-03     59.7671E-03
            4624            4823     57.5291E-03     59.7671E-03
            4641            4823     57.5291E-03     59.7671E-03
            4625            4824     51.3212E-03     53.4976E-03
            4624            4824     51.3212E-03     53.4976E-03
            4643            4824     51.3212E-03     53.4976E-03
            4642            4824     51.3212E-03     53.4976E-03
            4644            4825     45.2979E-03     47.3963E-03
            4625            4825     45.2979E-03     47.3963E-03
            4643            4825     45.2979E-03     47.3963E-03
            4626            4825     45.2979E-03     47.3963E-03
            4644            4826     39.4199E-03     41.4437E-03
            4627            4826     39.4199E-03     41.4437E-03
            4626            4826     39.4199E-03     41.4437E-03
            4645            4826     39.4199E-03     41.4437E-03
            4645            4827     33.6964E-03     35.6222E-03
            4627            4827     33.6964E-03     35.6222E-03
            4646            4827     33.6964E-03     35.6222E-03
            4628            4827     33.6964E-03     35.6222E-03
            4646            4828     28.1340E-03     29.9279E-03
            4629            4828     28.1340E-03     29.9279E-03
            4647            4828     28.1340E-03     29.9279E-03
            4628            4828     28.1340E-03     29.9279E-03
            4647            4829     22.8537E-03     24.4197E-03
            4629            4829     22.8537E-03     24.4197E-03
            4630            4829     22.8537E-03     24.4197E-03
            4648            4829     22.8537E-03     24.4197E-03
            4649            4830     18.0245E-03     19.1759E-03
            4630            4830     18.0245E-03     19.1759E-03
            4648            4830     18.0245E-03     19.1759E-03
            4631            4830     18.0245E-03     19.1759E-03
            4632            4831     14.0834E-03     14.5164E-03
            4649            4831     14.0834E-03     14.5164E-03
            4631            4831     14.0834E-03     14.5164E-03
            4650            4831     14.0834E-03     14.5164E-03
            4650            4832     11.9921E-03     11.2829E-03
            4632            4832     11.9921E-03     11.2829E-03
            4651            4832     11.9921E-03     11.2829E-03
            4633            4832     11.9921E-03     11.2829E-03
            4651            4833     12.4299E-03     10.6010E-03
            4633            4833     12.4299E-03     10.6010E-03
            4652            4833     12.4299E-03     10.6010E-03
            4634            4833     12.4299E-03     10.6010E-03
            4654            4834     97.4108E-03     98.7062E-03
            4635            4834     97.4108E-03     98.7062E-03
            4636            4834     97.4108E-03     98.7062E-03
            4653            4834     97.4108E-03     98.7062E-03
            4654            4835     91.0229E-03     92.5069E-03
            4637            4835     91.0229E-03     92.5069E-03
            4636            4835     91.0229E-03     92.5069E-03
            4655            4835     91.0229E-03     92.5069E-03
            4656            4836     84.3832E-03     86.2710E-03
            4655            4836     84.3832E-03     86.2710E-03
            4637            4836     84.3832E-03     86.2710E-03
            4638            4836     84.3832E-03     86.2710E-03
            4638            4837     77.7769E-03     79.8055E-03
            4639            4837     77.7769E-03     79.8055E-03
            4657            4837     77.7769E-03     79.8055E-03
            4656            4837     77.7769E-03     79.8055E-03
            4658            4838     71.2238E-03     73.2672E-03
            4639            4838     71.2238E-03     73.2672E-03
            4640            4838     71.2238E-03     73.2672E-03
            4657            4838     71.2238E-03     73.2672E-03
            4659            4839     64.7654E-03     66.8122E-03
            4641            4839     64.7654E-03     66.8122E-03
            4640            4839     64.7654E-03     66.8122E-03
            4658            4839     64.7654E-03     66.8122E-03
            4660            4840     58.5386E-03     60.4926E-03
            4641            4840     58.5386E-03     60.4926E-03
            4642            4840     58.5386E-03     60.4926E-03
            4659            4840     58.5386E-03     60.4926E-03
            4642            4841     52.4238E-03     54.2906E-03
            4660            4841     52.4238E-03     54.2906E-03
            4661            4841     52.4238E-03     54.2906E-03
            4643            4841     52.4238E-03     54.2906E-03
            4661            4842     46.4562E-03     48.2336E-03
            4662            4842     46.4562E-03     48.2336E-03
            4643            4842     46.4562E-03     48.2336E-03
            4644            4842     46.4562E-03     48.2336E-03
            4644            4843     40.6192E-03     42.3120E-03
            4645            4843     40.6192E-03     42.3120E-03
            4663            4843     40.6192E-03     42.3120E-03
            4662            4843     40.6192E-03     42.3120E-03
            4663            4844     34.9344E-03     36.5472E-03
            4664            4844     34.9344E-03     36.5472E-03
            4645            4844     34.9344E-03     36.5472E-03
            4646            4844     34.9344E-03     36.5472E-03
            4665            4845     29.4683E-03     30.9692E-03
            4647            4845     29.4683E-03     30.9692E-03
            4646            4845     29.4683E-03     30.9692E-03
            4664            4845     29.4683E-03     30.9692E-03
            4648            4846     24.3083E-03     25.6249E-03
            4666            4846     24.3083E-03     25.6249E-03
            4647            4846     24.3083E-03     25.6249E-03
            4665            4846     24.3083E-03     25.6249E-03
            4648            4847     19.6642E-03     20.6448E-03
            4667            4847     19.6642E-03     20.6448E-03
            4649            4847     19.6642E-03     20.6448E-03
            4666            4847     19.6642E-03     20.6448E-03
            4667            4848     15.9652E-03     16.3045E-03
            4650            4848     15.9652E-03     16.3045E-03
            4649            4848     15.9652E-03     16.3045E-03
            4668            4848     15.9652E-03     16.3045E-03
            4668            4849     13.8069E-03     13.2040E-03
            4669            4849     13.8069E-03     13.2040E-03
            4650            4849     13.8069E-03     13.2040E-03
            4651            4849     13.8069E-03     13.2040E-03
            4669            4850     13.7799E-03     12.1918E-03
            4651            4850     13.7799E-03     12.1918E-03
            4652            4850     13.7799E-03     12.1918E-03
            4670            4850     13.7799E-03     12.1918E-03
            4654            4851     92.7173E-03     93.7232E-03
            4653            4851     92.7173E-03     93.7232E-03
            4672            4851     92.7173E-03     93.7232E-03
            4671            4851     92.7173E-03     93.7232E-03
            4673            4852     87.2960E-03     88.8282E-03
            4672            4852     87.2960E-03     88.8282E-03
            4655            4852     87.2960E-03     88.8282E-03
            4654            4852     87.2960E-03     88.8282E-03
            4656            4853     82.0329E-03     83.7632E-03
            4673            4853     82.0329E-03     83.7632E-03
            4655            4853     82.0329E-03     83.7632E-03
            4674            4853     82.0329E-03     83.7632E-03
            4675            4854     76.5065E-03     78.3763E-03
            4656            4854     76.5065E-03     78.3763E-03
            4674            4854     76.5065E-03     78.3763E-03
            4657            4854     76.5065E-03     78.3763E-03
            4658            4855     70.7846E-03     72.6325E-03
            4676            4855     70.7846E-03     72.6325E-03
            4675            4855     70.7846E-03     72.6325E-03
            4657            4855     70.7846E-03     72.6325E-03
            4659            4856     64.9379E-03     66.6623E-03
            4658            4856     64.9379E-03     66.6623E-03
            4677            4856     64.9379E-03     66.6623E-03
            4676            4856     64.9379E-03     66.6623E-03
            4659            4857     58.9980E-03     60.6244E-03
            4677            4857     58.9980E-03     60.6244E-03
            4678            4857     58.9980E-03     60.6244E-03
            4660            4857     58.9980E-03     60.6244E-03
            4678            4858     53.1080E-03     54.6115E-03
            4661            4858     53.1080E-03     54.6115E-03
            4679            4858     53.1080E-03     54.6115E-03
            4660            4858     53.1080E-03     54.6115E-03
            4679            4859     47.2627E-03     48.6774E-03
            4661            4859     47.2627E-03     48.6774E-03
            4662            4859     47.2627E-03     48.6774E-03
            4680            4859     47.2627E-03     48.6774E-03
            4662            4860     41.5361E-03     42.8778E-03
            4681            4860     41.5361E-03     42.8778E-03
            4680            4860     41.5361E-03     42.8778E-03
            4663            4860     41.5361E-03     42.8778E-03
            4682            4861     35.9661E-03     37.2502E-03
            4681            4861     35.9661E-03     37.2502E-03
            4663            4861     35.9661E-03     37.2502E-03
            4664            4861     35.9661E-03     37.2502E-03
            4665            4862     30.6288E-03     31.8569E-03
            4683            4862     30.6288E-03     31.8569E-03
            4682            4862     30.6288E-03     31.8569E-03
            4664            4862     30.6288E-03     31.8569E-03
            4665            4863     25.6559E-03     26.7710E-03
            4683            4863     25.6559E-03     26.7710E-03
            4666            4863     25.6559E-03     26.7710E-03
            4684            4863     25.6559E-03     26.7710E-03
            4684            4864     21.2640E-03     22.1183E-03
            4685            4864     21.2640E-03     22.1183E-03
            4666            4864     21.2640E-03     22.1183E-03
            4667            4864     21.2640E-03     22.1183E-03
            4686            4865     17.7834E-03     18.1380E-03
            4668            4865     17.7834E-03     18.1380E-03
            4667            4865     17.7834E-03     18.1380E-03
            4685            4865     17.7834E-03     18.1380E-03
            4686            4866     15.6900E-03     15.2224E-03
            4669            4866     15.6900E-03     15.2224E-03
            4668            4866     15.6900E-03     15.2224E-03
            4687            4866     15.6900E-03     15.2224E-03
            4669            4867     15.3747E-03     14.0265E-03
            4687            4867     15.3747E-03     14.0265E-03
            4670            4867     15.3747E-03     14.0265E-03
            4688            4867     15.3747E-03     14.0265E-03
            4689            4868     87.6261E-03     88.6193E-03
            4690            4868     87.6261E-03     88.6193E-03
            4671            4868     87.6261E-03     88.6193E-03
            4672            4868     87.6261E-03     88.6193E-03
            4672            4869     83.4336E-03     84.7973E-03
            4690            4869     83.4336E-03     84.7973E-03
            4673            4869     83.4336E-03     84.7973E-03
            4691            4869     83.4336E-03     84.7973E-03
            4674            4870     79.2021E-03     80.8707E-03
            4673            4870     79.2021E-03     80.8707E-03
            4692            4870     79.2021E-03     80.8707E-03
            4691            4870     79.2021E-03     80.8707E-03
            4675            4871     74.7193E-03     76.3625E-03
            4693            4871     74.7193E-03     76.3625E-03
            4692            4871     74.7193E-03     76.3625E-03
            4674            4871     74.7193E-03     76.3625E-03
            4676            4872     69.7860E-03     71.2982E-03
            4693            4872     69.7860E-03     71.2982E-03
            4675            4872     69.7860E-03     71.2982E-03
            4694            4872     69.7860E-03     71.2982E-03
            4694            4873     64.4752E-03     65.8372E-03
            4677            4873     64.4752E-03     65.8372E-03
            4676            4873     64.4752E-03     65.8372E-03
            4695            4873     64.4752E-03     65.8372E-03
            4696            4874     58.9560E-03     60.1545E-03
            4678            4874     58.9560E-03     60.1545E-03
            4677            4874     58.9560E-03     60.1545E-03
            4695            4874     58.9560E-03     60.1545E-03
            4678            4875     53.3196E-03     54.4115E-03
            4696            4875     53.3196E-03     54.4115E-03
            4679            4875     53.3196E-03     54.4115E-03
            4697            4875     53.3196E-03     54.4115E-03
            4697            4876     47.7069E-03     48.7073E-03
            4679            4876     47.7069E-03     48.7073E-03
            4698            4876     47.7069E-03     48.7073E-03
            4680            4876     47.7069E-03     48.7073E-03
            4680            4877     42.1637E-03     43.1162E-03
            4681            4877     42.1637E-03     43.1162E-03
            4699            4877     42.1637E-03     43.1162E-03
            4698            4877     42.1637E-03     43.1162E-03
            4700            4878     36.7859E-03     37.7173E-03
            4681            4878     36.7859E-03     37.7173E-03
            4699            4878     36.7859E-03     37.7173E-03
            4682            4878     36.7859E-03     37.7173E-03
            4682            4879     31.6512E-03     32.5846E-03
            4683            4879     31.6512E-03     32.5846E-03
            4701            4879     31.6512E-03     32.5846E-03
            4700            4879     31.6512E-03     32.5846E-03
            4702            4880     26.9083E-03     27.8397E-03
            4684            4880     26.9083E-03     27.8397E-03
            4701            4880     26.9083E-03     27.8397E-03
            4683            4880     26.9083E-03     27.8397E-03
            4684            4881     22.7853E-03     23.5884E-03
            4703            4881     22.7853E-03     23.5884E-03
            4702            4881     22.7853E-03     23.5884E-03
            4685            4881     22.7853E-03     23.5884E-03
            4704            4882     19.5722E-03     19.9964E-03
            4686            4882     19.5722E-03     19.9964E-03
            4685            4882     19.5722E-03     19.9964E-03
            4703            4882     19.5722E-03     19.9964E-03
            4687            4883     17.6121E-03     17.3720E-03
            4704            4883     17.6121E-03     17.3720E-03
            4686            4883     17.6121E-03     17.3720E-03
            4705            4883     17.6121E-03     17.3720E-03
            4706            4884     17.1135E-03     15.9920E-03
            4705            4884     17.1135E-03     15.9920E-03
            4688            4884     17.1135E-03     15.9920E-03
            4687            4884     17.1135E-03     15.9920E-03
            4708            4885     82.3745E-03     83.1726E-03
            4690            4885     82.3745E-03     83.1726E-03
            4707            4885     82.3745E-03     83.1726E-03
            4689            4885     82.3745E-03     83.1726E-03
            4690            4886     79.1722E-03     80.5423E-03
            4709            4886     79.1722E-03     80.5423E-03
            4691            4886     79.1722E-03     80.5423E-03
            4708            4886     79.1722E-03     80.5423E-03
            4710            4887     76.1053E-03     77.5341E-03
            4692            4887     76.1053E-03     77.5341E-03
            4691            4887     76.1053E-03     77.5341E-03
            4709            4887     76.1053E-03     77.5341E-03
            4711            4888     72.5219E-03     73.7996E-03
            4692            4888     72.5219E-03     73.7996E-03
            4693            4888     72.5219E-03     73.7996E-03
            4710            4888     72.5219E-03     73.7996E-03
            4712            4889     68.2784E-03     69.3284E-03
            4693            4889     68.2784E-03     69.3284E-03
            4694            4889     68.2784E-03     69.3284E-03
            4711            4889     68.2784E-03     69.3284E-03
            4713            4890     63.4989E-03     64.3468E-03
            4712            4890     63.4989E-03     64.3468E-03
            4695            4890     63.4989E-03     64.3468E-03
            4694            4890     63.4989E-03     64.3468E-03
            4696            4891     58.3813E-03     59.0926E-03
            4714            4891     58.3813E-03     59.0926E-03
            4713            4891     58.3813E-03     59.0926E-03
            4695            4891     58.3813E-03     59.0926E-03
            4696            4892     53.1114E-03     53.7150E-03
            4715            4892     53.1114E-03     53.7150E-03
            4714            4892     53.1114E-03     53.7150E-03
            4697            4892     53.1114E-03     53.7150E-03
            4698            4893     47.7909E-03     48.3421E-03
            4697            4893     47.7909E-03     48.3421E-03
            4715            4893     47.7909E-03     48.3421E-03
            4716            4893     47.7909E-03     48.3421E-03
            4698            4894     42.5447E-03     43.0685E-03
            4716            4894     42.5447E-03     43.0685E-03
            4717            4894     42.5447E-03     43.0685E-03
            4699            4894     42.5447E-03     43.0685E-03
            4700            4895     37.4378E-03     37.9825E-03
            4699            4895     37.4378E-03     37.9825E-03
            4717            4895     37.4378E-03     37.9825E-03
            4718            4895     37.4378E-03     37.9825E-03
            4718            4896     32.5932E-03     33.1963E-03
            4701            4896     32.5932E-03     33.1963E-03
            4700            4896     32.5932E-03     33.1963E-03
            4719            4896     32.5932E-03     33.1963E-03
            4720            4897     28.1218E-03     28.8295E-03
            4701            4897     28.1218E-03     28.8295E-03
            4702            4897     28.1218E-03     28.8295E-03
            4719            4897     28.1218E-03     28.8295E-03
            4702            4898     24.2545E-03     25.0664E-03
            4721            4898     24.2545E-03     25.0664E-03
            4720            4898     24.2545E-03     25.0664E-03
            4703            4898     24.2545E-03     25.0664E-03
            4703            4899     21.3410E-03     21.9539E-03
            4722            4899     21.3410E-03     21.9539E-03
            4721            4899     21.3410E-03     21.9539E-03
            4704            4899     21.3410E-03     21.9539E-03
            4723            4900     19.5308E-03     19.5676E-03
            4704            4900     19.5308E-03     19.5676E-03
            4705            4900     19.5308E-03     19.5676E-03
            4722            4900     19.5308E-03     19.5676E-03
            4723            4901     18.9364E-03     18.2419E-03
            4724            4901     18.9364E-03     18.2419E-03
            4705            4901     18.9364E-03     18.2419E-03
            4706            4901     18.9364E-03     18.2419E-03
            4726            4902     76.6254E-03     77.4341E-03
            4708            4902     76.6254E-03     77.4341E-03
            4707            4902     76.6254E-03     77.4341E-03
            4725            4902     76.6254E-03     77.4341E-03
            4708            4903     74.6539E-03     75.7660E-03
            4709            4903     74.6539E-03     75.7660E-03
            4726            4903     74.6539E-03     75.7660E-03
            4727            4903     74.6539E-03     75.7660E-03
            4728            4904     72.7592E-03     73.7005E-03
            4709            4904     72.7592E-03     73.7005E-03
            4727            4904     72.7592E-03     73.7005E-03
            4710            4904     72.7592E-03     73.7005E-03
            4728            4905     69.9771E-03     70.5966E-03
            4710            4905     69.9771E-03     70.5966E-03
            4711            4905     69.9771E-03     70.5966E-03
            4729            4905     69.9771E-03     70.5966E-03
            4711            4906     66.2901E-03     66.6695E-03
            4729            4906     66.2901E-03     66.6695E-03
            4730            4906     66.2901E-03     66.6695E-03
            4712            4906     66.2901E-03     66.6695E-03
            4731            4907     62.0121E-03     62.2338E-03
            4730            4907     62.0121E-03     62.2338E-03
            4713            4907     62.0121E-03     62.2338E-03
            4712            4907     62.0121E-03     62.2338E-03
            4713            4908     57.3593E-03     57.4883E-03
            4732            4908     57.3593E-03     57.4883E-03
            4714            4908     57.3593E-03     57.4883E-03
            4731            4908     57.3593E-03     57.4883E-03
            4714            4909     52.5101E-03     52.5978E-03
            4733            4909     52.5101E-03     52.5978E-03
            4715            4909     52.5101E-03     52.5978E-03
            4732            4909     52.5101E-03     52.5978E-03
            4716            4910     47.6075E-03     47.6769E-03
            4715            4910     47.6075E-03     47.6769E-03
            4734            4910     47.6075E-03     47.6769E-03
            4733            4910     47.6075E-03     47.6769E-03
            4734            4911     42.7417E-03     42.8304E-03
            4716            4911     42.7417E-03     42.8304E-03
            4717            4911     42.7417E-03     42.8304E-03
            4735            4911     42.7417E-03     42.8304E-03
            4736            4912     38.0267E-03     38.1578E-03
            4718            4912     38.0267E-03     38.1578E-03
            4735            4912     38.0267E-03     38.1578E-03
            4717            4912     38.0267E-03     38.1578E-03
            4719            4913     33.5358E-03     33.7745E-03
            4718            4913     33.5358E-03     33.7745E-03
            4737            4913     33.5358E-03     33.7745E-03
            4736            4913     33.5358E-03     33.7745E-03
            4719            4914     29.4221E-03     29.8316E-03
            4738            4914     29.4221E-03     29.8316E-03
            4720            4914     29.4221E-03     29.8316E-03
            4737            4914     29.4221E-03     29.8316E-03
            4721            4915     25.8025E-03     26.5106E-03
            4739            4915     25.8025E-03     26.5106E-03
            4738            4915     25.8025E-03     26.5106E-03
            4720            4915     25.8025E-03     26.5106E-03
            4721            4916     22.9957E-03     24.0148E-03
            4722            4916     22.9957E-03     24.0148E-03
            4740            4916     22.9957E-03     24.0148E-03
            4739            4916     22.9957E-03     24.0148E-03
            4740            4917     21.4880E-03     22.0696E-03
            4741            4917     21.4880E-03     22.0696E-03
            4723            4917     21.4880E-03     22.0696E-03
            4722            4917     21.4880E-03     22.0696E-03
            4741            4918     20.8775E-03     20.5012E-03
            4723            4918     20.8775E-03     20.5012E-03
            4742            4918     20.8775E-03     20.5012E-03
            4724            4918     20.8775E-03     20.5012E-03
            4725            4919     70.3197E-03     70.5501E-03
            4726            4919     70.3197E-03     70.5501E-03
            4743            4919     70.3197E-03     70.5501E-03
            4744            4919     70.3197E-03     70.5501E-03
            4745            4920     70.0837E-03     70.3373E-03
            4727            4920     70.0837E-03     70.3373E-03
            4744            4920     70.0837E-03     70.3373E-03
            4726            4920     70.0837E-03     70.3373E-03
            4745            4921     69.2363E-03     69.0950E-03
            4727            4921     69.2363E-03     69.0950E-03
            4746            4921     69.2363E-03     69.0950E-03
            4728            4921     69.2363E-03     69.0950E-03
            4746            4922     66.9754E-03     66.5956E-03
            4728            4922     66.9754E-03     66.5956E-03
            4729            4922     66.9754E-03     66.5956E-03
            4747            4922     66.9754E-03     66.5956E-03
            4747            4923     63.8268E-03     63.3346E-03
            4748            4923     63.8268E-03     63.3346E-03
            4729            4923     63.8268E-03     63.3346E-03
            4730            4923     63.8268E-03     63.3346E-03
            4748            4924     60.0733E-03     59.5705E-03
            4730            4924     60.0733E-03     59.5705E-03
            4749            4924     60.0733E-03     59.5705E-03
            4731            4924     60.0733E-03     59.5705E-03
            4750            4925     55.9664E-03     55.4865E-03
            4749            4925     55.9664E-03     55.4865E-03
            4732            4925     55.9664E-03     55.4865E-03
            4731            4925     55.9664E-03     55.4865E-03
            4732            4926     51.6561E-03     51.2190E-03
            4733            4926     51.6561E-03     51.2190E-03
            4750            4926     51.6561E-03     51.2190E-03
            4751            4926     51.6561E-03     51.2190E-03
            4751            4927     47.2688E-03     46.8857E-03
            4752            4927     47.2688E-03     46.8857E-03
            4734            4927     47.2688E-03     46.8857E-03
            4733            4927     47.2688E-03     46.8857E-03
            4753            4928     42.9119E-03     42.5830E-03
            4752            4928     42.9119E-03     42.5830E-03
            4735            4928     42.9119E-03     42.5830E-03
            4734            4928     42.9119E-03     42.5830E-03
            4753            4929     38.6680E-03     38.4149E-03
            4754            4929     38.6680E-03     38.4149E-03
            4735            4929     38.6680E-03     38.4149E-03
            4736            4929     38.6680E-03     38.4149E-03
            4737            4930     34.6454E-03     34.4946E-03
            4755            4930     34.6454E-03     34.4946E-03
            4754            4930     34.6454E-03     34.4946E-03
            4736            4930     34.6454E-03     34.4946E-03
            4738            4931     30.9211E-03     30.9720E-03
            4755            4931     30.9211E-03     30.9720E-03
            4737            4931     30.9211E-03     30.9720E-03
            4756            4931     30.9211E-03     30.9720E-03
            4739            4932     27.6460E-03     28.0223E-03
            4756            4932     27.6460E-03     28.0223E-03
            4738            4932     27.6460E-03     28.0223E-03
            4757            4932     27.6460E-03     28.0223E-03
            4757            4933     24.8562E-03     25.9227E-03
            4739            4933     24.8562E-03     25.9227E-03
            4740            4933     24.8562E-03     25.9227E-03
            4758            4933     24.8562E-03     25.9227E-03
            4741            4934     22.9999E-03     24.7922E-03
            4740            4934     22.9999E-03     24.7922E-03
            4758            4934     22.9999E-03     24.7922E-03
            4759            4934     22.9999E-03     24.7922E-03
            4741            4935     22.8217E-03     23.6674E-03
            4742            4935     22.8217E-03     23.6674E-03
            4760            4935     22.8217E-03     23.6674E-03
            4759            4935     22.8217E-03     23.6674E-03
            4743            4936     64.1552E-03     62.2501E-03
            4762            4936     64.1552E-03     62.2501E-03
            4744            4936     64.1552E-03     62.2501E-03
            4761            4936     64.1552E-03     62.2501E-03
            4745            4937     65.7597E-03     63.9030E-03
            4763            4937     65.7597E-03     63.9030E-03
            4762            4937     65.7597E-03     63.9030E-03
            4744            4937     65.7597E-03     63.9030E-03
            4745            4938     65.3064E-03     63.4667E-03
            4763            4938     65.3064E-03     63.4667E-03
            4764            4938     65.3064E-03     63.4667E-03
            4746            4938     65.3064E-03     63.4667E-03
            4746            4939     63.5217E-03     61.8587E-03
            4747            4939     63.5217E-03     61.8587E-03
            4765            4939     63.5217E-03     61.8587E-03
            4764            4939     63.5217E-03     61.8587E-03
            4747            4940     60.9397E-03     59.5050E-03
            4765            4940     60.9397E-03     59.5050E-03
            4766            4940     60.9397E-03     59.5050E-03
            4748            4940     60.9397E-03     59.5050E-03
            4748            4941     57.8488E-03     56.6193E-03
            4766            4941     57.8488E-03     56.6193E-03
            4749            4941     57.8488E-03     56.6193E-03
            4767            4941     57.8488E-03     56.6193E-03
            4749            4942     54.4057E-03     53.3630E-03
            4767            4942     54.4057E-03     53.3630E-03
            4768            4942     54.4057E-03     53.3630E-03
            4750            4942     54.4057E-03     53.3630E-03
            4769            4943     50.7585E-03     49.8697E-03
            4750            4943     50.7585E-03     49.8697E-03
            4751            4943     50.7585E-03     49.8697E-03
            4768            4943     50.7585E-03     49.8697E-03
            4770            4944     47.0046E-03     46.2416E-03
            4752            4944     47.0046E-03     46.2416E-03
            4769            4944     47.0046E-03     46.2416E-03
            4751            4944     47.0046E-03     46.2416E-03
            4753            4945     43.2447E-03     42.5849E-03
            4771            4945     43.2447E-03     42.5849E-03
            4770            4945     43.2447E-03     42.5849E-03
            4752            4945     43.2447E-03     42.5849E-03
            4772            4946     39.5649E-03     38.9959E-03
            4771            4946     39.5649E-03     38.9959E-03
            4753            4946     39.5649E-03     38.9959E-03
            4754            4946     39.5649E-03     38.9959E-03
            4755            4947     36.0591E-03     35.5781E-03
            4773            4947     36.0591E-03     35.5781E-03
            4754            4947     36.0591E-03     35.5781E-03
            4772            4947     36.0591E-03     35.5781E-03
            4774            4948     32.8075E-03     32.4600E-03
            4773            4948     32.8075E-03     32.4600E-03
            4756            4948     32.8075E-03     32.4600E-03
            4755            4948     32.8075E-03     32.4600E-03
            4757            4949     29.9024E-03     29.7874E-03
            4774            4949     29.9024E-03     29.7874E-03
            4756            4949     29.9024E-03     29.7874E-03
            4775            4949     29.9024E-03     29.7874E-03
            4757            4950     27.3693E-03     27.7439E-03
            4776            4950     27.3693E-03     27.7439E-03
            4758            4950     27.3693E-03     27.7439E-03
            4775            4950     27.3693E-03     27.7439E-03
            4759            4951     25.0736E-03     26.7570E-03
            4777            4951     25.0736E-03     26.7570E-03
            4758            4951     25.0736E-03     26.7570E-03
            4776            4951     25.0736E-03     26.7570E-03
            4759            4952     23.4955E-03     26.8979E-03
            4777            4952     23.4955E-03     26.8979E-03
            4760            4952     23.4955E-03     26.8979E-03
            4778            4952     23.4955E-03     26.8979E-03
            4762            4953     61.5777E-03     62.6393E-03
            4780            4953     61.5777E-03     62.6393E-03
            4761            4953     61.5777E-03     62.6393E-03
            4779            4953     61.5777E-03     62.6393E-03
            4763            4954     56.1667E-03     56.0376E-03
            4780            4954     56.1667E-03     56.0376E-03
            4762            4954     56.1667E-03     56.0376E-03
            4781            4954     56.1667E-03     56.0376E-03
            4763            4955     52.5152E-03     52.3120E-03
            4764            4955     52.5152E-03     52.3120E-03
            4781            4955     52.5152E-03     52.3120E-03
            4782            4955     52.5152E-03     52.3120E-03
            4782            4956     49.1134E-03     49.1109E-03
            4783            4956     49.1134E-03     49.1109E-03
            4764            4956     49.1134E-03     49.1109E-03
            4765            4956     49.1134E-03     49.1109E-03
            4784            4957     45.9951E-03     46.1602E-03
            4766            4957     45.9951E-03     46.1602E-03
            4783            4957     45.9951E-03     46.1602E-03
            4765            4957     45.9951E-03     46.1602E-03
            4785            4958     42.9186E-03     43.2924E-03
            4784            4958     42.9186E-03     43.2924E-03
            4767            4958     42.9186E-03     43.2924E-03
            4766            4958     42.9186E-03     43.2924E-03
            4785            4959     39.9051E-03     40.4193E-03
            4786            4959     39.9051E-03     40.4193E-03
            4767            4959     39.9051E-03     40.4193E-03
            4768            4959     39.9051E-03     40.4193E-03
            4768            4960     36.8942E-03     37.5318E-03
            4787            4960     36.8942E-03     37.5318E-03
            4786            4960     36.8942E-03     37.5318E-03
            4769            4960     36.8942E-03     37.5318E-03
            4788            4961     33.9116E-03     34.6221E-03
            4770            4961     33.9116E-03     34.6221E-03
            4787            4961     33.9116E-03     34.6221E-03
            4769            4961     33.9116E-03     34.6221E-03
            4788            4962     30.9780E-03     31.7299E-03
            4770            4962     30.9780E-03     31.7299E-03
            4771            4962     30.9780E-03     31.7299E-03
            4789            4962     30.9780E-03     31.7299E-03
            4789            4963     28.1221E-03     28.8704E-03
            4771            4963     28.1221E-03     28.8704E-03
            4772            4963     28.1221E-03     28.8704E-03
            4790            4963     28.1221E-03     28.8704E-03
            4772            4964     25.4236E-03     26.1294E-03
            4791            4964     25.4236E-03     26.1294E-03
            4773            4964     25.4236E-03     26.1294E-03
            4790            4964     25.4236E-03     26.1294E-03
            4792            4965     22.9255E-03     23.5243E-03
            4791            4965     22.9255E-03     23.5243E-03
            4773            4965     22.9255E-03     23.5243E-03
            4774            4965     22.9255E-03     23.5243E-03
            4775            4966     20.7943E-03     21.2578E-03
            4792            4966     20.7943E-03     21.2578E-03
            4793            4966     20.7943E-03     21.2578E-03
            4774            4966     20.7943E-03     21.2578E-03
            4776            4967     19.1104E-03     19.3642E-03
            4775            4967     19.1104E-03     19.3642E-03
            4793            4967     19.1104E-03     19.3642E-03
            4794            4967     19.1104E-03     19.3642E-03
            4794            4968     18.1518E-03     18.4740E-03
            4776            4968     18.1518E-03     18.4740E-03
            4777            4968     18.1518E-03     18.4740E-03
            4795            4968     18.1518E-03     18.4740E-03
            4796            4969     17.6427E-03     19.3369E-03
            4777            4969     17.6427E-03     19.3369E-03
            4778            4969     17.6427E-03     19.3369E-03
            4795            4969     17.6427E-03     19.3369E-03
            4779            4970     62.8831E-03     64.7770E-03
            4798            4970     62.8831E-03     64.7770E-03
            4780            4970     62.8831E-03     64.7770E-03
            4797            4970     62.8831E-03     64.7770E-03
            4798            4971     50.1920E-03     52.5159E-03
            4799            4971     50.1920E-03     52.5159E-03
            4780            4971     50.1920E-03     52.5159E-03
            4781            4971     50.1920E-03     52.5159E-03
            4781            4972     42.4171E-03     44.6264E-03
            4782            4972     42.4171E-03     44.6264E-03
            4799            4972     42.4171E-03     44.6264E-03
            4800            4972     42.4171E-03     44.6264E-03
            4801            4973     37.2629E-03     39.3919E-03
            4782            4973     37.2629E-03     39.3919E-03
            4783            4973     37.2629E-03     39.3919E-03
            4800            4973     37.2629E-03     39.3919E-03
            4783            4974     33.1212E-03     35.2638E-03
            4802            4974     33.1212E-03     35.2638E-03
            4784            4974     33.1212E-03     35.2638E-03
            4801            4974     33.1212E-03     35.2638E-03
            4803            4975     29.7610E-03     31.9229E-03
            4784            4975     29.7610E-03     31.9229E-03
            4802            4975     29.7610E-03     31.9229E-03
            4785            4975     29.7610E-03     31.9229E-03
            4804            4976     26.7771E-03     28.9542E-03
            4785            4976     26.7771E-03     28.9542E-03
            4786            4976     26.7771E-03     28.9542E-03
            4803            4976     26.7771E-03     28.9542E-03
            4805            4977     24.0767E-03     26.2555E-03
            4786            4977     24.0767E-03     26.2555E-03
            4804            4977     24.0767E-03     26.2555E-03
            4787            4977     24.0767E-03     26.2555E-03
            4788            4978     21.5360E-03     23.6847E-03
            4806            4978     21.5360E-03     23.6847E-03
            4805            4978     21.5360E-03     23.6847E-03
            4787            4978     21.5360E-03     23.6847E-03
            4806            4979     19.1317E-03     21.2215E-03
            4788            4979     19.1317E-03     21.2215E-03
            4807            4979     19.1317E-03     21.2215E-03
            4789            4979     19.1317E-03     21.2215E-03
            4790            4980     16.8466E-03     18.8260E-03
            4808            4980     16.8466E-03     18.8260E-03
            4807            4980     16.8466E-03     18.8260E-03
            4789            4980     16.8466E-03     18.8260E-03
            4790            4981     14.7149E-03     16.5184E-03
            4791            4981     14.7149E-03     16.5184E-03
            4808            4981     14.7149E-03     16.5184E-03
            4809            4981     14.7149E-03     16.5184E-03
            4792            4982     12.7944E-03     14.3266E-03
            4810            4982     12.7944E-03     14.3266E-03
            4809            4982     12.7944E-03     14.3266E-03
            4791            4982     12.7944E-03     14.3266E-03
            4810            4983     11.2556E-03     12.3692E-03
            4792            4983     11.2556E-03     12.3692E-03
            4811            4983     11.2556E-03     12.3692E-03
            4793            4983     11.2556E-03     12.3692E-03
            4793            4984     10.2759E-03     10.8033E-03
            4811            4984     10.2759E-03     10.8033E-03
            4812            4984     10.2759E-03     10.8033E-03
            4794            4984     10.2759E-03     10.8033E-03
            4795            4985     10.4396E-03     10.2698E-03
            4794            4985     10.4396E-03     10.2698E-03
            4812            4985     10.4396E-03     10.2698E-03
            4813            4985     10.4396E-03     10.2698E-03
            4813            4986     11.6310E-03     10.7615E-03
            4796            4986     11.6310E-03     10.7615E-03
            4795            4986     11.6310E-03     10.7615E-03
            4814            4986     11.6310E-03     10.7615E-03
            4797            4987     60.6502E-03     60.7606E-03
            4798            4987     60.6502E-03     60.7606E-03
            4816            4987     60.6502E-03     60.7606E-03
            4815            4987     60.6502E-03     60.7606E-03
            4816            4988     51.6108E-03     52.5545E-03
            4799            4988     51.6108E-03     52.5545E-03
            4798            4988     51.6108E-03     52.5545E-03
            4817            4988     51.6108E-03     52.5545E-03
            4817            4989     43.6567E-03     45.2715E-03
            4799            4989     43.6567E-03     45.2715E-03
            4818            4989     43.6567E-03     45.2715E-03
            4800            4989     43.6567E-03     45.2715E-03
            4819            4990     38.3619E-03     40.1752E-03
            4818            4990     38.3619E-03     40.1752E-03
            4801            4990     38.3619E-03     40.1752E-03
            4800            4990     38.3619E-03     40.1752E-03
            4801            4991     34.3203E-03     36.1620E-03
            4802            4991     34.3203E-03     36.1620E-03
            4819            4991     34.3203E-03     36.1620E-03
            4820            4991     34.3203E-03     36.1620E-03
            4820            4992     30.9340E-03     32.8118E-03
            4821            4992     30.9340E-03     32.8118E-03
            4802            4992     30.9340E-03     32.8118E-03
            4803            4992     30.9340E-03     32.8118E-03
            4804            4993     28.0086E-03     29.8623E-03
            4821            4993     28.0086E-03     29.8623E-03
            4822            4993     28.0086E-03     29.8623E-03
            4803            4993     28.0086E-03     29.8623E-03
            4822            4994     25.3145E-03     27.1406E-03
            4804            4994     25.3145E-03     27.1406E-03
            4805            4994     25.3145E-03     27.1406E-03
            4823            4994     25.3145E-03     27.1406E-03
            4806            4995     22.8122E-03     24.5815E-03
            4823            4995     22.8122E-03     24.5815E-03
            4805            4995     22.8122E-03     24.5815E-03
            4824            4995     22.8122E-03     24.5815E-03
            4807            4996     20.4375E-03     22.1262E-03
            4825            4996     20.4375E-03     22.1262E-03
            4824            4996     20.4375E-03     22.1262E-03
            4806            4996     20.4375E-03     22.1262E-03
            4825            4997     18.2097E-03     19.7777E-03
            4808            4997     18.2097E-03     19.7777E-03
            4826            4997     18.2097E-03     19.7777E-03
            4807            4997     18.2097E-03     19.7777E-03
            4827            4998     16.1392E-03     17.5298E-03
            4808            4998     16.1392E-03     17.5298E-03
            4809            4998     16.1392E-03     17.5298E-03
            4826            4998     16.1392E-03     17.5298E-03
            4810            4999     14.3098E-03     15.4407E-03
            4827            4999     14.3098E-03     15.4407E-03
            4809            4999     14.3098E-03     15.4407E-03
            4828            4999     14.3098E-03     15.4407E-03
            4828            5000     12.7899E-03     13.5497E-03
            4829            5000     12.7899E-03     13.5497E-03
            4810            5000     12.7899E-03     13.5497E-03
            4811            5000     12.7899E-03     13.5497E-03
            4811            5001     11.8071E-03     12.0929E-03
            4829            5001     11.8071E-03     12.0929E-03
            4830            5001     11.8071E-03     12.0929E-03
            4812            5001     11.8071E-03     12.0929E-03
            4813            5002     11.4513E-03     11.1756E-03
            4812            5002     11.4513E-03     11.1756E-03
            4830            5002     11.4513E-03     11.1756E-03
            4831            5002     11.4513E-03     11.1756E-03
            4831            5003     11.3432E-03     10.5153E-03
            4813            5003     11.3432E-03     10.5153E-03
            4814            5003     11.3432E-03     10.5153E-03
            4832            5003     11.3432E-03     10.5153E-03
            4833            5004     55.4800E-03     56.5310E-03
            4816            5004     55.4800E-03     56.5310E-03
            4834            5004     55.4800E-03     56.5310E-03
            4815            5004     55.4800E-03     56.5310E-03
            4835            5005     49.6575E-03     50.4997E-03
            4816            5005     49.6575E-03     50.4997E-03
            4834            5005     49.6575E-03     50.4997E-03
            4817            5005     49.6575E-03     50.4997E-03
            4817            5006     43.9317E-03     45.0483E-03
            4835            5006     43.9317E-03     45.0483E-03
            4818            5006     43.9317E-03     45.0483E-03
            4836            5006     43.9317E-03     45.0483E-03
            4818            5007     39.0140E-03     40.4771E-03
            4836            5007     39.0140E-03     40.4771E-03
            4837            5007     39.0140E-03     40.4771E-03
            4819            5007     39.0140E-03     40.4771E-03
            4819            5008     35.2592E-03     36.8216E-03
            4837            5008     35.2592E-03     36.8216E-03
            4838            5008     35.2592E-03     36.8216E-03
            4820            5008     35.2592E-03     36.8216E-03
            4838            5009     32.0465E-03     33.6050E-03
            4839            5009     32.0465E-03     33.6050E-03
            4820            5009     32.0465E-03     33.6050E-03
            4821            5009     32.0465E-03     33.6050E-03
            4840            5010     29.1678E-03     30.7096E-03
            4839            5010     29.1678E-03     30.7096E-03
            4821            5010     29.1678E-03     30.7096E-03
            4822            5010     29.1678E-03     30.7096E-03
            4841            5011     26.5244E-03     28.0037E-03
            4840            5011     26.5244E-03     28.0037E-03
            4823            5011     26.5244E-03     28.0037E-03
            4822            5011     26.5244E-03     28.0037E-03
            4841            5012     24.0249E-03     25.4411E-03
            4842            5012     24.0249E-03     25.4411E-03
            4824            5012     24.0249E-03     25.4411E-03
            4823            5012     24.0249E-03     25.4411E-03
            4843            5013     21.6769E-03     23.0023E-03
            4825            5013     21.6769E-03     23.0023E-03
            4824            5013     21.6769E-03     23.0023E-03
            4842            5013     21.6769E-03     23.0023E-03
            4825            5014     19.4667E-03     20.6758E-03
            4844            5014     19.4667E-03     20.6758E-03
            4826            5014     19.4667E-03     20.6758E-03
            4843            5014     19.4667E-03     20.6758E-03
            4827            5015     17.4426E-03     18.4857E-03
            4845            5015     17.4426E-03     18.4857E-03
            4844            5015     17.4426E-03     18.4857E-03
            4826            5015     17.4426E-03     18.4857E-03
            4827            5016     15.6310E-03     16.4351E-03
            4845            5016     15.6310E-03     16.4351E-03
            4846            5016     15.6310E-03     16.4351E-03
            4828            5016     15.6310E-03     16.4351E-03
            4829            5017     14.1216E-03     14.5923E-03
            4846            5017     14.1216E-03     14.5923E-03
            4828            5017     14.1216E-03     14.5923E-03
            4847            5017     14.1216E-03     14.5923E-03
            4847            5018     12.9677E-03     12.9965E-03
            4848            5018     12.9677E-03     12.9965E-03
            4829            5018     12.9677E-03     12.9965E-03
            4830            5018     12.9677E-03     12.9965E-03
            4831            5019     12.1161E-03     11.5696E-03
            4849            5019     12.1161E-03     11.5696E-03
            4848            5019     12.1161E-03     11.5696E-03
            4830            5019     12.1161E-03     11.5696E-03
            4850            5020     11.6327E-03     10.5457E-03
            4832            5020     11.6327E-03     10.5457E-03
            4831            5020     11.6327E-03     10.5457E-03
            4849            5020     11.6327E-03     10.5457E-03
            4834            5021     50.9005E-03     51.4454E-03
            4852            5021     50.9005E-03     51.4454E-03
            4833            5021     50.9005E-03     51.4454E-03
            4851            5021     50.9005E-03     51.4454E-03
            4834            5022     46.3616E-03     47.3363E-03
            4835            5022     46.3616E-03     47.3363E-03
            4852            5022     46.3616E-03     47.3363E-03
            4853            5022     46.3616E-03     47.3363E-03
            4836            5023     42.5159E-03     43.6054E-03
            4835            5023     42.5159E-03     43.6054E-03
            4854            5023     42.5159E-03     43.6054E-03
            4853            5023     42.5159E-03     43.6054E-03
            4836            5024     38.9807E-03     40.1645E-03
            4855            5024     38.9807E-03     40.1645E-03
            4837            5024     38.9807E-03     40.1645E-03
            4854            5024     38.9807E-03     40.1645E-03
            4837            5025     35.7279E-03     37.0131E-03
            4838            5025     35.7279E-03     37.0131E-03
            4855            5025     35.7279E-03     37.0131E-03
            4856            5025     35.7279E-03     37.0131E-03
            4838            5026     32.8542E-03     34.1160E-03
            4857            5026     32.8542E-03     34.1160E-03
            4839            5026     32.8542E-03     34.1160E-03
            4856            5026     32.8542E-03     34.1160E-03
            4840            5027     30.1362E-03     31.3415E-03
            4857            5027     30.1362E-03     31.3415E-03
            4839            5027     30.1362E-03     31.3415E-03
            4858            5027     30.1362E-03     31.3415E-03
            4840            5028     27.5544E-03     28.6987E-03
            4841            5028     27.5544E-03     28.6987E-03
            4858            5028     27.5544E-03     28.6987E-03
            4859            5028     27.5544E-03     28.6987E-03
            4841            5029     25.0961E-03     26.1634E-03
            4842            5029     25.0961E-03     26.1634E-03
            4860            5029     25.0961E-03     26.1634E-03
            4859            5029     25.0961E-03     26.1634E-03
            4842            5030     22.7592E-03     23.7482E-03
            4861            5030     22.7592E-03     23.7482E-03
            4843            5030     22.7592E-03     23.7482E-03
            4860            5030     22.7592E-03     23.7482E-03
            4862            5031     20.5783E-03     21.4662E-03
            4844            5031     20.5783E-03     21.4662E-03
            4861            5031     20.5783E-03     21.4662E-03
            4843            5031     20.5783E-03     21.4662E-03
            4862            5032     18.5716E-03     19.3211E-03
            4863            5032     18.5716E-03     19.3211E-03
            4844            5032     18.5716E-03     19.3211E-03
            4845            5032     18.5716E-03     19.3211E-03
            4845            5033     16.7856E-03     17.3330E-03
            4846            5033     16.7856E-03     17.3330E-03
            4863            5033     16.7856E-03     17.3330E-03
            4864            5033     16.7856E-03     17.3330E-03
            4865            5034     15.2505E-03     15.5028E-03
            4846            5034     15.2505E-03     15.5028E-03
            4847            5034     15.2505E-03     15.5028E-03
            4864            5034     15.2505E-03     15.5028E-03
            4866            5035     13.9536E-03     13.7806E-03
            4847            5035     13.9536E-03     13.7806E-03
            4865            5035     13.9536E-03     13.7806E-03
            4848            5035     13.9536E-03     13.7806E-03
            4849            5036     12.9425E-03     12.2969E-03
            4866            5036     12.9425E-03     12.2969E-03
            4867            5036     12.9425E-03     12.2969E-03
            4848            5036     12.9425E-03     12.2969E-03
            4867            5037     12.2679E-03     11.2118E-03
            4868            5037     12.2679E-03     11.2118E-03
            4849            5037     12.2679E-03     11.2118E-03
            4850            5037     12.2679E-03     11.2118E-03
            4869            5038     46.0888E-03     46.7177E-03
            4870            5038     46.0888E-03     46.7177E-03
            4851            5038     46.0888E-03     46.7177E-03
            4852            5038     46.0888E-03     46.7177E-03
            4852            5039     42.9937E-03     43.7586E-03
            4870            5039     42.9937E-03     43.7586E-03
            4871            5039     42.9937E-03     43.7586E-03
            4853            5039     42.9937E-03     43.7586E-03
            4853            5040     40.4319E-03     41.4505E-03
            4871            5040     40.4319E-03     41.4505E-03
            4872            5040     40.4319E-03     41.4505E-03
            4854            5040     40.4319E-03     41.4505E-03
            4873            5041     38.1103E-03     39.1696E-03
            4854            5041     38.1103E-03     39.1696E-03
            4872            5041     38.1103E-03     39.1696E-03
            4855            5041     38.1103E-03     39.1696E-03
            4874            5042     35.7410E-03     36.7401E-03
            4856            5042     35.7410E-03     36.7401E-03
            4855            5042     35.7410E-03     36.7401E-03
            4873            5042     35.7410E-03     36.7401E-03
            4875            5043     33.2640E-03     34.2117E-03
            4874            5043     33.2640E-03     34.2117E-03
            4857            5043     33.2640E-03     34.2117E-03
            4856            5043     33.2640E-03     34.2117E-03
            4857            5044     30.7975E-03     31.6591E-03
            4875            5044     30.7975E-03     31.6591E-03
            4876            5044     30.7975E-03     31.6591E-03
            4858            5044     30.7975E-03     31.6591E-03
            4858            5045     28.3306E-03     29.1191E-03
            4876            5045     28.3306E-03     29.1191E-03
            4877            5045     28.3306E-03     29.1191E-03
            4859            5045     28.3306E-03     29.1191E-03
            4877            5046     25.9357E-03     26.6596E-03
            4859            5046     25.9357E-03     26.6596E-03
            4878            5046     25.9357E-03     26.6596E-03
            4860            5046     25.9357E-03     26.6596E-03
            4878            5047     23.6464E-03     24.3057E-03
            4879            5047     23.6464E-03     24.3057E-03
            4860            5047     23.6464E-03     24.3057E-03
            4861            5047     23.6464E-03     24.3057E-03
            4879            5048     21.4985E-03     22.0903E-03
            4862            5048     21.4985E-03     22.0903E-03
            4861            5048     21.4985E-03     22.0903E-03
            4880            5048     21.4985E-03     22.0903E-03
            4880            5049     19.5325E-03     20.0342E-03
            4881            5049     19.5325E-03     20.0342E-03
            4862            5049     19.5325E-03     20.0342E-03
            4863            5049     19.5325E-03     20.0342E-03
            4882            5050     17.7804E-03     18.1358E-03
            4863            5050     17.7804E-03     18.1358E-03
            4881            5050     17.7804E-03     18.1358E-03
            4864            5050     17.7804E-03     18.1358E-03
            4883            5051     16.2447E-03     16.3616E-03
            4882            5051     16.2447E-03     16.3616E-03
            4865            5051     16.2447E-03     16.3616E-03
            4864            5051     16.2447E-03     16.3616E-03
            4865            5052     14.9483E-03     14.7315E-03
            4884            5052     14.9483E-03     14.7315E-03
            4883            5052     14.9483E-03     14.7315E-03
            4866            5052     14.9483E-03     14.7315E-03
            4885            5053     13.8711E-03     13.2376E-03
            4866            5053     13.8711E-03     13.2376E-03
            4867            5053     13.8711E-03     13.2376E-03
            4884            5053     13.8711E-03     13.2376E-03
            4885            5054     13.0424E-03     12.0335E-03
            4886            5054     13.0424E-03     12.0335E-03
            4867            5054     13.0424E-03     12.0335E-03
            4868            5054     13.0424E-03     12.0335E-03
            4888            5055     41.4162E-03     41.8232E-03
            4870            5055     41.4162E-03     41.8232E-03
            4887            5055     41.4162E-03     41.8232E-03
            4869            5055     41.4162E-03     41.8232E-03
            4889            5056     39.3374E-03     40.1271E-03
            4888            5056     39.3374E-03     40.1271E-03
            4871            5056     39.3374E-03     40.1271E-03
            4870            5056     39.3374E-03     40.1271E-03
            4872            5057     38.1449E-03     39.0064E-03
            4890            5057     38.1449E-03     39.0064E-03
            4889            5057     38.1449E-03     39.0064E-03
            4871            5057     38.1449E-03     39.0064E-03
            4873            5058     36.8817E-03     37.7209E-03
            4890            5058     36.8817E-03     37.7209E-03
            4872            5058     36.8817E-03     37.7209E-03
            4891            5058     36.8817E-03     37.7209E-03
            4892            5059     35.2815E-03     35.9991E-03
            4874            5059     35.2815E-03     35.9991E-03
            4891            5059     35.2815E-03     35.9991E-03
            4873            5059     35.2815E-03     35.9991E-03
            4874            5060     33.3175E-03     33.8895E-03
            4892            5060     33.3175E-03     33.8895E-03
            4893            5060     33.3175E-03     33.8895E-03
            4875            5060     33.3175E-03     33.8895E-03
            4894            5061     31.0928E-03     31.5823E-03
            4875            5061     31.0928E-03     31.5823E-03
            4876            5061     31.0928E-03     31.5823E-03
            4893            5061     31.0928E-03     31.5823E-03
            4876            5062     28.8054E-03     29.2193E-03
            4895            5062     28.8054E-03     29.2193E-03
            4894            5062     28.8054E-03     29.2193E-03
            4877            5062     28.8054E-03     29.2193E-03
            4877            5063     26.5140E-03     26.8805E-03
            4896            5063     26.5140E-03     26.8805E-03
            4878            5063     26.5140E-03     26.8805E-03
            4895            5063     26.5140E-03     26.8805E-03
            4897            5064     24.3096E-03     24.6419E-03
            4896            5064     24.3096E-03     24.6419E-03
            4879            5064     24.3096E-03     24.6419E-03
            4878            5064     24.3096E-03     24.6419E-03
            4879            5065     22.2362E-03     22.5417E-03
            4880            5065     22.2362E-03     22.5417E-03
            4897            5065     22.2362E-03     22.5417E-03
            4898            5065     22.2362E-03     22.5417E-03
            4898            5066     20.3369E-03     20.6142E-03
            4899            5066     20.3369E-03     20.6142E-03
            4880            5066     20.3369E-03     20.6142E-03
            4881            5066     20.3369E-03     20.6142E-03
            4881            5067     18.6402E-03     18.8656E-03
            4882            5067     18.6402E-03     18.8656E-03
            4899            5067     18.6402E-03     18.8656E-03
            4900            5067     18.6402E-03     18.8656E-03
            4882            5068     17.1811E-03     17.2635E-03
            4901            5068     17.1811E-03     17.2635E-03
            4900            5068     17.1811E-03     17.2635E-03
            4883            5068     17.1811E-03     17.2635E-03
            4902            5069     15.9186E-03     15.7495E-03
            4883            5069     15.9186E-03     15.7495E-03
            4901            5069     15.9186E-03     15.7495E-03
            4884            5069     15.9186E-03     15.7495E-03
            4902            5070     14.8460E-03     14.3339E-03
            4903            5070     14.8460E-03     14.3339E-03
            4885            5070     14.8460E-03     14.3339E-03
            4884            5070     14.8460E-03     14.3339E-03
            4904            5071     13.9392E-03     13.0232E-03
            4903            5071     13.9392E-03     13.0232E-03
            4886            5071     13.9392E-03     13.0232E-03
            4885            5071     13.9392E-03     13.0232E-03
            4887            5072     36.4737E-03     36.8340E-03
            4888            5072     36.4737E-03     36.8340E-03
            4905            5072     36.4737E-03     36.8340E-03
            4906            5072     36.4737E-03     36.8340E-03
            4889            5073     35.6827E-03     36.3096E-03
            4907            5073     35.6827E-03     36.3096E-03
            4906            5073     35.6827E-03     36.3096E-03
            4888            5073     35.6827E-03     36.3096E-03
            4908            5074     35.7066E-03     36.4178E-03
            4907            5074     35.7066E-03     36.4178E-03
            4890            5074     35.7066E-03     36.4178E-03
            4889            5074     35.7066E-03     36.4178E-03
            4891            5075     35.5133E-03     36.0089E-03
            4908            5075     35.5133E-03     36.0089E-03
            4890            5075     35.5133E-03     36.0089E-03
            4909            5075     35.5133E-03     36.0089E-03
            4909            5076     34.5526E-03     34.8377E-03
            4892            5076     34.5526E-03     34.8377E-03
            4891            5076     34.5526E-03     34.8377E-03
            4910            5076     34.5526E-03     34.8377E-03
            4910            5077     32.9691E-03     33.1261E-03
            4911            5077     32.9691E-03     33.1261E-03
            4892            5077     32.9691E-03     33.1261E-03
            4893            5077     32.9691E-03     33.1261E-03
            4894            5078     31.0548E-03     31.1150E-03
            4911            5078     31.0548E-03     31.1150E-03
            4893            5078     31.0548E-03     31.1150E-03
            4912            5078     31.0548E-03     31.1150E-03
            4912            5079     28.9554E-03     28.9755E-03
            4895            5079     28.9554E-03     28.9755E-03
            4894            5079     28.9554E-03     28.9755E-03
            4913            5079     28.9554E-03     28.9755E-03
            4913            5080     26.8387E-03     26.8361E-03
            4914            5080     26.8387E-03     26.8361E-03
            4896            5080     26.8387E-03     26.8361E-03
            4895            5080     26.8387E-03     26.8361E-03
            4897            5081     24.7690E-03     24.7676E-03
            4914            5081     24.7690E-03     24.7676E-03
            4915            5081     24.7690E-03     24.7676E-03
            4896            5081     24.7690E-03     24.7676E-03
            4897            5082     22.8186E-03     22.8390E-03
            4915            5082     22.8186E-03     22.8390E-03
            4916            5082     22.8186E-03     22.8390E-03
            4898            5082     22.8186E-03     22.8390E-03
            4917            5083     21.0270E-03     21.0835E-03
            4898            5083     21.0270E-03     21.0835E-03
            4899            5083     21.0270E-03     21.0835E-03
            4916            5083     21.0270E-03     21.0835E-03
            4900            5084     19.4245E-03     19.5328E-03
            4899            5084     19.4245E-03     19.5328E-03
            4918            5084     19.4245E-03     19.5328E-03
            4917            5084     19.4245E-03     19.5328E-03
            4901            5085     18.0346E-03     18.1782E-03
            4919            5085     18.0346E-03     18.1782E-03
            4918            5085     18.0346E-03     18.1782E-03
            4900            5085     18.0346E-03     18.1782E-03
            4919            5086     16.8870E-03     16.8767E-03
            4920            5086     16.8870E-03     16.8767E-03
            4901            5086     16.8870E-03     16.8767E-03
            4902            5086     16.8870E-03     16.8767E-03
            4920            5087     15.8499E-03     15.5284E-03
            4903            5087     15.8499E-03     15.5284E-03
            4921            5087     15.8499E-03     15.5284E-03
            4902            5087     15.8499E-03     15.5284E-03
            4922            5088     14.8673E-03     14.2347E-03
            4921            5088     14.8673E-03     14.2347E-03
            4904            5088     14.8673E-03     14.2347E-03
            4903            5088     14.8673E-03     14.2347E-03
            4905            5089     31.3314E-03     31.4881E-03
            4923            5089     31.3314E-03     31.4881E-03
            4906            5089     31.3314E-03     31.4881E-03
            4924            5089     31.3314E-03     31.4881E-03
            4906            5090     31.8788E-03     32.4101E-03
            4924            5090     31.8788E-03     32.4101E-03
            4907            5090     31.8788E-03     32.4101E-03
            4925            5090     31.8788E-03     32.4101E-03
            4925            5091     33.4791E-03     33.7231E-03
            4907            5091     33.4791E-03     33.7231E-03
            4908            5091     33.4791E-03     33.7231E-03
            4926            5091     33.4791E-03     33.7231E-03
            4908            5092     34.0620E-03     33.9830E-03
            4909            5092     34.0620E-03     33.9830E-03
            4926            5092     34.0620E-03     33.9830E-03
            4927            5092     34.0620E-03     33.9830E-03
            4928            5093     33.5140E-03     33.2554E-03
            4927            5093     33.5140E-03     33.2554E-03
            4910            5093     33.5140E-03     33.2554E-03
            4909            5093     33.5140E-03     33.2554E-03
            4910            5094     32.2969E-03     31.9374E-03
            4929            5094     32.2969E-03     31.9374E-03
            4928            5094     32.2969E-03     31.9374E-03
            4911            5094     32.2969E-03     31.9374E-03
            4912            5095     30.6598E-03     30.2710E-03
            4930            5095     30.6598E-03     30.2710E-03
            4929            5095     30.6598E-03     30.2710E-03
            4911            5095     30.6598E-03     30.2710E-03
            4930            5096     28.8389E-03     28.4430E-03
            4912            5096     28.8389E-03     28.4430E-03
            4913            5096     28.8389E-03     28.4430E-03
            4931            5096     28.8389E-03     28.4430E-03
            4932            5097     26.9441E-03     26.5725E-03
            4914            5097     26.9441E-03     26.5725E-03
            4913            5097     26.9441E-03     26.5725E-03
            4931            5097     26.9441E-03     26.5725E-03
            4914            5098     25.0849E-03     24.7526E-03
            4933            5098     25.0849E-03     24.7526E-03
            4915            5098     25.0849E-03     24.7526E-03
            4932            5098     25.0849E-03     24.7526E-03
            4915            5099     23.3107E-03     23.0397E-03
            4934            5099     23.3107E-03     23.0397E-03
            4916            5099     23.3107E-03     23.0397E-03
            4933            5099     23.3107E-03     23.0397E-03
            4917            5100     21.6699E-03     21.4975E-03
            4934            5100     21.6699E-03     21.4975E-03
            4935            5100     21.6699E-03     21.4975E-03
            4916            5100     21.6699E-03     21.4975E-03
            4918            5101     20.1929E-03     20.1512E-03
            4935            5101     20.1929E-03     20.1512E-03
            4917            5101     20.1929E-03     20.1512E-03
            4936            5101     20.1929E-03     20.1512E-03
            4937            5102     18.8781E-03     19.0349E-03
            4936            5102     18.8781E-03     19.0349E-03
            4918            5102     18.8781E-03     19.0349E-03
            4919            5102     18.8781E-03     19.0349E-03
            4919            5103     17.7609E-03     18.1109E-03
            4937            5103     17.7609E-03     18.1109E-03
            4938            5103     17.7609E-03     18.1109E-03
            4920            5103     17.7609E-03     18.1109E-03
            4921            5104     16.8881E-03     16.9814E-03
            4938            5104     16.8881E-03     16.9814E-03
            4939            5104     16.8881E-03     16.9814E-03
            4920            5104     16.8881E-03     16.9814E-03
            4922            5105     15.9013E-03     15.4599E-03
            4940            5105     15.9013E-03     15.4599E-03
            4921            5105     15.9013E-03     15.4599E-03
            4939            5105     15.9013E-03     15.4599E-03
            4924            5106     25.7713E-03     25.7995E-03
            4941            5106     25.7713E-03     25.7995E-03
            4923            5106     25.7713E-03     25.7995E-03
            4942            5106     25.7713E-03     25.7995E-03
            4925            5107     28.6323E-03     28.4128E-03
            4942            5107     28.6323E-03     28.4128E-03
            4943            5107     28.6323E-03     28.4128E-03
            4924            5107     28.6323E-03     28.4128E-03
            4925            5108     31.4729E-03     30.7769E-03
            4944            5108     31.4729E-03     30.7769E-03
            4943            5108     31.4729E-03     30.7769E-03
            4926            5108     31.4729E-03     30.7769E-03
            4927            5109     32.3519E-03     31.4705E-03
            4926            5109     32.3519E-03     31.4705E-03
            4944            5109     32.3519E-03     31.4705E-03
            4945            5109     32.3519E-03     31.4705E-03
            4946            5110     32.1523E-03     31.2312E-03
            4928            5110     32.1523E-03     31.2312E-03
            4945            5110     32.1523E-03     31.2312E-03
            4927            5110     32.1523E-03     31.2312E-03
            4929            5111     31.2759E-03     30.3727E-03
            4928            5111     31.2759E-03     30.3727E-03
            4947            5111     31.2759E-03     30.3727E-03
            4946            5111     31.2759E-03     30.3727E-03
            4947            5112     30.0066E-03     29.1505E-03
            4930            5112     30.0066E-03     29.1505E-03
            4929            5112     30.0066E-03     29.1505E-03
            4948            5112     30.0066E-03     29.1505E-03
            4949            5113     28.5191E-03     27.7276E-03
            4948            5113     28.5191E-03     27.7276E-03
            4931            5113     28.5191E-03     27.7276E-03
            4930            5113     28.5191E-03     27.7276E-03
            4949            5114     26.9429E-03     26.2189E-03
            4950            5114     26.9429E-03     26.2189E-03
            4931            5114     26.9429E-03     26.2189E-03
            4932            5114     26.9429E-03     26.2189E-03
            4933            5115     25.3510E-03     24.7084E-03
            4932            5115     25.3510E-03     24.7084E-03
            4951            5115     25.3510E-03     24.7084E-03
            4950            5115     25.3510E-03     24.7084E-03
            4951            5116     23.8132E-03     23.2659E-03
            4934            5116     23.8132E-03     23.2659E-03
            4933            5116     23.8132E-03     23.2659E-03
            4952            5116     23.8132E-03     23.2659E-03
            4953            5117     22.3616E-03     21.9376E-03
            4934            5117     22.3616E-03     21.9376E-03
            4935            5117     22.3616E-03     21.9376E-03
            4952            5117     22.3616E-03     21.9376E-03
            4953            5118     21.0264E-03     20.7885E-03
            4954            5118     21.0264E-03     20.7885E-03
            4935            5118     21.0264E-03     20.7885E-03
            4936            5118     21.0264E-03     20.7885E-03
            4937            5119     19.8181E-03     19.8327E-03
            4955            5119     19.8181E-03     19.8327E-03
            4954            5119     19.8181E-03     19.8327E-03
            4936            5119     19.8181E-03     19.8327E-03
            4955            5120     18.6809E-03     19.1616E-03
            4937            5120     18.6809E-03     19.1616E-03
            4938            5120     18.6809E-03     19.1616E-03
            4956            5120     18.6809E-03     19.1616E-03
            4956            5121     17.6813E-03     18.6488E-03
            4957            5121     17.6813E-03     18.6488E-03
            4939            5121     17.6813E-03     18.6488E-03
            4938            5121     17.6813E-03     18.6488E-03
            4957            5122     16.9214E-03     17.4252E-03
            4958            5122     16.9214E-03     17.4252E-03
            4940            5122     16.9214E-03     17.4252E-03
            4939            5122     16.9214E-03     17.4252E-03
            4941            5123     21.0993E-03     19.3941E-03
            4960            5123     21.0993E-03     19.3941E-03
            4959            5123     21.0993E-03     19.3941E-03
            4942            5123     21.0993E-03     19.3941E-03
            4961            5124     26.3010E-03     24.2249E-03
            4943            5124     26.3010E-03     24.2249E-03
            4942            5124     26.3010E-03     24.2249E-03
            4960            5124     26.3010E-03     24.2249E-03
            4944            5125     29.1513E-03     27.1597E-03
            4943            5125     29.1513E-03     27.1597E-03
            4962            5125     29.1513E-03     27.1597E-03
            4961            5125     29.1513E-03     27.1597E-03
            4963            5126     30.2519E-03     28.4783E-03
            4944            5126     30.2519E-03     28.4783E-03
            4962            5126     30.2519E-03     28.4783E-03
            4945            5126     30.2519E-03     28.4783E-03
            4963            5127     30.4560E-03     28.8680E-03
            4964            5127     30.4560E-03     28.8680E-03
            4946            5127     30.4560E-03     28.8680E-03
            4945            5127     30.4560E-03     28.8680E-03
            4964            5128     30.0323E-03     28.6186E-03
            4947            5128     30.0323E-03     28.6186E-03
            4946            5128     30.0323E-03     28.6186E-03
            4965            5128     30.0323E-03     28.6186E-03
            4947            5129     29.2317E-03     27.9662E-03
            4965            5129     29.2317E-03     27.9662E-03
            4948            5129     29.2317E-03     27.9662E-03
            4966            5129     29.2317E-03     27.9662E-03
            4966            5130     28.1795E-03     27.0404E-03
            4948            5130     28.1795E-03     27.0404E-03
            4967            5130     28.1795E-03     27.0404E-03
            4949            5130     28.1795E-03     27.0404E-03
            4967            5131     26.9821E-03     25.9654E-03
            4968            5131     26.9821E-03     25.9654E-03
            4950            5131     26.9821E-03     25.9654E-03
            4949            5131     26.9821E-03     25.9654E-03
            4968            5132     25.7212E-03     24.8148E-03
            4950            5132     25.7212E-03     24.8148E-03
            4969            5132     25.7212E-03     24.8148E-03
            4951            5132     25.7212E-03     24.8148E-03
            4970            5133     24.4448E-03     23.6605E-03
            4952            5133     24.4448E-03     23.6605E-03
            4969            5133     24.4448E-03     23.6605E-03
            4951            5133     24.4448E-03     23.6605E-03
            4971            5134     23.2118E-03     22.5540E-03
            4970            5134     23.2118E-03     22.5540E-03
            4953            5134     23.2118E-03     22.5540E-03
            4952            5134     23.2118E-03     22.5540E-03
            4971            5135     22.0297E-03     21.5403E-03
            4953            5135     22.0297E-03     21.5403E-03
            4972            5135     22.0297E-03     21.5403E-03
            4954            5135     22.0297E-03     21.5403E-03
            4954            5136     20.9354E-03     20.6725E-03
            4973            5136     20.9354E-03     20.6725E-03
            4955            5136     20.9354E-03     20.6725E-03
            4972            5136     20.9354E-03     20.6725E-03
            4956            5137     19.8663E-03     19.9648E-03
            4974            5137     19.8663E-03     19.9648E-03
            4955            5137     19.8663E-03     19.9648E-03
            4973            5137     19.8663E-03     19.9648E-03
            4957            5138     18.7348E-03     19.6518E-03
            4974            5138     18.7348E-03     19.6518E-03
            4956            5138     18.7348E-03     19.6518E-03
            4975            5138     18.7348E-03     19.6518E-03
            4958            5139     17.4760E-03     19.3715E-03
            4975            5139     17.4760E-03     19.3715E-03
            4957            5139     17.4760E-03     19.3715E-03
            4976            5139     17.4760E-03     19.3715E-03
            4978            5140     19.5457E-03     19.7359E-03
            4977            5140     19.5457E-03     19.7359E-03
            4960            5140     19.5457E-03     19.7359E-03
            4959            5140     19.5457E-03     19.7359E-03
            4960            5141     19.9503E-03     19.5497E-03
            4978            5141     19.9503E-03     19.5497E-03
            4979            5141     19.9503E-03     19.5497E-03
            4961            5141     19.9503E-03     19.5497E-03
            4962            5142     20.8246E-03     20.5435E-03
            4961            5142     20.8246E-03     20.5435E-03
            4979            5142     20.8246E-03     20.5435E-03
            4980            5142     20.8246E-03     20.5435E-03
            4963            5143     21.4827E-03     21.2995E-03
            4980            5143     21.4827E-03     21.2995E-03
            4981            5143     21.4827E-03     21.2995E-03
            4962            5143     21.4827E-03     21.2995E-03
            4963            5144     21.5825E-03     21.5063E-03
            4964            5144     21.5825E-03     21.5063E-03
            4982            5144     21.5825E-03     21.5063E-03
            4981            5144     21.5825E-03     21.5063E-03
            4983            5145     21.3956E-03     21.3859E-03
            4964            5145     21.3956E-03     21.3859E-03
            4982            5145     21.3956E-03     21.3859E-03
            4965            5145     21.3956E-03     21.3859E-03
            4984            5146     20.9750E-03     21.0112E-03
            4966            5146     20.9750E-03     21.0112E-03
            4965            5146     20.9750E-03     21.0112E-03
            4983            5146     20.9750E-03     21.0112E-03
            4984            5147     20.4480E-03     20.5024E-03
            4967            5147     20.4480E-03     20.5024E-03
            4985            5147     20.4480E-03     20.5024E-03
            4966            5147     20.4480E-03     20.5024E-03
            4986            5148     19.8439E-03     19.9012E-03
            4968            5148     19.8439E-03     19.9012E-03
            4967            5148     19.8439E-03     19.9012E-03
            4985            5148     19.8439E-03     19.9012E-03
            4969            5149     19.2179E-03     19.2662E-03
            4986            5149     19.2179E-03     19.2662E-03
            4987            5149     19.2179E-03     19.2662E-03
            4968            5149     19.2179E-03     19.2662E-03
            4988            5150     18.5903E-03     18.6230E-03
            4987            5150     18.5903E-03     18.6230E-03
            4969            5150     18.5903E-03     18.6230E-03
            4970            5150     18.5903E-03     18.6230E-03
            4971            5151     17.9884E-03     18.0060E-03
            4988            5151     17.9884E-03     18.0060E-03
            4989            5151     17.9884E-03     18.0060E-03
            4970            5151     17.9884E-03     18.0060E-03
            4989            5152     17.4120E-03     17.4133E-03
            4971            5152     17.4120E-03     17.4133E-03
            4990            5152     17.4120E-03     17.4133E-03
            4972            5152     17.4120E-03     17.4133E-03
            4991            5153     16.8846E-03     16.8880E-03
            4973            5153     16.8846E-03     16.8880E-03
            4972            5153     16.8846E-03     16.8880E-03
            4990            5153     16.8846E-03     16.8880E-03
            4974            5154     16.2989E-03     16.2875E-03
            4991            5154     16.2989E-03     16.2875E-03
            4973            5154     16.2989E-03     16.2875E-03
            4992            5154     16.2989E-03     16.2875E-03
            4975            5155     15.7354E-03     15.9412E-03
            4992            5155     15.7354E-03     15.9412E-03
            4974            5155     15.7354E-03     15.9412E-03
            4993            5155     15.7354E-03     15.9412E-03
            4975            5156     14.6710E-03     15.6336E-03
            4976            5156     14.6710E-03     15.6336E-03
            4994            5156     14.6710E-03     15.6336E-03
            4993            5156     14.6710E-03     15.6336E-03
            4996            5157     18.9560E-03     20.5274E-03
            4977            5157     18.9560E-03     20.5274E-03
            4995            5157     18.9560E-03     20.5274E-03
            4978            5157     18.9560E-03     20.5274E-03
            4997            5158     15.3544E-03     17.0111E-03
            4978            5158     15.3544E-03     17.0111E-03
            4996            5158     15.3544E-03     17.0111E-03
            4979            5158     15.3544E-03     17.0111E-03
            4997            5159     14.4725E-03     16.0975E-03
            4998            5159     14.4725E-03     16.0975E-03
            4979            5159     14.4725E-03     16.0975E-03
            4980            5159     14.4725E-03     16.0975E-03
            4998            5160     14.4218E-03     15.8282E-03
            4999            5160     14.4218E-03     15.8282E-03
            4980            5160     14.4218E-03     15.8282E-03
            4981            5160     14.4218E-03     15.8282E-03
            5000            5161     14.0698E-03     15.3903E-03
            4981            5161     14.0698E-03     15.3903E-03
            4982            5161     14.0698E-03     15.3903E-03
            4999            5161     14.0698E-03     15.3903E-03
            4983            5162     13.7549E-03     14.9966E-03
            5001            5162     13.7549E-03     14.9966E-03
            5000            5162     13.7549E-03     14.9966E-03
            4982            5162     13.7549E-03     14.9966E-03
            5002            5163     13.4432E-03     14.5954E-03
            4983            5163     13.4432E-03     14.5954E-03
            5001            5163     13.4432E-03     14.5954E-03
            4984            5163     13.4432E-03     14.5954E-03
            4984            5164     13.1711E-03     14.2363E-03
            5003            5164     13.1711E-03     14.2363E-03
            5002            5164     13.1711E-03     14.2363E-03
            4985            5164     13.1711E-03     14.2363E-03
            5004            5165     12.9500E-03     13.9037E-03
            4985            5165     12.9500E-03     13.9037E-03
            5003            5165     12.9500E-03     13.9037E-03
            4986            5165     12.9500E-03     13.9037E-03
            4986            5166     12.7687E-03     13.6165E-03
            4987            5166     12.7687E-03     13.6165E-03
            5005            5166     12.7687E-03     13.6165E-03
            5004            5166     12.7687E-03     13.6165E-03
            4988            5167     12.6360E-03     13.3598E-03
            4987            5167     12.6360E-03     13.3598E-03
            5006            5167     12.6360E-03     13.3598E-03
            5005            5167     12.6360E-03     13.3598E-03
            4988            5168     12.5453E-03     13.1501E-03
            5006            5168     12.5453E-03     13.1501E-03
            4989            5168     12.5453E-03     13.1501E-03
            5007            5168     12.5453E-03     13.1501E-03
            4989            5169     12.4889E-03     12.9625E-03
            5008            5169     12.4889E-03     12.9625E-03
            4990            5169     12.4889E-03     12.9625E-03
            5007            5169     12.4889E-03     12.9625E-03
            4991            5170     12.4764E-03     12.8144E-03
            5008            5170     12.4764E-03     12.8144E-03
            5009            5170     12.4764E-03     12.8144E-03
            4990            5170     12.4764E-03     12.8144E-03
            5010            5171     12.3967E-03     12.5418E-03
            5009            5171     12.3967E-03     12.5418E-03
            4991            5171     12.3967E-03     12.5418E-03
            4992            5171     12.3967E-03     12.5418E-03
            4992            5172     12.2551E-03     12.2402E-03
            5011            5172     12.2551E-03     12.2402E-03
            4993            5172     12.2551E-03     12.2402E-03
            5010            5172     12.2551E-03     12.2402E-03
            4994            5173     11.6487E-03     11.4455E-03
            4993            5173     11.6487E-03     11.4455E-03
            5012            5173     11.6487E-03     11.4455E-03
            5011            5173     11.6487E-03     11.4455E-03
            4995            5174     14.8222E-03     14.9444E-03
            5013            5174     14.8222E-03     14.9444E-03
            4996            5174     14.8222E-03     14.9444E-03
            5014            5174     14.8222E-03     14.9444E-03
            5015            5175     15.4651E-03     16.2017E-03
            4996            5175     15.4651E-03     16.2017E-03
            4997            5175     15.4651E-03     16.2017E-03
            5014            5175     15.4651E-03     16.2017E-03
            4997            5176     15.7940E-03     16.3393E-03
            5015            5176     15.7940E-03     16.3393E-03
            5016            5176     15.7940E-03     16.3393E-03
            4998            5176     15.7940E-03     16.3393E-03
            4999            5177     15.3648E-03     15.8858E-03
            4998            5177     15.3648E-03     15.8858E-03
            5016            5177     15.3648E-03     15.8858E-03
            5017            5177     15.3648E-03     15.8858E-03
            5017            5178     14.8772E-03     15.3659E-03
            4999            5178     14.8772E-03     15.3659E-03
            5018            5178     14.8772E-03     15.3659E-03
            5000            5178     14.8772E-03     15.3659E-03
            5000            5179     14.4322E-03     14.8947E-03
            5018            5179     14.4322E-03     14.8947E-03
            5001            5179     14.4322E-03     14.8947E-03
            5019            5179     14.4322E-03     14.8947E-03
            5020            5180     14.0816E-03     14.5125E-03
            5001            5180     14.0816E-03     14.5125E-03
            5019            5180     14.0816E-03     14.5125E-03
            5002            5180     14.0816E-03     14.5125E-03
            5003            5181     13.7900E-03     14.1821E-03
            5021            5181     13.7900E-03     14.1821E-03
            5002            5181     13.7900E-03     14.1821E-03
            5020            5181     13.7900E-03     14.1821E-03
            5004            5182     13.5466E-03     13.9033E-03
            5003            5182     13.5466E-03     13.9033E-03
            5022            5182     13.5466E-03     13.9033E-03
            5021            5182     13.5466E-03     13.9033E-03
            5022            5183     13.3441E-03     13.6565E-03
            5005            5183     13.3441E-03     13.6565E-03
            5004            5183     13.3441E-03     13.6565E-03
            5023            5183     13.3441E-03     13.6565E-03
            5005            5184     13.1811E-03     13.4521E-03
            5023            5184     13.1811E-03     13.4521E-03
            5006            5184     13.1811E-03     13.4521E-03
            5024            5184     13.1811E-03     13.4521E-03
            5006            5185     13.0601E-03     13.2836E-03
            5025            5185     13.0601E-03     13.2836E-03
            5007            5185     13.0601E-03     13.2836E-03
            5024            5185     13.0601E-03     13.2836E-03
            5007            5186     12.9971E-03     13.1719E-03
            5025            5186     12.9971E-03     13.1719E-03
            5008            5186     12.9971E-03     13.1719E-03
            5026            5186     12.9971E-03     13.1719E-03
            5027            5187     12.9613E-03     13.0945E-03
            5008            5187     12.9613E-03     13.0945E-03
            5026            5187     12.9613E-03     13.0945E-03
            5009            5187     12.9613E-03     13.0945E-03
            5010            5188     12.9499E-03     13.0697E-03
            5009            5188     12.9499E-03     13.0697E-03
            5028            5188     12.9499E-03     13.0697E-03
            5027            5188     12.9499E-03     13.0697E-03
            5011            5189     12.7670E-03     12.5899E-03
            5028            5189     12.7670E-03     12.5899E-03
            5010            5189     12.7670E-03     12.5899E-03
            5029            5189     12.7670E-03     12.5899E-03
            5030            5190     11.7419E-03     10.8780E-03
            5029            5190     11.7419E-03     10.8780E-03
            5011            5190     11.7419E-03     10.8780E-03
            5012            5190     11.7419E-03     10.8780E-03
            5013            5191     9.40990E-03     9.98494E-03
            5032            5191     9.40990E-03     9.98494E-03
            5031            5191     9.40990E-03     9.98494E-03
            5014            5191     9.40990E-03     9.98494E-03
            5014            5192     14.3386E-03     14.3197E-03
            5032            5192     14.3386E-03     14.3197E-03
            5033            5192     14.3386E-03     14.3197E-03
            5015            5192     14.3386E-03     14.3197E-03
            5015            5193     16.2417E-03     15.7874E-03
            5016            5193     16.2417E-03     15.7874E-03
            5034            5193     16.2417E-03     15.7874E-03
            5033            5193     16.2417E-03     15.7874E-03
            5016            5194     15.8850E-03     15.5054E-03
            5035            5194     15.8850E-03     15.5054E-03
            5034            5194     15.8850E-03     15.5054E-03
            5017            5194     15.8850E-03     15.5054E-03
            5017            5195     15.4556E-03     15.1272E-03
            5035            5195     15.4556E-03     15.1272E-03
            5018            5195     15.4556E-03     15.1272E-03
            5036            5195     15.4556E-03     15.1272E-03
            5036            5196     15.0369E-03     14.7291E-03
            5019            5196     15.0369E-03     14.7291E-03
            5037            5196     15.0369E-03     14.7291E-03
            5018            5196     15.0369E-03     14.7291E-03
            5037            5197     14.6964E-03     14.4150E-03
            5038            5197     14.6964E-03     14.4150E-03
            5020            5197     14.6964E-03     14.4150E-03
            5019            5197     14.6964E-03     14.4150E-03
            5039            5198     14.4123E-03     14.1578E-03
            5038            5198     14.4123E-03     14.1578E-03
            5020            5198     14.4123E-03     14.1578E-03
            5021            5198     14.4123E-03     14.1578E-03
            5021            5199     14.1608E-03     13.9351E-03
            5040            5199     14.1608E-03     13.9351E-03
            5039            5199     14.1608E-03     13.9351E-03
            5022            5199     14.1608E-03     13.9351E-03
            5022            5200     13.9426E-03     13.7450E-03
            5041            5200     13.9426E-03     13.7450E-03
            5040            5200     13.9426E-03     13.7450E-03
            5023            5200     13.9426E-03     13.7450E-03
            5023            5201     13.7504E-03     13.5838E-03
            5041            5201     13.7504E-03     13.5838E-03
            5042            5201     13.7504E-03     13.5838E-03
            5024            5201     13.7504E-03     13.5838E-03
            5025            5202     13.5941E-03     13.4560E-03
            5042            5202     13.5941E-03     13.4560E-03
            5024            5202     13.5941E-03     13.4560E-03
            5043            5202     13.5941E-03     13.4560E-03
            5025            5203     13.4769E-03     13.3726E-03
            5044            5203     13.4769E-03     13.3726E-03
            5026            5203     13.4769E-03     13.3726E-03
            5043            5203     13.4769E-03     13.3726E-03
            5045            5204     13.3876E-03     13.3217E-03
            5027            5204     13.3876E-03     13.3217E-03
            5026            5204     13.3876E-03     13.3217E-03
            5044            5204     13.3876E-03     13.3217E-03
            5027            5205     13.2844E-03     13.3082E-03
            5028            5205     13.2844E-03     13.3082E-03
            5046            5205     13.2844E-03     13.3082E-03
            5045            5205     13.2844E-03     13.3082E-03
            5028            5206     12.9684E-03     12.8508E-03
            5046            5206     12.9684E-03     12.8508E-03
            5047            5206     12.9684E-03     12.8508E-03
            5029            5206     12.9684E-03     12.8508E-03
            5048            5207     11.9344E-03     11.1552E-03
            5047            5207     11.9344E-03     11.1552E-03
            5029            5207     11.9344E-03     11.1552E-03
            5030            5207     11.9344E-03     11.1552E-03
            5049            5208     7.52243E-03     8.03598E-03
            5031            5208     7.52243E-03     8.03598E-03
            5050            5208     7.52243E-03     8.03598E-03
            5032            5208     7.52243E-03     8.03598E-03
            5050            5209     13.1957E-03     11.7990E-03
            5051            5209     13.1957E-03     11.7990E-03
            5032            5209     13.1957E-03     11.7990E-03
            5033            5209     13.1957E-03     11.7990E-03
            5034            5210     15.2871E-03     13.9748E-03
            5051            5210     15.2871E-03     13.9748E-03
            5052            5210     15.2871E-03     13.9748E-03
            5033            5210     15.2871E-03     13.9748E-03
            5052            5211     15.9062E-03     14.6401E-03
            5034            5211     15.9062E-03     14.6401E-03
            5053            5211     15.9062E-03     14.6401E-03
            5035            5211     15.9062E-03     14.6401E-03
            5053            5212     15.7951E-03     14.6506E-03
            5035            5212     15.7951E-03     14.6506E-03
            5036            5212     15.7951E-03     14.6506E-03
            5054            5212     15.7951E-03     14.6506E-03
            5037            5213     15.5780E-03     14.5171E-03
            5054            5213     15.5780E-03     14.5171E-03
            5055            5213     15.5780E-03     14.5171E-03
            5036            5213     15.5780E-03     14.5171E-03
            5055            5214     15.3144E-03     14.3486E-03
            5037            5214     15.3144E-03     14.3486E-03
            5056            5214     15.3144E-03     14.3486E-03
            5038            5214     15.3144E-03     14.3486E-03
            5039            5215     15.0535E-03     14.1821E-03
            5038            5215     15.0535E-03     14.1821E-03
            5057            5215     15.0535E-03     14.1821E-03
            5056            5215     15.0535E-03     14.1821E-03
            5057            5216     14.8088E-03     14.0272E-03
            5058            5216     14.8088E-03     14.0272E-03
            5040            5216     14.8088E-03     14.0272E-03
            5039            5216     14.8088E-03     14.0272E-03
            5040            5217     14.5727E-03     13.8922E-03
            5059            5217     14.5727E-03     13.8922E-03
            5041            5217     14.5727E-03     13.8922E-03
            5058            5217     14.5727E-03     13.8922E-03
            5059            5218     14.3570E-03     13.7732E-03
            5060            5218     14.3570E-03     13.7732E-03
            5041            5218     14.3570E-03     13.7732E-03
            5042            5218     14.3570E-03     13.7732E-03
            5060            5219     14.1544E-03     13.6777E-03
            5042            5219     14.1544E-03     13.6777E-03
            5061            5219     14.1544E-03     13.6777E-03
            5043            5219     14.1544E-03     13.6777E-03
            5043            5220     13.9587E-03     13.5871E-03
            5061            5220     13.9587E-03     13.5871E-03
            5062            5220     13.9587E-03     13.5871E-03
            5044            5220     13.9587E-03     13.5871E-03
            5044            5221     13.7721E-03     13.5111E-03
            5045            5221     13.7721E-03     13.5111E-03
            5063            5221     13.7721E-03     13.5111E-03
            5062            5221     13.7721E-03     13.5111E-03
            5045            5222     13.4727E-03     13.2954E-03
            5063            5222     13.4727E-03     13.2954E-03
            5064            5222     13.4727E-03     13.2954E-03
            5046            5222     13.4727E-03     13.2954E-03
            5047            5223     13.0112E-03     13.0248E-03
            5065            5223     13.0112E-03     13.0248E-03
            5064            5223     13.0112E-03     13.0248E-03
            5046            5223     13.0112E-03     13.0248E-03
            5066            5224     12.0029E-03     12.2185E-03
            5065            5224     12.0029E-03     12.2185E-03
            5047            5224     12.0029E-03     12.2185E-03
            5048            5224     12.0029E-03     12.2185E-03
            5175            5310     189.790E-03     192.855E-03
            5194            5310     189.790E-03     192.855E-03
            5176            5310     189.790E-03     192.855E-03
            5193            5310     189.790E-03     192.855E-03
            5194            5311     168.760E-03     173.612E-03
            5176            5311     168.760E-03     173.612E-03
            5177            5311     168.760E-03     173.612E-03
            5195            5311     168.760E-03     173.612E-03
            5177            5312     153.686E-03     158.938E-03
            5196            5312     153.686E-03     158.938E-03
            5178            5312     153.686E-03     158.938E-03
            5195            5312     153.686E-03     158.938E-03
            5197            5313     141.482E-03     146.846E-03
            5179            5313     141.482E-03     146.846E-03
            5196            5313     141.482E-03     146.846E-03
            5178            5313     141.482E-03     146.846E-03
            5198            5314     129.482E-03     135.118E-03
            5180            5314     129.482E-03     135.118E-03
            5197            5314     129.482E-03     135.118E-03
            5179            5314     129.482E-03     135.118E-03
            5181            5315     117.889E-03     123.683E-03
            5199            5315     117.889E-03     123.683E-03
            5180            5315     117.889E-03     123.683E-03
            5198            5315     117.889E-03     123.683E-03
            5182            5316     106.273E-03     112.196E-03
            5199            5316     106.273E-03     112.196E-03
            5181            5316     106.273E-03     112.196E-03
            5200            5316     106.273E-03     112.196E-03
            5182            5317     94.7075E-03     100.753E-03
            5183            5317     94.7075E-03     100.753E-03
            5200            5317     94.7075E-03     100.753E-03
            5201            5317     94.7075E-03     100.753E-03
            5201            5318     83.1635E-03     89.2970E-03
            5183            5318     83.1635E-03     89.2970E-03
            5184            5318     83.1635E-03     89.2970E-03
            5202            5318     83.1635E-03     89.2970E-03
            5203            5319     71.6811E-03     77.9115E-03
            5202            5319     71.6811E-03     77.9115E-03
            5184            5319     71.6811E-03     77.9115E-03
            5185            5319     71.6811E-03     77.9115E-03
            5185            5320     60.3266E-03     66.6233E-03
            5204            5320     60.3266E-03     66.6233E-03
            5203            5320     60.3266E-03     66.6233E-03
            5186            5320     60.3266E-03     66.6233E-03
            5204            5321     49.1952E-03     55.5192E-03
            5187            5321     49.1952E-03     55.5192E-03
            5205            5321     49.1952E-03     55.5192E-03
            5186            5321     49.1952E-03     55.5192E-03
            5187            5322     38.5102E-03     44.7243E-03
            5188            5322     38.5102E-03     44.7243E-03
            5205            5322     38.5102E-03     44.7243E-03
            5206            5322     38.5102E-03     44.7243E-03
            5189            5323     28.7983E-03     34.4620E-03
            5188            5323     28.7983E-03     34.4620E-03
            5206            5323     28.7983E-03     34.4620E-03
            5207            5323     28.7983E-03     34.4620E-03
            5189            5324     21.2560E-03     25.1000E-03
            5208            5324     21.2560E-03     25.1000E-03
            5190            5324     21.2560E-03     25.1000E-03
            5207            5324     21.2560E-03     25.1000E-03
            5191            5325     19.6653E-03     19.4851E-03
            5208            5325     19.6653E-03     19.4851E-03
            5190            5325     19.6653E-03     19.4851E-03
            5209            5325     19.6653E-03     19.4851E-03
            5192            5326     25.2679E-03     21.0601E-03
            5210            5326     25.2679E-03     21.0601E-03
            5209            5326     25.2679E-03     21.0601E-03
            5191            5326     25.2679E-03     21.0601E-03
            5194            5327     189.275E-03     190.356E-03
            5193            5327     189.275E-03     190.356E-03
            5211            5327     189.275E-03     190.356E-03
            5212            5327     189.275E-03     190.356E-03
            5194            5328     174.095E-03     177.803E-03
            5195            5328     174.095E-03     177.803E-03
            5213            5328     174.095E-03     177.803E-03
            5212            5328     174.095E-03     177.803E-03
            5196            5329     158.255E-03     162.777E-03
            5213            5329     158.255E-03     162.777E-03
            5214            5329     158.255E-03     162.777E-03
            5195            5329     158.255E-03     162.777E-03
            5196            5330     145.262E-03     149.707E-03
            5197            5330     145.262E-03     149.707E-03
            5214            5330     145.262E-03     149.707E-03
            5215            5330     145.262E-03     149.707E-03
            5198            5331     132.936E-03     137.222E-03
            5216            5331     132.936E-03     137.222E-03
            5215            5331     132.936E-03     137.222E-03
            5197            5331     132.936E-03     137.222E-03
            5199            5332     120.931E-03     125.185E-03
            5216            5332     120.931E-03     125.185E-03
            5217            5332     120.931E-03     125.185E-03
            5198            5332     120.931E-03     125.185E-03
            5217            5333     109.107E-03     113.361E-03
            5218            5333     109.107E-03     113.361E-03
            5200            5333     109.107E-03     113.361E-03
            5199            5333     109.107E-03     113.361E-03
            5200            5334     97.3966E-03     101.681E-03
            5219            5334     97.3966E-03     101.681E-03
            5218            5334     97.3966E-03     101.681E-03
            5201            5334     97.3966E-03     101.681E-03
            5201            5335     85.8226E-03     90.1443E-03
            5202            5335     85.8226E-03     90.1443E-03
            5219            5335     85.8226E-03     90.1443E-03
            5220            5335     85.8226E-03     90.1443E-03
            5203            5336     74.4092E-03     78.7452E-03
            5220            5336     74.4092E-03     78.7452E-03
            5221            5336     74.4092E-03     78.7452E-03
            5202            5336     74.4092E-03     78.7452E-03
            5221            5337     63.2246E-03     67.5551E-03
            5203            5337     63.2246E-03     67.5551E-03
            5204            5337     63.2246E-03     67.5551E-03
            5222            5337     63.2246E-03     67.5551E-03
            5204            5338     52.4071E-03     56.6604E-03
            5205            5338     52.4071E-03     56.6604E-03
            5222            5338     52.4071E-03     56.6604E-03
            5223            5338     52.4071E-03     56.6604E-03
            5205            5339     42.2456E-03     46.3011E-03
            5206            5339     42.2456E-03     46.3011E-03
            5223            5339     42.2456E-03     46.3011E-03
            5224            5339     42.2456E-03     46.3011E-03
            5224            5340     33.2404E-03     36.7883E-03
            5225            5340     33.2404E-03     36.7883E-03
            5206            5340     33.2404E-03     36.7883E-03
            5207            5340     33.2404E-03     36.7883E-03
            5207            5341     26.9782E-03     28.9769E-03
            5226            5341     26.9782E-03     28.9769E-03
            5208            5341     26.9782E-03     28.9769E-03
            5225            5341     26.9782E-03     28.9769E-03
            5209            5342     24.6794E-03     23.6325E-03
            5227            5342     24.6794E-03     23.6325E-03
            5226            5342     24.6794E-03     23.6325E-03
            5208            5342     24.6794E-03     23.6325E-03
            5227            5343     25.6067E-03     21.4305E-03
            5209            5343     25.6067E-03     21.4305E-03
            5210            5343     25.6067E-03     21.4305E-03
            5228            5343     25.6067E-03     21.4305E-03
            5211            5344     181.975E-03     186.020E-03
            5212            5344     181.975E-03     186.020E-03
            5229            5344     181.975E-03     186.020E-03
            5230            5344     181.975E-03     186.020E-03
            5230            5345     172.964E-03     176.034E-03
            5213            5345     172.964E-03     176.034E-03
            5212            5345     172.964E-03     176.034E-03
            5231            5345     172.964E-03     176.034E-03
            5231            5346     160.260E-03     163.342E-03
            5214            5346     160.260E-03     163.342E-03
            5213            5346     160.260E-03     163.342E-03
            5232            5346     160.260E-03     163.342E-03
            5215            5347     147.050E-03     150.177E-03
            5233            5347     147.050E-03     150.177E-03
            5232            5347     147.050E-03     150.177E-03
            5214            5347     147.050E-03     150.177E-03
            5234            5348     135.004E-03     137.791E-03
            5215            5348     135.004E-03     137.791E-03
            5216            5348     135.004E-03     137.791E-03
            5233            5348     135.004E-03     137.791E-03
            5234            5349     123.031E-03     125.687E-03
            5235            5349     123.031E-03     125.687E-03
            5217            5349     123.031E-03     125.687E-03
            5216            5349     123.031E-03     125.687E-03
            5235            5350     111.332E-03     113.921E-03
            5236            5350     111.332E-03     113.921E-03
            5218            5350     111.332E-03     113.921E-03
            5217            5350     111.332E-03     113.921E-03
            5218            5351     99.7849E-03     102.349E-03
            5237            5351     99.7849E-03     102.349E-03
            5236            5351     99.7849E-03     102.349E-03
            5219            5351     99.7849E-03     102.349E-03
            5220            5352     88.4250E-03     90.9637E-03
            5219            5352     88.4250E-03     90.9637E-03
            5237            5352     88.4250E-03     90.9637E-03
            5238            5352     88.4250E-03     90.9637E-03
            5238            5353     77.2735E-03     79.7869E-03
            5239            5353     77.2735E-03     79.7869E-03
            5220            5353     77.2735E-03     79.7869E-03
            5221            5353     77.2735E-03     79.7869E-03
            5239            5354     66.4114E-03     68.8574E-03
            5240            5354     66.4114E-03     68.8574E-03
            5221            5354     66.4114E-03     68.8574E-03
            5222            5354     66.4114E-03     68.8574E-03
            5240            5355     55.9907E-03     58.3443E-03
            5241            5355     55.9907E-03     58.3443E-03
            5223            5355     55.9907E-03     58.3443E-03
            5222            5355     55.9907E-03     58.3443E-03
            5241            5356     46.2768E-03     48.4523E-03
            5224            5356     46.2768E-03     48.4523E-03
            5223            5356     46.2768E-03     48.4523E-03
            5242            5356     46.2768E-03     48.4523E-03
            5225            5357     37.8376E-03     39.7472E-03
            5224            5357     37.8376E-03     39.7472E-03
            5242            5357     37.8376E-03     39.7472E-03
            5243            5357     37.8376E-03     39.7472E-03
            5244            5358     31.5670E-03     32.8881E-03
            5225            5358     31.5670E-03     32.8881E-03
            5243            5358     31.5670E-03     32.8881E-03
            5226            5358     31.5670E-03     32.8881E-03
            5226            5359     28.2233E-03     27.6013E-03
            5245            5359     28.2233E-03     27.6013E-03
            5227            5359     28.2233E-03     27.6013E-03
            5244            5359     28.2233E-03     27.6013E-03
            5246            5360     27.2097E-03     23.9496E-03
            5245            5360     27.2097E-03     23.9496E-03
            5227            5360     27.2097E-03     23.9496E-03
            5228            5360     27.2097E-03     23.9496E-03
            5248            5361     174.905E-03     175.935E-03
            5230            5361     174.905E-03     175.935E-03
            5247            5361     174.905E-03     175.935E-03
            5229            5361     174.905E-03     175.935E-03
            5248            5362     167.611E-03     169.871E-03
            5249            5362     167.611E-03     169.871E-03
            5230            5362     167.611E-03     169.871E-03
            5231            5362     167.611E-03     169.871E-03
            5232            5363     157.766E-03     159.422E-03
            5250            5363     157.766E-03     159.422E-03
            5231            5363     157.766E-03     159.422E-03
            5249            5363     157.766E-03     159.422E-03
            5250            5364     146.805E-03     148.000E-03
            5232            5364     146.805E-03     148.000E-03
            5251            5364     146.805E-03     148.000E-03
            5233            5364     146.805E-03     148.000E-03
            5251            5365     135.344E-03     136.453E-03
            5233            5365     135.344E-03     136.453E-03
            5252            5365     135.344E-03     136.453E-03
            5234            5365     135.344E-03     136.453E-03
            5252            5366     124.127E-03     125.095E-03
            5253            5366     124.127E-03     125.095E-03
            5235            5366     124.127E-03     125.095E-03
            5234            5366     124.127E-03     125.095E-03
            5254            5367     112.925E-03     113.846E-03
            5235            5367     112.925E-03     113.846E-03
            5253            5367     112.925E-03     113.846E-03
            5236            5367     112.925E-03     113.846E-03
            5255            5368     101.892E-03     102.747E-03
            5236            5368     101.892E-03     102.747E-03
            5254            5368     101.892E-03     102.747E-03
            5237            5368     101.892E-03     102.747E-03
            5256            5369     90.9931E-03     91.8074E-03
            5255            5369     90.9931E-03     91.8074E-03
            5238            5369     90.9931E-03     91.8074E-03
            5237            5369     90.9931E-03     91.8074E-03
            5239            5370     80.3029E-03     81.0534E-03
            5257            5370     80.3029E-03     81.0534E-03
            5238            5370     80.3029E-03     81.0534E-03
            5256            5370     80.3029E-03     81.0534E-03
            5239            5371     69.9023E-03     70.5948E-03
            5257            5371     69.9023E-03     70.5948E-03
            5240            5371     69.9023E-03     70.5948E-03
            5258            5371     69.9023E-03     70.5948E-03
            5240            5372     59.9388E-03     60.5467E-03
            5258            5372     59.9388E-03     60.5467E-03
            5241            5372     59.9388E-03     60.5467E-03
            5259            5372     59.9388E-03     60.5467E-03
            5242            5373     50.6705E-03     51.2266E-03
            5260            5373     50.6705E-03     51.2266E-03
            5241            5373     50.6705E-03     51.2266E-03
            5259            5373     50.6705E-03     51.2266E-03
            5261            5374     42.5153E-03     43.0489E-03
            5242            5374     42.5153E-03     43.0489E-03
            5243            5374     42.5153E-03     43.0489E-03
            5260            5374     42.5153E-03     43.0489E-03
            5244            5375     35.7877E-03     36.6381E-03
            5261            5375     35.7877E-03     36.6381E-03
            5243            5375     35.7877E-03     36.6381E-03
            5262            5375     35.7877E-03     36.6381E-03
            5262            5376     31.5713E-03     32.6196E-03
            5245            5376     31.5713E-03     32.6196E-03
            5244            5376     31.5713E-03     32.6196E-03
            5263            5376     31.5713E-03     32.6196E-03
            5263            5377     30.4177E-03     29.3170E-03
            5245            5377     30.4177E-03     29.3170E-03
            5264            5377     30.4177E-03     29.3170E-03
            5246            5377     30.4177E-03     29.3170E-03
            5266            5378     164.752E-03     164.073E-03
            5248            5378     164.752E-03     164.073E-03
            5265            5378     164.752E-03     164.073E-03
            5247            5378     164.752E-03     164.073E-03
            5266            5379     159.974E-03     159.410E-03
            5248            5379     159.974E-03     159.410E-03
            5267            5379     159.974E-03     159.410E-03
            5249            5379     159.974E-03     159.410E-03
            5267            5380     152.804E-03     152.112E-03
            5250            5380     152.804E-03     152.112E-03
            5268            5380     152.804E-03     152.112E-03
            5249            5380     152.804E-03     152.112E-03
            5268            5381     144.185E-03     143.417E-03
            5250            5381     144.185E-03     143.417E-03
            5251            5381     144.185E-03     143.417E-03
            5269            5381     144.185E-03     143.417E-03
            5252            5382     134.481E-03     133.744E-03
            5269            5382     134.481E-03     133.744E-03
            5251            5382     134.481E-03     133.744E-03
            5270            5382     134.481E-03     133.744E-03
            5270            5383     124.393E-03     123.704E-03
            5253            5383     124.393E-03     123.704E-03
            5252            5383     124.393E-03     123.704E-03
            5271            5383     124.393E-03     123.704E-03
            5253            5384     114.191E-03     113.428E-03
            5271            5384     114.191E-03     113.428E-03
            5254            5384     114.191E-03     113.428E-03
            5272            5384     114.191E-03     113.428E-03
            5272            5385     103.917E-03     103.117E-03
            5254            5385     103.917E-03     103.117E-03
            5273            5385     103.917E-03     103.117E-03
            5255            5385     103.917E-03     103.117E-03
            5273            5386     93.7099E-03     92.8359E-03
            5274            5386     93.7099E-03     92.8359E-03
            5256            5386     93.7099E-03     92.8359E-03
            5255            5386     93.7099E-03     92.8359E-03
            5275            5387     83.6362E-03     82.7139E-03
            5257            5387     83.6362E-03     82.7139E-03
            5274            5387     83.6362E-03     82.7139E-03
            5256            5387     83.6362E-03     82.7139E-03
            5276            5388     73.8076E-03     72.8553E-03
            5257            5388     73.8076E-03     72.8553E-03
            5275            5388     73.8076E-03     72.8553E-03
            5258            5388     73.8076E-03     72.8553E-03
            5277            5389     64.3924E-03     63.4431E-03
            5276            5389     64.3924E-03     63.4431E-03
            5259            5389     64.3924E-03     63.4431E-03
            5258            5389     64.3924E-03     63.4431E-03
            5260            5390     55.5770E-03     54.7080E-03
            5259            5390     55.5770E-03     54.7080E-03
            5277            5390     55.5770E-03     54.7080E-03
            5278            5390     55.5770E-03     54.7080E-03
            5260            5391     47.6318E-03     46.9698E-03
            5261            5391     47.6318E-03     46.9698E-03
            5278            5391     47.6318E-03     46.9698E-03
            5279            5391     47.6318E-03     46.9698E-03
            5262            5392     40.9065E-03     40.7707E-03
            5261            5392     40.9065E-03     40.7707E-03
            5280            5392     40.9065E-03     40.7707E-03
            5279            5392     40.9065E-03     40.7707E-03
            5280            5393     35.4286E-03     36.8586E-03
            5263            5393     35.4286E-03     36.8586E-03
            5262            5393     35.4286E-03     36.8586E-03
            5281            5393     35.4286E-03     36.8586E-03
            5281            5394     31.6259E-03     35.1248E-03
            5282            5394     31.6259E-03     35.1248E-03
            5263            5394     31.6259E-03     35.1248E-03
            5264            5394     31.6259E-03     35.1248E-03
            5757            5777     488.524E-06     524.295E-06
            5739            5777     488.524E-06     524.295E-06
            5758            5777     488.524E-06     524.295E-06
            5740            5777     488.524E-06     524.295E-06
            5740            5778     369.175E-06     410.445E-06
            5758            5778     369.175E-06     410.445E-06
            5759            5778     369.175E-06     410.445E-06
            5741            5778     369.175E-06     410.445E-06
            5759            5779     328.745E-06     369.229E-06
            5741            5779     328.745E-06     369.229E-06
            5760            5779     328.745E-06     369.229E-06
            5742            5779     328.745E-06     369.229E-06
            5761            5780     318.422E-06     356.975E-06
            5760            5780     318.422E-06     356.975E-06
            5743            5780     318.422E-06     356.975E-06
            5742            5780     318.422E-06     356.975E-06
            5761            5781     310.601E-06     347.027E-06
            5762            5781     310.601E-06     347.027E-06
            5743            5781     310.601E-06     347.027E-06
            5744            5781     310.601E-06     347.027E-06
            5745            5782     303.261E-06     338.404E-06
            5744            5782     303.261E-06     338.404E-06
            5763            5782     303.261E-06     338.404E-06
            5762            5782     303.261E-06     338.404E-06
            5763            5783     295.112E-06     329.009E-06
            5746            5783     295.112E-06     329.009E-06
            5764            5783     295.112E-06     329.009E-06
            5745            5783     295.112E-06     329.009E-06
            5746            5784     287.561E-06     320.089E-06
            5764            5784     287.561E-06     320.089E-06
            5747            5784     287.561E-06     320.089E-06
            5765            5784     287.561E-06     320.089E-06
            5748            5785     280.330E-06     311.222E-06
            5747            5785     280.330E-06     311.222E-06
            5765            5785     280.330E-06     311.222E-06
            5766            5785     280.330E-06     311.222E-06
            5749            5786     274.163E-06     303.082E-06
            5766            5786     274.163E-06     303.082E-06
            5767            5786     274.163E-06     303.082E-06
            5748            5786     274.163E-06     303.082E-06
            5768            5787     268.805E-06     295.484E-06
            5749            5787     268.805E-06     295.484E-06
            5750            5787     268.805E-06     295.484E-06
            5767            5787     268.805E-06     295.484E-06
            5751            5788     264.660E-06     288.554E-06
            5768            5788     264.660E-06     288.554E-06
            5769            5788     264.660E-06     288.554E-06
            5750            5788     264.660E-06     288.554E-06
            5770            5789     261.404E-06     282.389E-06
            5751            5789     261.404E-06     282.389E-06
            5752            5789     261.404E-06     282.389E-06
            5769            5789     261.404E-06     282.389E-06
            5753            5790     259.490E-06     276.635E-06
            5771            5790     259.490E-06     276.635E-06
            5770            5790     259.490E-06     276.635E-06
            5752            5790     259.490E-06     276.635E-06
            5771            5791     257.890E-06     271.378E-06
            5753            5791     257.890E-06     271.378E-06
            5772            5791     257.890E-06     271.378E-06
            5754            5791     257.890E-06     271.378E-06
            5772            5792     254.745E-06     270.690E-06
            5755            5792     254.745E-06     270.690E-06
            5754            5792     254.745E-06     270.690E-06
            5773            5792     254.745E-06     270.690E-06
            5755            5793     253.848E-06     270.947E-06
            5773            5793     253.848E-06     270.947E-06
            5774            5793     253.848E-06     270.947E-06
            5756            5793     253.848E-06     270.947E-06
            5775            5794     401.650E-06     405.809E-06
            5758            5794     401.650E-06     405.809E-06
            5776            5794     401.650E-06     405.809E-06
            5757            5794     401.650E-06     405.809E-06
            5776            5795     365.301E-06     382.338E-06
            5759            5795     365.301E-06     382.338E-06
            5777            5795     365.301E-06     382.338E-06
            5758            5795     365.301E-06     382.338E-06
            5778            5796     347.912E-06     370.832E-06
            5759            5796     347.912E-06     370.832E-06
            5760            5796     347.912E-06     370.832E-06
            5777            5796     347.912E-06     370.832E-06
            5779            5797     340.413E-06     362.998E-06
            5761            5797     340.413E-06     362.998E-06
            5778            5797     340.413E-06     362.998E-06
            5760            5797     340.413E-06     362.998E-06
            5762            5798     331.506E-06     351.992E-06
            5779            5798     331.506E-06     351.992E-06
            5780            5798     331.506E-06     351.992E-06
            5761            5798     331.506E-06     351.992E-06
            5763            5799     320.048E-06     340.542E-06
            5780            5799     320.048E-06     340.542E-06
            5781            5799     320.048E-06     340.542E-06
            5762            5799     320.048E-06     340.542E-06
            5782            5800     310.533E-06     330.047E-06
            5781            5800     310.533E-06     330.047E-06
            5764            5800     310.533E-06     330.047E-06
            5763            5800     310.533E-06     330.047E-06
            5782            5801     301.391E-06     320.336E-06
            5783            5801     301.391E-06     320.336E-06
            5764            5801     301.391E-06     320.336E-06
            5765            5801     301.391E-06     320.336E-06
            5766            5802     293.809E-06     311.836E-06
            5784            5802     293.809E-06     311.836E-06
            5783            5802     293.809E-06     311.836E-06
            5765            5802     293.809E-06     311.836E-06
            5767            5803     287.055E-06     304.055E-06
            5784            5803     287.055E-06     304.055E-06
            5785            5803     287.055E-06     304.055E-06
            5766            5803     287.055E-06     304.055E-06
            5768            5804     281.444E-06     297.284E-06
            5767            5804     281.444E-06     297.284E-06
            5786            5804     281.444E-06     297.284E-06
            5785            5804     281.444E-06     297.284E-06
            5787            5805     276.812E-06     291.164E-06
            5769            5805     276.812E-06     291.164E-06
            5768            5805     276.812E-06     291.164E-06
            5786            5805     276.812E-06     291.164E-06
            5788            5806     273.038E-06     286.124E-06
            5769            5806     273.038E-06     286.124E-06
            5770            5806     273.038E-06     286.124E-06
            5787            5806     273.038E-06     286.124E-06
            5788            5807     270.652E-06     281.678E-06
            5771            5807     270.652E-06     281.678E-06
            5789            5807     270.652E-06     281.678E-06
            5770            5807     270.652E-06     281.678E-06
            5772            5808     269.579E-06     277.877E-06
            5771            5808     269.579E-06     277.877E-06
            5789            5808     269.579E-06     277.877E-06
            5790            5808     269.579E-06     277.877E-06
            5773            5809     270.864E-06     273.371E-06
            5772            5809     270.864E-06     273.371E-06
            5791            5809     270.864E-06     273.371E-06
            5790            5809     270.864E-06     273.371E-06
            5791            5810     279.555E-06     264.570E-06
            5773            5810     279.555E-06     264.570E-06
            5792            5810     279.555E-06     264.570E-06
            5774            5810     279.555E-06     264.570E-06
            5794            5811     278.605E-06     288.392E-06
            5775            5811     278.605E-06     288.392E-06
            5793            5811     278.605E-06     288.392E-06
            5776            5811     278.605E-06     288.392E-06
            5776            5812     311.944E-06     328.248E-06
            5794            5812     311.944E-06     328.248E-06
            5795            5812     311.944E-06     328.248E-06
            5777            5812     311.944E-06     328.248E-06
            5777            5813     353.299E-06     361.834E-06
            5795            5813     353.299E-06     361.834E-06
            5796            5813     353.299E-06     361.834E-06
            5778            5813     353.299E-06     361.834E-06
            5779            5814     356.128E-06     360.576E-06
            5778            5814     356.128E-06     360.576E-06
            5797            5814     356.128E-06     360.576E-06
            5796            5814     356.128E-06     360.576E-06
            5780            5815     345.668E-06     351.269E-06
            5797            5815     345.668E-06     351.269E-06
            5798            5815     345.668E-06     351.269E-06
            5779            5815     345.668E-06     351.269E-06
            5780            5816     334.889E-06     339.574E-06
            5781            5816     334.889E-06     339.574E-06
            5799            5816     334.889E-06     339.574E-06
            5798            5816     334.889E-06     339.574E-06
            5781            5817     323.761E-06     328.884E-06
            5799            5817     323.761E-06     328.884E-06
            5800            5817     323.761E-06     328.884E-06
            5782            5817     323.761E-06     328.884E-06
            5800            5818     314.854E-06     319.725E-06
            5801            5818     314.854E-06     319.725E-06
            5783            5818     314.854E-06     319.725E-06
            5782            5818     314.854E-06     319.725E-06
            5802            5819     306.899E-06     311.772E-06
            5801            5819     306.899E-06     311.772E-06
            5783            5819     306.899E-06     311.772E-06
            5784            5819     306.899E-06     311.772E-06
            5784            5820     300.276E-06     305.071E-06
            5785            5820     300.276E-06     305.071E-06
            5802            5820     300.276E-06     305.071E-06
            5803            5820     300.276E-06     305.071E-06
            5804            5821     294.518E-06     299.108E-06
            5785            5821     294.518E-06     299.108E-06
            5803            5821     294.518E-06     299.108E-06
            5786            5821     294.518E-06     299.108E-06
            5787            5822     289.538E-06     294.272E-06
            5804            5822     289.538E-06     294.272E-06
            5805            5822     289.538E-06     294.272E-06
            5786            5822     289.538E-06     294.272E-06
            5806            5823     285.638E-06     290.007E-06
            5787            5823     285.638E-06     290.007E-06
            5788            5823     285.638E-06     290.007E-06
            5805            5823     285.638E-06     290.007E-06
            5788            5824     282.183E-06     287.206E-06
            5806            5824     282.183E-06     287.206E-06
            5807            5824     282.183E-06     287.206E-06
            5789            5824     282.183E-06     287.206E-06
            5807            5825     281.224E-06     284.983E-06
            5789            5825     281.224E-06     284.983E-06
            5808            5825     281.224E-06     284.983E-06
            5790            5825     281.224E-06     284.983E-06
            5809            5826     287.586E-06     276.371E-06
            5808            5826     287.586E-06     276.371E-06
            5790            5826     287.586E-06     276.371E-06
            5791            5826     287.586E-06     276.371E-06
            5810            5827     293.241E-06     263.843E-06
            5791            5827     293.241E-06     263.843E-06
            5792            5827     293.241E-06     263.843E-06
            5809            5827     293.241E-06     263.843E-06
            5794            5828     185.757E-06     183.206E-06
            5811            5828     185.757E-06     183.206E-06
            5812            5828     185.757E-06     183.206E-06
            5793            5828     185.757E-06     183.206E-06
            5795            5829     272.832E-06     273.619E-06
            5812            5829     272.832E-06     273.619E-06
            5794            5829     272.832E-06     273.619E-06
            5813            5829     272.832E-06     273.619E-06
            5813            5830     341.078E-06     330.262E-06
            5796            5830     341.078E-06     330.262E-06
            5814            5830     341.078E-06     330.262E-06
            5795            5830     341.078E-06     330.262E-06
            5796            5831     354.888E-06     342.629E-06
            5797            5831     354.888E-06     342.629E-06
            5814            5831     354.888E-06     342.629E-06
            5815            5831     354.888E-06     342.629E-06
            5797            5832     351.468E-06     339.564E-06
            5816            5832     351.468E-06     339.564E-06
            5815            5832     351.468E-06     339.564E-06
            5798            5832     351.468E-06     339.564E-06
            5799            5833     343.270E-06     332.356E-06
            5816            5833     343.270E-06     332.356E-06
            5817            5833     343.270E-06     332.356E-06
            5798            5833     343.270E-06     332.356E-06
            5800            5834     334.924E-06     324.693E-06
            5817            5834     334.924E-06     324.693E-06
            5799            5834     334.924E-06     324.693E-06
            5818            5834     334.924E-06     324.693E-06
            5819            5835     327.028E-06     317.618E-06
            5800            5835     327.028E-06     317.618E-06
            5818            5835     327.028E-06     317.618E-06
            5801            5835     327.028E-06     317.618E-06
            5801            5836     320.109E-06     311.539E-06
            5820            5836     320.109E-06     311.539E-06
            5819            5836     320.109E-06     311.539E-06
            5802            5836     320.109E-06     311.539E-06
            5802            5837     313.817E-06     306.143E-06
            5803            5837     313.817E-06     306.143E-06
            5820            5837     313.817E-06     306.143E-06
            5821            5837     313.817E-06     306.143E-06
            5803            5838     308.218E-06     301.608E-06
            5821            5838     308.218E-06     301.608E-06
            5804            5838     308.218E-06     301.608E-06
            5822            5838     308.218E-06     301.608E-06
            5822            5839     303.270E-06     297.630E-06
            5804            5839     303.270E-06     297.630E-06
            5805            5839     303.270E-06     297.630E-06
            5823            5839     303.270E-06     297.630E-06
            5823            5840     298.776E-06     294.710E-06
            5805            5840     298.776E-06     294.710E-06
            5806            5840     298.776E-06     294.710E-06
            5824            5840     298.776E-06     294.710E-06
            5807            5841     295.212E-06     292.393E-06
            5824            5841     295.212E-06     292.393E-06
            5806            5841     295.212E-06     292.393E-06
            5825            5841     295.212E-06     292.393E-06
            5807            5842     292.177E-06     291.207E-06
            5826            5842     292.177E-06     291.207E-06
            5825            5842     292.177E-06     291.207E-06
            5808            5842     292.177E-06     291.207E-06
            5827            5843     290.889E-06     291.016E-06
            5808            5843     290.889E-06     291.016E-06
            5826            5843     290.889E-06     291.016E-06
            5809            5843     290.889E-06     291.016E-06
            5828            5844     298.382E-06     285.029E-06
            5827            5844     298.382E-06     285.029E-06
            5809            5844     298.382E-06     285.029E-06
            5810            5844     298.382E-06     285.029E-06
            5812            5845     152.193E-06     162.930E-06
            5811            5845     152.193E-06     162.930E-06
            5829            5845     152.193E-06     162.930E-06
            5830            5845     152.193E-06     162.930E-06
            5813            5846     251.428E-06     216.487E-06
            5812            5846     251.428E-06     216.487E-06
            5831            5846     251.428E-06     216.487E-06
            5830            5846     251.428E-06     216.487E-06
            5814            5847     313.461E-06     280.364E-06
            5813            5847     313.461E-06     280.364E-06
            5831            5847     313.461E-06     280.364E-06
            5832            5847     313.461E-06     280.364E-06
            5815            5848     340.411E-06     310.197E-06
            5814            5848     340.411E-06     310.197E-06
            5833            5848     340.411E-06     310.197E-06
            5832            5848     340.411E-06     310.197E-06
            5833            5849     349.052E-06     319.671E-06
            5834            5849     349.052E-06     319.671E-06
            5815            5849     349.052E-06     319.671E-06
            5816            5849     349.052E-06     319.671E-06
            5835            5850     348.164E-06     321.136E-06
            5816            5850     348.164E-06     321.136E-06
            5834            5850     348.164E-06     321.136E-06
            5817            5850     348.164E-06     321.136E-06
            5835            5851     344.441E-06     318.798E-06
            5817            5851     344.441E-06     318.798E-06
            5818            5851     344.441E-06     318.798E-06
            5836            5851     344.441E-06     318.798E-06
            5819            5852     339.164E-06     315.375E-06
            5836            5852     339.164E-06     315.375E-06
            5818            5852     339.164E-06     315.375E-06
            5837            5852     339.164E-06     315.375E-06
            5820            5853     333.599E-06     311.573E-06
            5819            5853     333.599E-06     311.573E-06
            5838            5853     333.599E-06     311.573E-06
            5837            5853     333.599E-06     311.573E-06
            5820            5854     328.064E-06     307.948E-06
            5838            5854     328.064E-06     307.948E-06
            5839            5854     328.064E-06     307.948E-06
            5821            5854     328.064E-06     307.948E-06
            5839            5855     322.694E-06     304.719E-06
            5821            5855     322.694E-06     304.719E-06
            5822            5855     322.694E-06     304.719E-06
            5840            5855     322.694E-06     304.719E-06
            5823            5856     317.731E-06     301.917E-06
            5841            5856     317.731E-06     301.917E-06
            5822            5856     317.731E-06     301.917E-06
            5840            5856     317.731E-06     301.917E-06
            5824            5857     312.969E-06     299.821E-06
            5841            5857     312.969E-06     299.821E-06
            5823            5857     312.969E-06     299.821E-06
            5842            5857     312.969E-06     299.821E-06
            5843            5858     308.847E-06     298.188E-06
            5825            5858     308.847E-06     298.188E-06
            5824            5858     308.847E-06     298.188E-06
            5842            5858     308.847E-06     298.188E-06
            5844            5859     304.102E-06     297.506E-06
            5825            5859     304.102E-06     297.506E-06
            5843            5859     304.102E-06     297.506E-06
            5826            5859     304.102E-06     297.506E-06
            5844            5860     297.064E-06     302.078E-06
            5827            5860     297.064E-06     302.078E-06
            5826            5860     297.064E-06     302.078E-06
            5845            5860     297.064E-06     302.078E-06
            5846            5861     291.565E-06     309.545E-06
            5827            5861     291.565E-06     309.545E-06
            5845            5861     291.565E-06     309.545E-06
            5828            5861     291.565E-06     309.545E-06


  Minimum                            59.9919E-06     137.597E-06
      At Element                             856            5811
            Node                             308             197

  Maximum                            267.719E-03     267.606E-03
      At Element                            2475            2475
            Node                             524             524

           Total                         425.676         434.727


