********************************************************************************
Field Output Report, written Wed Feb 27 23:05:50 2019

Source 1
---------

   ODB: D:/Documents/Studium/AA_Courses/Semester_6/SVV/A15_SVV_Structures/FEMDataV2/Job-1.odb
   Step: Jam1
   Frame: Increment      1: Step Time =    1.000

Loc 1 : Element nodal  values at shell < ALUMINIUM > < 5 section points > from source 1 : SNEG, (fraction = -1.0) ( Average criteria = 75%, Not averaged across region boundaries )
Loc 2 : Element nodal  values at shell < ALUMINIUM > < 5 section points > from source 1 : SPOS, (fraction = 1.0) ( Average criteria = 75%, Not averaged across region boundaries )

Output sorted by column "Element Label".

Field Output reported at element nodes for region: A320-1.Region_1
   Computation algorithm: EXTRAPOLATE_COMPUTE_AVERAGE
   Averaged at nodes
   Averaging regions: ODB_REGIONS

   Element Label      Node Label         S.Mises         S.Mises
                                          @Loc 1          @Loc 2
-----------------------------------------------------------------
             857              16     3.05959E-03     5.51001E-03
             857             329     2.83132E-03     4.10917E-03
             857             411     7.19754E-03     9.40555E-03
             857            1518     5.70595E-03     6.96923E-03
             858             329     2.83132E-03     4.10917E-03
             858             330     2.79240E-03     2.44386E-03
             858            1518     5.70595E-03     6.96923E-03
             858            1519     4.82066E-03     4.30082E-03
             859             330     2.79240E-03     2.44386E-03
             859             331     3.16462E-03     2.24046E-03
             859            1519     4.82066E-03     4.30082E-03
             859            1520     5.75700E-03     4.17185E-03
             860             331     3.16462E-03     2.24046E-03
             860             332     3.48886E-03     2.37821E-03
             860            1520     5.75700E-03     4.17185E-03
             860            1521     6.41815E-03     4.51249E-03
             861             332     3.48886E-03     2.37821E-03
             861             333     3.77385E-03     2.57465E-03
             861            1521     6.41815E-03     4.51249E-03
             861            1522     7.01367E-03     4.98189E-03
             862             333     3.77385E-03     2.57465E-03
             862             334     4.04038E-03     2.80446E-03
             862            1522     7.01367E-03     4.98189E-03
             862            1523     7.51938E-03     5.44061E-03
             863             334     4.04038E-03     2.80446E-03
             863             335     4.28397E-03     3.03207E-03
             863            1523     7.51938E-03     5.44061E-03
             863            1524     8.00414E-03     5.90175E-03
             864             335     4.28397E-03     3.03207E-03
             864             336     4.52497E-03     3.26050E-03
             864            1524     8.00414E-03     5.90175E-03
             864            1525     8.48668E-03     6.36822E-03
             865             336     4.52497E-03     3.26050E-03
             865             337     4.75829E-03     3.49223E-03
             865            1525     8.48668E-03     6.36822E-03
             865            1526     8.96681E-03     6.84160E-03
             866             337     4.75829E-03     3.49223E-03
             866             338     4.98996E-03     3.71558E-03
             866            1526     8.96681E-03     6.84160E-03
             866            1527     9.45456E-03     7.31814E-03
             867             338     4.98996E-03     3.71558E-03
             867             339     5.20274E-03     3.92813E-03
             867            1527     9.45456E-03     7.31814E-03
             867            1528     9.92932E-03     7.79202E-03
             868             339     5.20274E-03     3.92813E-03
             868             340     5.39373E-03     4.11603E-03
             868            1528     9.92932E-03     7.79202E-03
             868            1529     10.3676E-03     8.22289E-03
             869             340     5.39373E-03     4.11603E-03
             869             341     5.50394E-03     4.23217E-03
             869            1529     10.3676E-03     8.22289E-03
             869            1530     10.7174E-03     8.58387E-03
             870             341     5.50394E-03     4.23217E-03
             870             342     5.51917E-03     4.27669E-03
             870            1530     10.7174E-03     8.58387E-03
             870            1531     10.7625E-03     8.70669E-03
             871             342     5.51917E-03     4.27669E-03
             871             343     5.34205E-03     4.19646E-03
             871            1531     10.7625E-03     8.70669E-03
             871            1532     10.4993E-03     8.61235E-03
             872             343     5.34205E-03     4.19646E-03
             872             344     4.87104E-03     4.24231E-03
             872            1532     10.4993E-03     8.61235E-03
             872            1533     9.18978E-03     8.26092E-03
             873             344     4.87104E-03     4.24231E-03
             873             345     6.11477E-03     6.94371E-03
             873            1533     9.18978E-03     8.26092E-03
             873            1534     12.0756E-03     12.6555E-03
             874               3     7.65052E-03     9.51282E-03
             874             150     16.1021E-03     17.3529E-03
             874             345     6.11477E-03     6.94371E-03
             874            1534     12.0756E-03     12.6555E-03
             875             410     8.35184E-03     7.26563E-03
             875             411     7.19754E-03     9.40555E-03
             875            1518     5.70595E-03     6.96923E-03
             875            1535     6.39503E-03     5.89758E-03
             876            1518     5.70595E-03     6.96923E-03
             876            1519     4.82066E-03     4.30082E-03
             876            1535     6.39503E-03     5.89758E-03
             876            1536     4.66091E-03     4.34903E-03
             877            1519     4.82066E-03     4.30082E-03
             877            1520     5.75700E-03     4.17185E-03
             877            1536     4.66091E-03     4.34903E-03
             877            1537     5.32640E-03     4.40948E-03
             878            1520     5.75700E-03     4.17185E-03
             878            1521     6.41815E-03     4.51249E-03
             878            1537     5.32640E-03     4.40948E-03
             878            1538     6.07608E-03     4.93057E-03
             879            1521     6.41815E-03     4.51249E-03
             879            1522     7.01367E-03     4.98189E-03
             879            1538     6.07608E-03     4.93057E-03
             879            1539     6.63043E-03     5.44610E-03
             880            1522     7.01367E-03     4.98189E-03
             880            1523     7.51938E-03     5.44061E-03
             880            1539     6.63043E-03     5.44610E-03
             880            1540     7.12073E-03     5.92443E-03
             881            1523     7.51938E-03     5.44061E-03
             881            1524     8.00414E-03     5.90175E-03
             881            1540     7.12073E-03     5.92443E-03
             881            1541     7.60287E-03     6.40388E-03
             882            1524     8.00414E-03     5.90175E-03
             882            1525     8.48668E-03     6.36822E-03
             882            1541     7.60287E-03     6.40388E-03
             882            1542     8.08896E-03     6.88895E-03
             883            1525     8.48668E-03     6.36822E-03
             883            1526     8.96681E-03     6.84160E-03
             883            1542     8.08896E-03     6.88895E-03
             883            1543     8.59321E-03     7.39129E-03
             884            1526     8.96681E-03     6.84160E-03
             884            1527     9.45456E-03     7.31814E-03
             884            1543     8.59321E-03     7.39129E-03
             884            1544     9.11269E-03     7.91213E-03
             885            1527     9.45456E-03     7.31814E-03
             885            1528     9.92932E-03     7.79202E-03
             885            1544     9.11269E-03     7.91213E-03
             885            1545     9.65252E-03     8.45257E-03
             886            1528     9.92932E-03     7.79202E-03
             886            1529     10.3676E-03     8.22289E-03
             886            1545     9.65252E-03     8.45257E-03
             886            1546     10.1824E-03     8.98885E-03
             887            1529     10.3676E-03     8.22289E-03
             887            1530     10.7174E-03     8.58387E-03
             887            1546     10.1824E-03     8.98885E-03
             887            1547     10.6691E-03     9.49057E-03
             888            1530     10.7174E-03     8.58387E-03
             888            1531     10.7625E-03     8.70669E-03
             888            1547     10.6691E-03     9.49057E-03
             888            1548     10.9332E-03     9.81378E-03
             889            1531     10.7625E-03     8.70669E-03
             889            1532     10.4993E-03     8.61235E-03
             889            1548     10.9332E-03     9.81378E-03
             889            1549     10.6456E-03     9.78904E-03
             890            1532     10.4993E-03     8.61235E-03
             890            1533     9.18978E-03     8.26092E-03
             890            1549     10.6456E-03     9.78904E-03
             890            1550     10.0065E-03     9.55302E-03
             891            1533     9.18978E-03     8.26092E-03
             891            1534     12.0756E-03     12.6555E-03
             891            1550     10.0065E-03     9.55302E-03
             891            1551     13.9392E-03     13.3176E-03
             892             149     18.1938E-03     17.2090E-03
             892             150     16.1021E-03     17.3529E-03
             892            1534     12.0756E-03     12.6555E-03
             892            1551     13.9392E-03     13.3176E-03
             893             409     8.14839E-03     7.18067E-03
             893             410     8.35184E-03     7.26563E-03
             893            1535     6.39503E-03     5.89758E-03
             893            1552     6.76146E-03     6.11533E-03
             894            1535     6.39503E-03     5.89758E-03
             894            1536     4.66091E-03     4.34903E-03
             894            1552     6.76146E-03     6.11533E-03
             894            1553     5.06220E-03     4.84913E-03
             895            1536     4.66091E-03     4.34903E-03
             895            1537     5.32640E-03     4.40948E-03
             895            1553     5.06220E-03     4.84913E-03
             895            1554     5.09762E-03     4.91316E-03
             896            1537     5.32640E-03     4.40948E-03
             896            1538     6.07608E-03     4.93057E-03
             896            1554     5.09762E-03     4.91316E-03
             896            1555     5.66233E-03     5.39672E-03
             897            1538     6.07608E-03     4.93057E-03
             897            1539     6.63043E-03     5.44610E-03
             897            1555     5.66233E-03     5.39672E-03
             897            1556     6.13937E-03     5.86826E-03
             898            1539     6.63043E-03     5.44610E-03
             898            1540     7.12073E-03     5.92443E-03
             898            1556     6.13937E-03     5.86826E-03
             898            1557     6.63772E-03     6.35932E-03
             899            1540     7.12073E-03     5.92443E-03
             899            1541     7.60287E-03     6.40388E-03
             899            1557     6.63772E-03     6.35932E-03
             899            1558     7.12072E-03     6.84530E-03
             900            1541     7.60287E-03     6.40388E-03
             900            1542     8.08896E-03     6.88895E-03
             900            1558     7.12072E-03     6.84530E-03
             900            1559     7.61692E-03     7.34277E-03
             901            1542     8.08896E-03     6.88895E-03
             901            1543     8.59321E-03     7.39129E-03
             901            1559     7.61692E-03     7.34277E-03
             901            1560     8.12311E-03     7.85182E-03
             902            1543     8.59321E-03     7.39129E-03
             902            1544     9.11269E-03     7.91213E-03
             902            1560     8.12311E-03     7.85182E-03
             902            1561     8.64542E-03     8.37687E-03
             903            1544     9.11269E-03     7.91213E-03
             903            1545     9.65252E-03     8.45257E-03
             903            1561     8.64542E-03     8.37687E-03
             903            1562     9.17712E-03     8.91567E-03
             904            1545     9.65252E-03     8.45257E-03
             904            1546     10.1824E-03     8.98885E-03
             904            1562     9.17712E-03     8.91567E-03
             904            1563     9.73238E-03     9.47999E-03
             905            1546     10.1824E-03     8.98885E-03
             905            1547     10.6691E-03     9.49057E-03
             905            1563     9.73238E-03     9.47999E-03
             905            1564     10.2338E-03     10.0137E-03
             906            1547     10.6691E-03     9.49057E-03
             906            1548     10.9332E-03     9.81378E-03
             906            1564     10.2338E-03     10.0137E-03
             906            1565     10.7468E-03     10.5393E-03
             907            1548     10.9332E-03     9.81378E-03
             907            1549     10.6456E-03     9.78904E-03
             907            1565     10.7468E-03     10.5393E-03
             907            1566     10.9742E-03     10.8832E-03
             908            1549     10.6456E-03     9.78904E-03
             908            1550     10.0065E-03     9.55302E-03
             908            1566     10.9742E-03     10.8832E-03
             908            1567     12.0487E-03     11.9107E-03
             909            1550     10.0065E-03     9.55302E-03
             909            1551     13.9392E-03     13.3176E-03
             909            1567     12.0487E-03     11.9107E-03
             909            1568     16.7572E-03     16.2086E-03
             910             148     20.3159E-03     19.5400E-03
             910             149     18.1938E-03     17.2090E-03
             910            1551     13.9392E-03     13.3176E-03
             910            1568     16.7572E-03     16.2086E-03
             911             408     8.51287E-03     8.17264E-03
             911             409     8.14839E-03     7.18067E-03
             911            1552     6.76146E-03     6.11533E-03
             911            1569     7.28178E-03     6.99782E-03
             912            1552     6.76146E-03     6.11533E-03
             912            1553     5.06220E-03     4.84913E-03
             912            1569     7.28178E-03     6.99782E-03
             912            1570     5.57849E-03     5.70313E-03
             913            1553     5.06220E-03     4.84913E-03
             913            1554     5.09762E-03     4.91316E-03
             913            1570     5.57849E-03     5.70313E-03
             913            1571     5.01847E-03     5.61049E-03
             914            1554     5.09762E-03     4.91316E-03
             914            1555     5.66233E-03     5.39672E-03
             914            1571     5.01847E-03     5.61049E-03
             914            1572     5.16719E-03     5.84703E-03
             915            1555     5.66233E-03     5.39672E-03
             915            1556     6.13937E-03     5.86826E-03
             915            1572     5.16719E-03     5.84703E-03
             915            1573     5.62557E-03     6.28209E-03
             916            1556     6.13937E-03     5.86826E-03
             916            1557     6.63772E-03     6.35932E-03
             916            1573     5.62557E-03     6.28209E-03
             916            1574     6.09265E-03     6.75137E-03
             917            1557     6.63772E-03     6.35932E-03
             917            1558     7.12072E-03     6.84530E-03
             917            1574     6.09265E-03     6.75137E-03
             917            1575     6.58733E-03     7.24364E-03
             918            1558     7.12072E-03     6.84530E-03
             918            1559     7.61692E-03     7.34277E-03
             918            1575     6.58733E-03     7.24364E-03
             918            1576     7.08369E-03     7.74270E-03
             919            1559     7.61692E-03     7.34277E-03
             919            1560     8.12311E-03     7.85182E-03
             919            1576     7.08369E-03     7.74270E-03
             919            1577     7.58098E-03     8.24101E-03
             920            1560     8.12311E-03     7.85182E-03
             920            1561     8.64542E-03     8.37687E-03
             920            1577     7.58098E-03     8.24101E-03
             920            1578     8.07641E-03     8.74121E-03
             921            1561     8.64542E-03     8.37687E-03
             921            1562     9.17712E-03     8.91567E-03
             921            1578     8.07641E-03     8.74121E-03
             921            1579     8.57697E-03     9.24704E-03
             922            1562     9.17712E-03     8.91567E-03
             922            1563     9.73238E-03     9.47999E-03
             922            1579     8.57697E-03     9.24704E-03
             922            1580     9.07791E-03     9.76507E-03
             923            1563     9.73238E-03     9.47999E-03
             923            1564     10.2338E-03     10.0137E-03
             923            1580     9.07791E-03     9.76507E-03
             923            1581     9.63973E-03     10.3390E-03
             924            1564     10.2338E-03     10.0137E-03
             924            1565     10.7468E-03     10.5393E-03
             924            1581     9.63973E-03     10.3390E-03
             924            1582     10.2326E-03     10.9754E-03
             925            1565     10.7468E-03     10.5393E-03
             925            1566     10.9742E-03     10.8832E-03
             925            1582     10.2326E-03     10.9754E-03
             925            1583     11.4739E-03     12.0151E-03
             926            1566     10.9742E-03     10.8832E-03
             926            1567     12.0487E-03     11.9107E-03
             926            1583     11.4739E-03     12.0151E-03
             926            1584     14.2600E-03     14.3117E-03
             927            1567     12.0487E-03     11.9107E-03
             927            1568     16.7572E-03     16.2086E-03
             927            1584     14.2600E-03     14.3117E-03
             927            1585     19.4885E-03     19.4687E-03
             928             147     22.8955E-03     23.0419E-03
             928             148     20.3159E-03     19.5400E-03
             928            1568     16.7572E-03     16.2086E-03
             928            1585     19.4885E-03     19.4687E-03
             929             407     10.0194E-03     9.25407E-03
             929             408     8.51287E-03     8.17264E-03
             929            1569     7.28178E-03     6.99782E-03
             929            1586     8.36000E-03     8.36705E-03
             930            1569     7.28178E-03     6.99782E-03
             930            1570     5.57849E-03     5.70313E-03
             930            1586     8.36000E-03     8.36705E-03
             930            1587     5.73756E-03     6.86942E-03
             931            1570     5.57849E-03     5.70313E-03
             931            1571     5.01847E-03     5.61049E-03
             931            1587     5.73756E-03     6.86942E-03
             931            1588     4.68629E-03     6.22700E-03
             932            1571     5.01847E-03     5.61049E-03
             932            1572     5.16719E-03     5.84703E-03
             932            1588     4.68629E-03     6.22700E-03
             932            1589     4.74175E-03     6.34095E-03
             933            1572     5.16719E-03     5.84703E-03
             933            1573     5.62557E-03     6.28209E-03
             933            1589     4.74175E-03     6.34095E-03
             933            1590     5.09743E-03     6.69314E-03
             934            1573     5.62557E-03     6.28209E-03
             934            1574     6.09265E-03     6.75137E-03
             934            1590     5.09743E-03     6.69314E-03
             934            1591     5.55325E-03     7.14419E-03
             935            1574     6.09265E-03     6.75137E-03
             935            1575     6.58733E-03     7.24364E-03
             935            1591     5.55325E-03     7.14419E-03
             935            1592     6.04161E-03     7.63415E-03
             936            1575     6.58733E-03     7.24364E-03
             936            1576     7.08369E-03     7.74270E-03
             936            1592     6.04161E-03     7.63415E-03
             936            1593     6.53242E-03     8.12457E-03
             937            1576     7.08369E-03     7.74270E-03
             937            1577     7.58098E-03     8.24101E-03
             937            1593     6.53242E-03     8.12457E-03
             937            1594     7.01521E-03     8.61038E-03
             938            1577     7.58098E-03     8.24101E-03
             938            1578     8.07641E-03     8.74121E-03
             938            1594     7.01521E-03     8.61038E-03
             938            1595     7.48572E-03     9.08024E-03
             939            1578     8.07641E-03     8.74121E-03
             939            1579     8.57697E-03     9.24704E-03
             939            1595     7.48572E-03     9.08024E-03
             939            1596     7.94907E-03     9.54949E-03
             940            1579     8.57697E-03     9.24704E-03
             940            1580     9.07791E-03     9.76507E-03
             940            1596     7.94907E-03     9.54949E-03
             940            1597     8.43192E-03     10.0354E-03
             941            1580     9.07791E-03     9.76507E-03
             941            1581     9.63973E-03     10.3390E-03
             941            1597     8.43192E-03     10.0354E-03
             941            1598     8.99681E-03     10.6183E-03
             942            1581     9.63973E-03     10.3390E-03
             942            1582     10.2326E-03     10.9754E-03
             942            1598     8.99681E-03     10.6183E-03
             942            1599     9.83859E-03     11.4533E-03
             943            1582     10.2326E-03     10.9754E-03
             943            1583     11.4739E-03     12.0151E-03
             943            1599     9.83859E-03     11.4533E-03
             943            1600     11.4002E-03     12.9393E-03
             944            1583     11.4739E-03     12.0151E-03
             944            1584     14.2600E-03     14.3117E-03
             944            1600     11.4002E-03     12.9393E-03
             944            1601     15.4005E-03     16.3154E-03
             945            1584     14.2600E-03     14.3117E-03
             945            1585     19.4885E-03     19.4687E-03
             945            1601     15.4005E-03     16.3154E-03
             945            1602     22.6400E-03     22.4205E-03
             946             146     26.9104E-03     26.1378E-03
             946             147     22.8955E-03     23.0419E-03
             946            1585     19.4885E-03     19.4687E-03
             946            1602     22.6400E-03     22.4205E-03
             947             406     10.9162E-03     12.7935E-03
             947             407     10.0194E-03     9.25407E-03
             947            1586     8.36000E-03     8.36705E-03
             947            1603     8.43681E-03     10.6553E-03
             948            1586     8.36000E-03     8.36705E-03
             948            1587     5.73756E-03     6.86942E-03
             948            1603     8.43681E-03     10.6553E-03
             948            1604     5.18674E-03     7.74070E-03
             949            1587     5.73756E-03     6.86942E-03
             949            1588     4.68629E-03     6.22700E-03
             949            1604     5.18674E-03     7.74070E-03
             949            1605     4.35273E-03     6.87968E-03
             950            1588     4.68629E-03     6.22700E-03
             950            1589     4.74175E-03     6.34095E-03
             950            1605     4.35273E-03     6.87968E-03
             950            1606     4.35618E-03     6.87020E-03
             951            1589     4.74175E-03     6.34095E-03
             951            1590     5.09743E-03     6.69314E-03
             951            1606     4.35618E-03     6.87020E-03
             951            1607     4.62844E-03     7.14972E-03
             952            1590     5.09743E-03     6.69314E-03
             952            1591     5.55325E-03     7.14419E-03
             952            1607     4.62844E-03     7.14972E-03
             952            1608     5.05861E-03     7.57855E-03
             953            1591     5.55325E-03     7.14419E-03
             953            1592     6.04161E-03     7.63415E-03
             953            1608     5.05861E-03     7.57855E-03
             953            1609     5.52399E-03     8.04588E-03
             954            1592     6.04161E-03     7.63415E-03
             954            1593     6.53242E-03     8.12457E-03
             954            1609     5.52399E-03     8.04588E-03
             954            1610     6.00132E-03     8.52713E-03
             955            1593     6.53242E-03     8.12457E-03
             955            1594     7.01521E-03     8.61038E-03
             955            1610     6.00132E-03     8.52713E-03
             955            1611     6.47161E-03     8.99649E-03
             956            1594     7.01521E-03     8.61038E-03
             956            1595     7.48572E-03     9.08024E-03
             956            1611     6.47161E-03     8.99649E-03
             956            1612     6.93481E-03     9.46078E-03
             957            1595     7.48572E-03     9.08024E-03
             957            1596     7.94907E-03     9.54949E-03
             957            1612     6.93481E-03     9.46078E-03
             957            1613     7.40018E-03     9.92014E-03
             958            1596     7.94907E-03     9.54949E-03
             958            1597     8.43192E-03     10.0354E-03
             958            1613     7.40018E-03     9.92014E-03
             958            1614     7.91951E-03     10.4308E-03
             959            1597     8.43192E-03     10.0354E-03
             959            1598     8.99681E-03     10.6183E-03
             959            1614     7.91951E-03     10.4308E-03
             959            1615     8.56973E-03     11.0683E-03
             960            1598     8.99681E-03     10.6183E-03
             960            1599     9.83859E-03     11.4533E-03
             960            1615     8.56973E-03     11.0683E-03
             960            1616     9.62819E-03     12.1066E-03
             961            1599     9.83859E-03     11.4533E-03
             961            1600     11.4002E-03     12.9393E-03
             961            1616     9.62819E-03     12.1066E-03
             961            1617     11.4450E-03     13.9445E-03
             962            1600     11.4002E-03     12.9393E-03
             962            1601     15.4005E-03     16.3154E-03
             962            1617     11.4450E-03     13.9445E-03
             962            1618     15.0661E-03     17.7213E-03
             963            1601     15.4005E-03     16.3154E-03
             963            1602     22.6400E-03     22.4205E-03
             963            1618     15.0661E-03     17.7213E-03
             963            1619     23.9176E-03     26.1888E-03
             964             145     30.2732E-03     32.0321E-03
             964             146     26.9104E-03     26.1378E-03
             964            1602     22.6400E-03     22.4205E-03
             964            1619     23.9176E-03     26.1888E-03
             965             405     12.1435E-03     15.6342E-03
             965             406     10.9162E-03     12.7935E-03
             965            1603     8.43681E-03     10.6553E-03
             965            1620     11.2972E-03     13.6954E-03
             966            1603     8.43681E-03     10.6553E-03
             966            1604     5.18674E-03     7.74070E-03
             966            1620     11.2972E-03     13.6954E-03
             966            1621     10.6243E-03     11.6744E-03
             967            1604     5.18674E-03     7.74070E-03
             967            1605     4.35273E-03     6.87968E-03
             967            1621     10.6243E-03     11.6744E-03
             967            1622     11.0833E-03     11.9176E-03
             968            1605     4.35273E-03     6.87968E-03
             968            1606     4.35618E-03     6.87020E-03
             968            1622     11.0833E-03     11.9176E-03
             968            1623     11.8140E-03     12.6773E-03
             969            1606     4.35618E-03     6.87020E-03
             969            1607     4.62844E-03     7.14972E-03
             969            1623     11.8140E-03     12.6773E-03
             969            1624     12.7635E-03     13.6305E-03
             970            1607     4.62844E-03     7.14972E-03
             970            1608     5.05861E-03     7.57855E-03
             970            1624     12.7635E-03     13.6305E-03
             970            1625     13.7726E-03     14.6518E-03
             971            1608     5.05861E-03     7.57855E-03
             971            1609     5.52399E-03     8.04588E-03
             971            1625     13.7726E-03     14.6518E-03
             971            1626     14.7975E-03     15.6665E-03
             972            1609     5.52399E-03     8.04588E-03
             972            1610     6.00132E-03     8.52713E-03
             972            1626     14.7975E-03     15.6665E-03
             972            1627     15.8048E-03     16.6597E-03
             973            1610     6.00132E-03     8.52713E-03
             973            1611     6.47161E-03     8.99649E-03
             973            1627     15.8048E-03     16.6597E-03
             973            1628     16.7758E-03     17.5989E-03
             974            1611     6.47161E-03     8.99649E-03
             974            1612     6.93481E-03     9.46078E-03
             974            1628     16.7758E-03     17.5989E-03
             974            1629     17.6982E-03     18.4879E-03
             975            1612     6.93481E-03     9.46078E-03
             975            1613     7.40018E-03     9.92014E-03
             975            1629     17.6982E-03     18.4879E-03
             975            1630     18.5693E-03     19.2954E-03
             976            1613     7.40018E-03     9.92014E-03
             976            1614     7.91951E-03     10.4308E-03
             976            1630     18.5693E-03     19.2954E-03
             976            1631     19.3768E-03     20.0409E-03
             977            1614     7.91951E-03     10.4308E-03
             977            1615     8.56973E-03     11.0683E-03
             977            1631     19.3768E-03     20.0409E-03
             977            1632     20.1850E-03     20.7240E-03
             978            1615     8.56973E-03     11.0683E-03
             978            1616     9.62819E-03     12.1066E-03
             978            1632     20.1850E-03     20.7240E-03
             978            1633     20.9722E-03     21.4339E-03
             979            1616     9.62819E-03     12.1066E-03
             979            1617     11.4450E-03     13.9445E-03
             979            1633     20.9722E-03     21.4339E-03
             979            1634     22.0545E-03     22.3621E-03
             980            1617     11.4450E-03     13.9445E-03
             980            1618     15.0661E-03     17.7213E-03
             980            1634     22.0545E-03     22.3621E-03
             980            1635     23.2172E-03     23.7270E-03
             981            1618     15.0661E-03     17.7213E-03
             981            1619     23.9176E-03     26.1888E-03
             981            1635     23.2172E-03     23.7270E-03
             981            1636     26.5178E-03     27.9822E-03
             982             144     29.3842E-03     31.4049E-03
             982             145     30.2732E-03     32.0321E-03
             982            1619     23.9176E-03     26.1888E-03
             982            1636     26.5178E-03     27.9822E-03
             983             404     13.6498E-03     15.9518E-03
             983             405     12.1435E-03     15.6342E-03
             983            1620     11.2972E-03     13.6954E-03
             983            1637     14.2201E-03     15.3641E-03
             984            1620     11.2972E-03     13.6954E-03
             984            1621     10.6243E-03     11.6744E-03
             984            1637     14.2201E-03     15.3641E-03
             984            1638     15.7925E-03     15.3440E-03
             985            1621     10.6243E-03     11.6744E-03
             985            1622     11.0833E-03     11.9176E-03
             985            1638     15.7925E-03     15.3440E-03
             985            1639     17.6938E-03     16.7371E-03
             986            1622     11.0833E-03     11.9176E-03
             986            1623     11.8140E-03     12.6773E-03
             986            1639     17.6938E-03     16.7371E-03
             986            1640     19.4815E-03     18.4414E-03
             987            1623     11.8140E-03     12.6773E-03
             987            1624     12.7635E-03     13.6305E-03
             987            1640     19.4815E-03     18.4414E-03
             987            1641     21.2363E-03     20.1840E-03
             988            1624     12.7635E-03     13.6305E-03
             988            1625     13.7726E-03     14.6518E-03
             988            1641     21.2363E-03     20.1840E-03
             988            1642     22.9478E-03     21.8906E-03
             989            1625     13.7726E-03     14.6518E-03
             989            1626     14.7975E-03     15.6665E-03
             989            1642     22.9478E-03     21.8906E-03
             989            1643     24.6171E-03     23.5479E-03
             990            1626     14.7975E-03     15.6665E-03
             990            1627     15.8048E-03     16.6597E-03
             990            1643     24.6171E-03     23.5479E-03
             990            1644     26.2363E-03     25.1385E-03
             991            1627     15.8048E-03     16.6597E-03
             991            1628     16.7758E-03     17.5989E-03
             991            1644     26.2363E-03     25.1385E-03
             991            1645     27.7928E-03     26.6573E-03
             992            1628     16.7758E-03     17.5989E-03
             992            1629     17.6982E-03     18.4879E-03
             992            1645     27.7928E-03     26.6573E-03
             992            1646     29.2650E-03     28.0742E-03
             993            1629     17.6982E-03     18.4879E-03
             993            1630     18.5693E-03     19.2954E-03
             993            1646     29.2650E-03     28.0742E-03
             993            1647     30.6210E-03     29.3631E-03
             994            1630     18.5693E-03     19.2954E-03
             994            1631     19.3768E-03     20.0409E-03
             994            1647     30.6210E-03     29.3631E-03
             994            1648     31.7934E-03     30.4559E-03
             995            1631     19.3768E-03     20.0409E-03
             995            1632     20.1850E-03     20.7240E-03
             995            1648     31.7934E-03     30.4559E-03
             995            1649     32.7256E-03     31.2909E-03
             996            1632     20.1850E-03     20.7240E-03
             996            1633     20.9722E-03     21.4339E-03
             996            1649     32.7256E-03     31.2909E-03
             996            1650     33.2320E-03     31.7220E-03
             997            1633     20.9722E-03     21.4339E-03
             997            1634     22.0545E-03     22.3621E-03
             997            1650     33.2320E-03     31.7220E-03
             997            1651     33.2200E-03     31.6431E-03
             998            1634     22.0545E-03     22.3621E-03
             998            1635     23.2172E-03     23.7270E-03
             998            1651     33.2200E-03     31.6431E-03
             998            1652     32.0629E-03     30.6075E-03
             999            1635     23.2172E-03     23.7270E-03
             999            1636     26.5178E-03     27.9822E-03
             999            1652     32.0629E-03     30.6075E-03
             999            1653     30.8200E-03     29.6122E-03
            1000             143     30.6208E-03     29.4990E-03
            1000             144     29.3842E-03     31.4049E-03
            1000            1636     26.5178E-03     27.9822E-03
            1000            1653     30.8200E-03     29.6122E-03
            1001             403     13.8800E-03     14.5381E-03
            1001             404     13.6498E-03     15.9518E-03
            1001            1637     14.2201E-03     15.3641E-03
            1001            1654     13.8453E-03     14.7457E-03
            1002            1637     14.2201E-03     15.3641E-03
            1002            1638     15.7925E-03     15.3440E-03
            1002            1654     13.8453E-03     14.7457E-03
            1002            1655     14.9938E-03     15.5645E-03
            1003            1638     15.7925E-03     15.3440E-03
            1003            1639     17.6938E-03     16.7371E-03
            1003            1655     14.9938E-03     15.5645E-03
            1003            1656     17.3288E-03     17.0920E-03
            1004            1639     17.6938E-03     16.7371E-03
            1004            1640     19.4815E-03     18.4414E-03
            1004            1656     17.3288E-03     17.0920E-03
            1004            1657     19.4910E-03     18.9555E-03
            1005            1640     19.4815E-03     18.4414E-03
            1005            1641     21.2363E-03     20.1840E-03
            1005            1657     19.4910E-03     18.9555E-03
            1005            1658     21.4672E-03     20.8316E-03
            1006            1641     21.2363E-03     20.1840E-03
            1006            1642     22.9478E-03     21.8906E-03
            1006            1658     21.4672E-03     20.8316E-03
            1006            1659     23.3435E-03     22.6668E-03
            1007            1642     22.9478E-03     21.8906E-03
            1007            1643     24.6171E-03     23.5479E-03
            1007            1659     23.3435E-03     22.6668E-03
            1007            1660     25.1407E-03     24.4496E-03
            1008            1643     24.6171E-03     23.5479E-03
            1008            1644     26.2363E-03     25.1385E-03
            1008            1660     25.1407E-03     24.4496E-03
            1008            1661     26.8868E-03     26.1855E-03
            1009            1644     26.2363E-03     25.1385E-03
            1009            1645     27.7928E-03     26.6573E-03
            1009            1661     26.8868E-03     26.1855E-03
            1009            1662     28.5834E-03     27.8698E-03
            1010            1645     27.7928E-03     26.6573E-03
            1010            1646     29.2650E-03     28.0742E-03
            1010            1662     28.5834E-03     27.8698E-03
            1010            1663     30.2124E-03     29.4901E-03
            1011            1646     29.2650E-03     28.0742E-03
            1011            1647     30.6210E-03     29.3631E-03
            1011            1663     30.2124E-03     29.4901E-03
            1011            1664     31.7368E-03     31.0076E-03
            1012            1647     30.6210E-03     29.3631E-03
            1012            1648     31.7934E-03     30.4559E-03
            1012            1664     31.7368E-03     31.0076E-03
            1012            1665     33.0893E-03     32.3681E-03
            1013            1648     31.7934E-03     30.4559E-03
            1013            1649     32.7256E-03     31.2909E-03
            1013            1665     33.0893E-03     32.3681E-03
            1013            1666     34.1449E-03     33.4693E-03
            1014            1649     32.7256E-03     31.2909E-03
            1014            1650     33.2320E-03     31.7220E-03
            1014            1666     34.1449E-03     33.4693E-03
            1014            1667     34.7538E-03     34.1732E-03
            1015            1650     33.2320E-03     31.7220E-03
            1015            1651     33.2200E-03     31.6431E-03
            1015            1667     34.7538E-03     34.1732E-03
            1015            1668     34.6575E-03     34.2992E-03
            1016            1651     33.2200E-03     31.6431E-03
            1016            1652     32.0629E-03     30.6075E-03
            1016            1668     34.6575E-03     34.2992E-03
            1016            1669     33.6556E-03     33.6214E-03
            1017            1652     32.0629E-03     30.6075E-03
            1017            1653     30.8200E-03     29.6122E-03
            1017            1669     33.6556E-03     33.6214E-03
            1017            1670     34.3442E-03     34.1443E-03
            1018             142     35.7656E-03     35.2298E-03
            1018             143     30.6208E-03     29.4990E-03
            1018            1653     30.8200E-03     29.6122E-03
            1018            1670     34.3442E-03     34.1443E-03
            1019             402     13.8266E-03     13.9281E-03
            1019             403     13.8800E-03     14.5381E-03
            1019            1654     13.8453E-03     14.7457E-03
            1019            1671     13.9858E-03     14.4210E-03
            1020            1654     13.8453E-03     14.7457E-03
            1020            1655     14.9938E-03     15.5645E-03
            1020            1671     13.9858E-03     14.4210E-03
            1020            1672     15.0846E-03     15.7890E-03
            1021            1655     14.9938E-03     15.5645E-03
            1021            1656     17.3288E-03     17.0920E-03
            1021            1672     15.0846E-03     15.7890E-03
            1021            1673     17.2213E-03     17.5900E-03
            1022            1656     17.3288E-03     17.0920E-03
            1022            1657     19.4910E-03     18.9555E-03
            1022            1673     17.2213E-03     17.5900E-03
            1022            1674     19.5151E-03     19.5037E-03
            1023            1657     19.4910E-03     18.9555E-03
            1023            1658     21.4672E-03     20.8316E-03
            1023            1674     19.5151E-03     19.5037E-03
            1023            1675     21.6222E-03     21.4510E-03
            1024            1658     21.4672E-03     20.8316E-03
            1024            1659     23.3435E-03     22.6668E-03
            1024            1675     21.6222E-03     21.4510E-03
            1024            1676     23.5911E-03     23.3445E-03
            1025            1659     23.3435E-03     22.6668E-03
            1025            1660     25.1407E-03     24.4496E-03
            1025            1676     23.5911E-03     23.3445E-03
            1025            1677     25.4742E-03     25.2014E-03
            1026            1660     25.1407E-03     24.4496E-03
            1026            1661     26.8868E-03     26.1855E-03
            1026            1677     25.4742E-03     25.2014E-03
            1026            1678     27.3068E-03     27.0283E-03
            1027            1661     26.8868E-03     26.1855E-03
            1027            1662     28.5834E-03     27.8698E-03
            1027            1678     27.3068E-03     27.0283E-03
            1027            1679     29.0952E-03     28.8279E-03
            1028            1662     28.5834E-03     27.8698E-03
            1028            1663     30.2124E-03     29.4901E-03
            1028            1679     29.0952E-03     28.8279E-03
            1028            1680     30.8397E-03     30.5914E-03
            1029            1663     30.2124E-03     29.4901E-03
            1029            1664     31.7368E-03     31.0076E-03
            1029            1680     30.8397E-03     30.5914E-03
            1029            1681     32.4909E-03     32.2861E-03
            1030            1664     31.7368E-03     31.0076E-03
            1030            1665     33.0893E-03     32.3681E-03
            1030            1681     32.4909E-03     32.2861E-03
            1030            1682     33.9907E-03     33.8529E-03
            1031            1665     33.0893E-03     32.3681E-03
            1031            1666     34.1449E-03     33.4693E-03
            1031            1682     33.9907E-03     33.8529E-03
            1031            1683     35.2127E-03     35.1894E-03
            1032            1666     34.1449E-03     33.4693E-03
            1032            1667     34.7538E-03     34.1732E-03
            1032            1683     35.2127E-03     35.1894E-03
            1032            1684     36.0195E-03     36.1776E-03
            1033            1667     34.7538E-03     34.1732E-03
            1033            1668     34.6575E-03     34.2992E-03
            1033            1684     36.0195E-03     36.1776E-03
            1033            1685     36.2498E-03     36.6250E-03
            1034            1668     34.6575E-03     34.2992E-03
            1034            1669     33.6556E-03     33.6214E-03
            1034            1685     36.2498E-03     36.6250E-03
            1034            1686     36.4966E-03     36.9285E-03
            1035            1669     33.6556E-03     33.6214E-03
            1035            1670     34.3442E-03     34.1443E-03
            1035            1686     36.4966E-03     36.9285E-03
            1035            1687     38.4287E-03     38.3844E-03
            1036             141     40.0470E-03     39.5925E-03
            1036             142     35.7656E-03     35.2298E-03
            1036            1670     34.3442E-03     34.1443E-03
            1036            1687     38.4287E-03     38.3844E-03
            1037             401     13.9987E-03     14.6325E-03
            1037             402     13.8266E-03     13.9281E-03
            1037            1671     13.9858E-03     14.4210E-03
            1037            1688     14.3337E-03     14.9436E-03
            1038            1671     13.9858E-03     14.4210E-03
            1038            1672     15.0846E-03     15.7890E-03
            1038            1688     14.3337E-03     14.9436E-03
            1038            1689     15.5228E-03     16.1819E-03
            1039            1672     15.0846E-03     15.7890E-03
            1039            1673     17.2213E-03     17.5900E-03
            1039            1689     15.5228E-03     16.1819E-03
            1039            1690     17.4411E-03     18.0896E-03
            1040            1673     17.2213E-03     17.5900E-03
            1040            1674     19.5151E-03     19.5037E-03
            1040            1690     17.4411E-03     18.0896E-03
            1040            1691     19.5983E-03     20.0360E-03
            1041            1674     19.5151E-03     19.5037E-03
            1041            1675     21.6222E-03     21.4510E-03
            1041            1691     19.5983E-03     20.0360E-03
            1041            1692     21.6914E-03     21.9543E-03
            1042            1675     21.6222E-03     21.4510E-03
            1042            1676     23.5911E-03     23.3445E-03
            1042            1692     21.6914E-03     21.9543E-03
            1042            1693     23.6629E-03     23.8488E-03
            1043            1676     23.5911E-03     23.3445E-03
            1043            1677     25.4742E-03     25.2014E-03
            1043            1693     23.6629E-03     23.8488E-03
            1043            1694     25.5699E-03     25.7190E-03
            1044            1677     25.4742E-03     25.2014E-03
            1044            1678     27.3068E-03     27.0283E-03
            1044            1694     25.5699E-03     25.7190E-03
            1044            1695     27.4300E-03     27.5810E-03
            1045            1678     27.3068E-03     27.0283E-03
            1045            1679     29.0952E-03     28.8279E-03
            1045            1695     27.4300E-03     27.5810E-03
            1045            1696     29.2771E-03     29.4458E-03
            1046            1679     29.0952E-03     28.8279E-03
            1046            1680     30.8397E-03     30.5914E-03
            1046            1696     29.2771E-03     29.4458E-03
            1046            1697     31.0868E-03     31.3002E-03
            1047            1680     30.8397E-03     30.5914E-03
            1047            1681     32.4909E-03     32.2861E-03
            1047            1697     31.0868E-03     31.3002E-03
            1047            1698     32.8585E-03     33.1281E-03
            1048            1681     32.4909E-03     32.2861E-03
            1048            1682     33.9907E-03     33.8529E-03
            1048            1698     32.8585E-03     33.1281E-03
            1048            1699     34.5085E-03     34.8760E-03
            1049            1682     33.9907E-03     33.8529E-03
            1049            1683     35.2127E-03     35.1894E-03
            1049            1699     34.5085E-03     34.8760E-03
            1049            1700     35.9869E-03     36.4711E-03
            1050            1683     35.2127E-03     35.1894E-03
            1050            1684     36.0195E-03     36.1776E-03
            1050            1700     35.9869E-03     36.4711E-03
            1050            1701     37.1764E-03     37.8012E-03
            1051            1684     36.0195E-03     36.1776E-03
            1051            1685     36.2498E-03     36.6250E-03
            1051            1701     37.1764E-03     37.8012E-03
            1051            1702     38.1782E-03     38.8902E-03
            1052            1685     36.2498E-03     36.6250E-03
            1052            1686     36.4966E-03     36.9285E-03
            1052            1702     38.1782E-03     38.8902E-03
            1052            1703     39.5915E-03     40.1040E-03
            1053            1686     36.4966E-03     36.9285E-03
            1053            1687     38.4287E-03     38.3844E-03
            1053            1703     39.5915E-03     40.1040E-03
            1053            1704     42.1043E-03     42.3094E-03
            1054             140     43.7289E-03     43.8113E-03
            1054             141     40.0470E-03     39.5925E-03
            1054            1687     38.4287E-03     38.3844E-03
            1054            1704     42.1043E-03     42.3094E-03
            1055             400     14.6428E-03     15.0057E-03
            1055             401     13.9987E-03     14.6325E-03
            1055            1688     14.3337E-03     14.9436E-03
            1055            1705     14.9476E-03     15.5655E-03
            1056            1688     14.3337E-03     14.9436E-03
            1056            1689     15.5228E-03     16.1819E-03
            1056            1705     14.9476E-03     15.5655E-03
            1056            1706     16.0576E-03     16.9025E-03
            1057            1689     15.5228E-03     16.1819E-03
            1057            1690     17.4411E-03     18.0896E-03
            1057            1706     16.0576E-03     16.9025E-03
            1057            1707     17.8248E-03     18.6335E-03
            1058            1690     17.4411E-03     18.0896E-03
            1058            1691     19.5983E-03     20.0360E-03
            1058            1707     17.8248E-03     18.6335E-03
            1058            1708     19.7430E-03     20.4976E-03
            1059            1691     19.5983E-03     20.0360E-03
            1059            1692     21.6914E-03     21.9543E-03
            1059            1708     19.7430E-03     20.4976E-03
            1059            1709     21.6767E-03     22.3289E-03
            1060            1692     21.6914E-03     21.9543E-03
            1060            1693     23.6629E-03     23.8488E-03
            1060            1709     21.6767E-03     22.3289E-03
            1060            1710     23.5718E-03     24.1534E-03
            1061            1693     23.6629E-03     23.8488E-03
            1061            1694     25.5699E-03     25.7190E-03
            1061            1710     23.5718E-03     24.1534E-03
            1061            1711     25.4213E-03     25.9817E-03
            1062            1694     25.5699E-03     25.7190E-03
            1062            1695     27.4300E-03     27.5810E-03
            1062            1711     25.4213E-03     25.9817E-03
            1062            1712     27.2775E-03     27.8378E-03
            1063            1695     27.4300E-03     27.5810E-03
            1063            1696     29.2771E-03     29.4458E-03
            1063            1712     27.2775E-03     27.8378E-03
            1063            1713     29.1254E-03     29.7152E-03
            1064            1696     29.2771E-03     29.4458E-03
            1064            1697     31.0868E-03     31.3002E-03
            1064            1713     29.1254E-03     29.7152E-03
            1064            1714     30.9935E-03     31.6247E-03
            1065            1697     31.0868E-03     31.3002E-03
            1065            1698     32.8585E-03     33.1281E-03
            1065            1714     30.9935E-03     31.6247E-03
            1065            1715     32.8437E-03     33.5460E-03
            1066            1698     32.8585E-03     33.1281E-03
            1066            1699     34.5085E-03     34.8760E-03
            1066            1715     32.8437E-03     33.5460E-03
            1066            1716     34.7015E-03     35.4704E-03
            1067            1699     34.5085E-03     34.8760E-03
            1067            1700     35.9869E-03     36.4711E-03
            1067            1716     34.7015E-03     35.4704E-03
            1067            1717     36.4926E-03     37.3568E-03
            1068            1700     35.9869E-03     36.4711E-03
            1068            1701     37.1764E-03     37.8012E-03
            1068            1717     36.4926E-03     37.3568E-03
            1068            1718     38.2549E-03     39.1713E-03
            1069            1701     37.1764E-03     37.8012E-03
            1069            1702     38.1782E-03     38.8902E-03
            1069            1718     38.2549E-03     39.1713E-03
            1069            1719     40.1465E-03     40.9799E-03
            1070            1702     38.1782E-03     38.8902E-03
            1070            1703     39.5915E-03     40.1040E-03
            1070            1719     40.1465E-03     40.9799E-03
            1070            1720     42.3982E-03     43.0893E-03
            1071            1703     39.5915E-03     40.1040E-03
            1071            1704     42.1043E-03     42.3094E-03
            1071            1720     42.3982E-03     43.0893E-03
            1071            1721     45.6470E-03     45.9856E-03
            1072             139     47.6123E-03     47.6864E-03
            1072             140     43.7289E-03     43.8113E-03
            1072            1704     42.1043E-03     42.3094E-03
            1072            1721     45.6470E-03     45.9856E-03
            1073             399     15.1920E-03     15.9606E-03
            1073             400     14.6428E-03     15.0057E-03
            1073            1705     14.9476E-03     15.5655E-03
            1073            1722     15.6459E-03     16.4483E-03
            1074            1705     14.9476E-03     15.5655E-03
            1074            1706     16.0576E-03     16.9025E-03
            1074            1722     15.6459E-03     16.4483E-03
            1074            1723     16.7709E-03     17.7164E-03
            1075            1706     16.0576E-03     16.9025E-03
            1075            1707     17.8248E-03     18.6335E-03
            1075            1723     16.7709E-03     17.7164E-03
            1075            1724     18.2298E-03     19.2702E-03
            1076            1707     17.8248E-03     18.6335E-03
            1076            1708     19.7430E-03     20.4976E-03
            1076            1724     18.2298E-03     19.2702E-03
            1076            1725     19.8916E-03     20.9011E-03
            1077            1708     19.7430E-03     20.4976E-03
            1077            1709     21.6767E-03     22.3289E-03
            1077            1725     19.8916E-03     20.9011E-03
            1077            1726     21.5934E-03     22.5761E-03
            1078            1709     21.6767E-03     22.3289E-03
            1078            1710     23.5718E-03     24.1534E-03
            1078            1726     21.5934E-03     22.5761E-03
            1078            1727     23.3141E-03     24.2695E-03
            1079            1710     23.5718E-03     24.1534E-03
            1079            1711     25.4213E-03     25.9817E-03
            1079            1727     23.3141E-03     24.2695E-03
            1079            1728     25.0899E-03     26.0312E-03
            1080            1711     25.4213E-03     25.9817E-03
            1080            1712     27.2775E-03     27.8378E-03
            1080            1728     25.0899E-03     26.0312E-03
            1080            1729     26.8826E-03     27.8350E-03
            1081            1712     27.2775E-03     27.8378E-03
            1081            1713     29.1254E-03     29.7152E-03
            1081            1729     26.8826E-03     27.8350E-03
            1081            1730     28.7223E-03     29.6994E-03
            1082            1713     29.1254E-03     29.7152E-03
            1082            1714     30.9935E-03     31.6247E-03
            1082            1730     28.7223E-03     29.6994E-03
            1082            1731     30.5938E-03     31.6156E-03
            1083            1714     30.9935E-03     31.6247E-03
            1083            1715     32.8437E-03     33.5460E-03
            1083            1731     30.5938E-03     31.6156E-03
            1083            1732     32.5397E-03     33.6078E-03
            1084            1715     32.8437E-03     33.5460E-03
            1084            1716     34.7015E-03     35.4704E-03
            1084            1732     32.5397E-03     33.6078E-03
            1084            1733     34.5467E-03     35.6775E-03
            1085            1716     34.7015E-03     35.4704E-03
            1085            1717     36.4926E-03     37.3568E-03
            1085            1733     34.5467E-03     35.6775E-03
            1085            1734     36.7334E-03     37.8695E-03
            1086            1717     36.4926E-03     37.3568E-03
            1086            1718     38.2549E-03     39.1713E-03
            1086            1734     36.7334E-03     37.8695E-03
            1086            1735     39.1176E-03     40.2372E-03
            1087            1718     38.2549E-03     39.1713E-03
            1087            1719     40.1465E-03     40.9799E-03
            1087            1735     39.1176E-03     40.2372E-03
            1087            1736     41.8156E-03     42.8348E-03
            1088            1719     40.1465E-03     40.9799E-03
            1088            1720     42.3982E-03     43.0893E-03
            1088            1736     41.8156E-03     42.8348E-03
            1088            1737     45.0821E-03     45.8121E-03
            1089            1720     42.3982E-03     43.0893E-03
            1089            1721     45.6470E-03     45.9856E-03
            1089            1737     45.0821E-03     45.8121E-03
            1089            1738     48.9692E-03     49.5640E-03
            1090             138     51.0877E-03     51.7135E-03
            1090             139     47.6123E-03     47.6864E-03
            1090            1721     45.6470E-03     45.9856E-03
            1090            1738     48.9692E-03     49.5640E-03
            1091             398     16.2721E-03     17.0288E-03
            1091             399     15.1920E-03     15.9606E-03
            1091            1722     15.6459E-03     16.4483E-03
            1091            1739     16.6244E-03     17.5643E-03
            1092            1722     15.6459E-03     16.4483E-03
            1092            1723     16.7709E-03     17.7164E-03
            1092            1739     16.6244E-03     17.5643E-03
            1092            1740     17.5108E-03     18.6664E-03
            1093            1723     16.7709E-03     17.7164E-03
            1093            1724     18.2298E-03     19.2702E-03
            1093            1740     17.5108E-03     18.6664E-03
            1093            1741     18.7029E-03     19.9308E-03
            1094            1724     18.2298E-03     19.2702E-03
            1094            1725     19.8916E-03     20.9011E-03
            1094            1741     18.7029E-03     19.9308E-03
            1094            1742     19.9826E-03     21.2661E-03
            1095            1725     19.8916E-03     20.9011E-03
            1095            1726     21.5934E-03     22.5761E-03
            1095            1742     19.9826E-03     21.2661E-03
            1095            1743     21.3820E-03     22.6827E-03
            1096            1726     21.5934E-03     22.5761E-03
            1096            1727     23.3141E-03     24.2695E-03
            1096            1743     21.3820E-03     22.6827E-03
            1096            1744     22.9583E-03     24.2626E-03
            1097            1727     23.3141E-03     24.2695E-03
            1097            1728     25.0899E-03     26.0312E-03
            1097            1744     22.9583E-03     24.2626E-03
            1097            1745     24.6115E-03     25.9197E-03
            1098            1728     25.0899E-03     26.0312E-03
            1098            1729     26.8826E-03     27.8350E-03
            1098            1745     24.6115E-03     25.9197E-03
            1098            1746     26.3450E-03     27.6654E-03
            1099            1729     26.8826E-03     27.8350E-03
            1099            1730     28.7223E-03     29.6994E-03
            1099            1746     26.3450E-03     27.6654E-03
            1099            1747     28.1361E-03     29.4788E-03
            1100            1730     28.7223E-03     29.6994E-03
            1100            1731     30.5938E-03     31.6156E-03
            1100            1747     28.1361E-03     29.4788E-03
            1100            1748     30.0067E-03     31.3805E-03
            1101            1731     30.5938E-03     31.6156E-03
            1101            1732     32.5397E-03     33.6078E-03
            1101            1748     30.0067E-03     31.3805E-03
            1101            1749     31.9775E-03     33.3875E-03
            1102            1732     32.5397E-03     33.6078E-03
            1102            1733     34.5467E-03     35.6775E-03
            1102            1749     31.9775E-03     33.3875E-03
            1102            1750     34.1412E-03     35.5706E-03
            1103            1733     34.5467E-03     35.6775E-03
            1103            1734     36.7334E-03     37.8695E-03
            1103            1750     34.1412E-03     35.5706E-03
            1103            1751     36.5638E-03     37.9984E-03
            1104            1734     36.7334E-03     37.8695E-03
            1104            1735     39.1176E-03     40.2372E-03
            1104            1751     36.5638E-03     37.9984E-03
            1104            1752     39.5553E-03     40.8536E-03
            1105            1735     39.1176E-03     40.2372E-03
            1105            1736     41.8156E-03     42.8348E-03
            1105            1752     39.5553E-03     40.8536E-03
            1105            1753     43.1678E-03     44.2955E-03
            1106            1736     41.8156E-03     42.8348E-03
            1106            1737     45.0821E-03     45.8121E-03
            1106            1753     43.1678E-03     44.2955E-03
            1106            1754     47.3641E-03     48.3674E-03
            1107            1737     45.0821E-03     45.8121E-03
            1107            1738     48.9692E-03     49.5640E-03
            1107            1754     47.3641E-03     48.3674E-03
            1107            1755     52.3673E-03     52.9709E-03
            1108             137     55.0663E-03     55.3630E-03
            1108             138     51.0877E-03     51.7135E-03
            1108            1738     48.9692E-03     49.5640E-03
            1108            1755     52.3673E-03     52.9709E-03
            1109             397     17.4410E-03     18.5677E-03
            1109             398     16.2721E-03     17.0288E-03
            1109            1739     16.6244E-03     17.5643E-03
            1109            1756     17.7963E-03     18.9666E-03
            1110            1739     16.6244E-03     17.5643E-03
            1110            1740     17.5108E-03     18.6664E-03
            1110            1756     17.7963E-03     18.9666E-03
            1110            1757     18.5162E-03     19.8222E-03
            1111            1740     17.5108E-03     18.6664E-03
            1111            1741     18.7029E-03     19.9308E-03
            1111            1757     18.5162E-03     19.8222E-03
            1111            1758     19.1046E-03     20.5784E-03
            1112            1741     18.7029E-03     19.9308E-03
            1112            1742     19.9826E-03     21.2661E-03
            1112            1758     19.1046E-03     20.5784E-03
            1112            1759     19.8813E-03     21.4682E-03
            1113            1742     19.9826E-03     21.2661E-03
            1113            1743     21.3820E-03     22.6827E-03
            1113            1759     19.8813E-03     21.4682E-03
            1113            1760     21.0995E-03     22.7325E-03
            1114            1743     21.3820E-03     22.6827E-03
            1114            1744     22.9583E-03     24.2626E-03
            1114            1760     21.0995E-03     22.7325E-03
            1114            1761     22.5163E-03     24.1682E-03
            1115            1744     22.9583E-03     24.2626E-03
            1115            1745     24.6115E-03     25.9197E-03
            1115            1761     22.5163E-03     24.1682E-03
            1115            1762     24.0789E-03     25.7462E-03
            1116            1745     24.6115E-03     25.9197E-03
            1116            1746     26.3450E-03     27.6654E-03
            1116            1762     24.0789E-03     25.7462E-03
            1116            1763     25.7411E-03     27.4172E-03
            1117            1746     26.3450E-03     27.6654E-03
            1117            1747     28.1361E-03     29.4788E-03
            1117            1763     25.7411E-03     27.4172E-03
            1117            1764     27.4822E-03     29.1728E-03
            1118            1747     28.1361E-03     29.4788E-03
            1118            1748     30.0067E-03     31.3805E-03
            1118            1764     27.4822E-03     29.1728E-03
            1118            1765     29.3207E-03     31.0237E-03
            1119            1748     30.0067E-03     31.3805E-03
            1119            1749     31.9775E-03     33.3875E-03
            1119            1765     29.3207E-03     31.0237E-03
            1119            1766     31.2943E-03     33.0148E-03
            1120            1749     31.9775E-03     33.3875E-03
            1120            1750     34.1412E-03     35.5706E-03
            1120            1766     31.2943E-03     33.0148E-03
            1120            1767     33.4951E-03     35.2195E-03
            1121            1750     34.1412E-03     35.5706E-03
            1121            1751     36.5638E-03     37.9984E-03
            1121            1767     33.4951E-03     35.2195E-03
            1121            1768     36.0964E-03     37.7966E-03
            1122            1751     36.5638E-03     37.9984E-03
            1122            1752     39.5553E-03     40.8536E-03
            1122            1768     36.0964E-03     37.7966E-03
            1122            1769     39.2895E-03     40.9254E-03
            1123            1752     39.5553E-03     40.8536E-03
            1123            1753     43.1678E-03     44.2955E-03
            1123            1769     39.2895E-03     40.9254E-03
            1123            1770     43.7685E-03     45.0624E-03
            1124            1753     43.1678E-03     44.2955E-03
            1124            1754     47.3641E-03     48.3674E-03
            1124            1770     43.7685E-03     45.0624E-03
            1124            1771     49.4259E-03     50.3589E-03
            1125            1754     47.3641E-03     48.3674E-03
            1125            1755     52.3673E-03     52.9709E-03
            1125            1771     49.4259E-03     50.3589E-03
            1125            1772     55.4456E-03     56.5452E-03
            1126             136     58.5192E-03     59.8569E-03
            1126             137     55.0663E-03     55.3630E-03
            1126            1755     52.3673E-03     52.9709E-03
            1126            1772     55.4456E-03     56.5452E-03
            1127             396     19.6883E-03     20.7208E-03
            1127             397     17.4410E-03     18.5677E-03
            1127            1756     17.7963E-03     18.9666E-03
            1127            1773     19.8291E-03     21.0452E-03
            1128            1756     17.7963E-03     18.9666E-03
            1128            1757     18.5162E-03     19.8222E-03
            1128            1773     19.8291E-03     21.0452E-03
            1128            1774     19.4524E-03     21.0265E-03
            1129            1757     18.5162E-03     19.8222E-03
            1129            1758     19.1046E-03     20.5784E-03
            1129            1774     19.4524E-03     21.0265E-03
            1129            1775     19.0639E-03     20.8948E-03
            1130            1758     19.1046E-03     20.5784E-03
            1130            1759     19.8813E-03     21.4682E-03
            1130            1775     19.0639E-03     20.8948E-03
            1130            1776     19.6761E-03     21.6099E-03
            1131            1759     19.8813E-03     21.4682E-03
            1131            1760     21.0995E-03     22.7325E-03
            1131            1776     19.6761E-03     21.6099E-03
            1131            1777     20.7460E-03     22.7283E-03
            1132            1760     21.0995E-03     22.7325E-03
            1132            1761     22.5163E-03     24.1682E-03
            1132            1777     20.7460E-03     22.7283E-03
            1132            1778     22.0614E-03     24.0778E-03
            1133            1761     22.5163E-03     24.1682E-03
            1133            1762     24.0789E-03     25.7462E-03
            1133            1778     22.0614E-03     24.0778E-03
            1133            1779     23.5599E-03     25.5871E-03
            1134            1762     24.0789E-03     25.7462E-03
            1134            1763     25.7411E-03     27.4172E-03
            1134            1779     23.5599E-03     25.5871E-03
            1134            1780     25.1565E-03     27.1908E-03
            1135            1763     25.7411E-03     27.4172E-03
            1135            1764     27.4822E-03     29.1728E-03
            1135            1780     25.1565E-03     27.1908E-03
            1135            1781     26.8566E-03     28.8851E-03
            1136            1764     27.4822E-03     29.1728E-03
            1136            1765     29.3207E-03     31.0237E-03
            1136            1781     26.8566E-03     28.8851E-03
            1136            1782     28.6493E-03     30.6726E-03
            1137            1765     29.3207E-03     31.0237E-03
            1137            1766     31.2943E-03     33.0148E-03
            1137            1782     28.6493E-03     30.6726E-03
            1137            1783     30.6039E-03     32.6100E-03
            1138            1766     31.2943E-03     33.0148E-03
            1138            1767     33.4951E-03     35.2195E-03
            1138            1783     30.6039E-03     32.6100E-03
            1138            1784     32.7837E-03     34.7812E-03
            1139            1767     33.4951E-03     35.2195E-03
            1139            1768     36.0964E-03     37.7966E-03
            1139            1784     32.7837E-03     34.7812E-03
            1139            1785     35.3832E-03     37.3523E-03
            1140            1768     36.0964E-03     37.7966E-03
            1140            1769     39.2895E-03     40.9254E-03
            1140            1785     35.3832E-03     37.3523E-03
            1140            1786     38.6522E-03     40.5935E-03
            1141            1769     39.2895E-03     40.9254E-03
            1141            1770     43.7685E-03     45.0624E-03
            1141            1786     38.6522E-03     40.5935E-03
            1141            1787     43.0429E-03     44.9092E-03
            1142            1770     43.7685E-03     45.0624E-03
            1142            1771     49.4259E-03     50.3589E-03
            1142            1787     43.0429E-03     44.9092E-03
            1142            1788     50.0910E-03     51.3456E-03
            1143            1771     49.4259E-03     50.3589E-03
            1143            1772     55.4456E-03     56.5452E-03
            1143            1788     50.0910E-03     51.3456E-03
            1143            1789     58.7960E-03     59.1061E-03
            1144             135     63.0293E-03     62.9197E-03
            1144             136     58.5192E-03     59.8569E-03
            1144            1772     55.4456E-03     56.5452E-03
            1144            1789     58.7960E-03     59.1061E-03
            1145             395     23.3653E-03     25.0565E-03
            1145             396     19.6883E-03     20.7208E-03
            1145            1773     19.8291E-03     21.0452E-03
            1145            1790     21.7327E-03     23.5984E-03
            1146            1773     19.8291E-03     21.0452E-03
            1146            1774     19.4524E-03     21.0265E-03
            1146            1790     21.7327E-03     23.5984E-03
            1146            1791     19.3040E-03     21.4377E-03
            1147            1774     19.4524E-03     21.0265E-03
            1147            1775     19.0639E-03     20.8948E-03
            1147            1791     19.3040E-03     21.4377E-03
            1147            1792     18.7847E-03     21.0338E-03
            1148            1775     19.0639E-03     20.8948E-03
            1148            1776     19.6761E-03     21.6099E-03
            1148            1792     18.7847E-03     21.0338E-03
            1148            1793     19.4078E-03     21.7171E-03
            1149            1776     19.6761E-03     21.6099E-03
            1149            1777     20.7460E-03     22.7283E-03
            1149            1793     19.4078E-03     21.7171E-03
            1149            1794     20.3808E-03     22.7442E-03
            1150            1777     20.7460E-03     22.7283E-03
            1150            1778     22.0614E-03     24.0778E-03
            1150            1794     20.3808E-03     22.7442E-03
            1150            1795     21.6719E-03     24.0636E-03
            1151            1778     22.0614E-03     24.0778E-03
            1151            1779     23.5599E-03     25.5871E-03
            1151            1795     21.6719E-03     24.0636E-03
            1151            1796     23.0996E-03     25.5070E-03
            1152            1779     23.5599E-03     25.5871E-03
            1152            1780     25.1565E-03     27.1908E-03
            1152            1796     23.0996E-03     25.5070E-03
            1152            1797     24.6643E-03     27.0651E-03
            1153            1780     25.1565E-03     27.1908E-03
            1153            1781     26.8566E-03     28.8851E-03
            1153            1797     24.6643E-03     27.0651E-03
            1153            1798     26.3149E-03     28.6954E-03
            1154            1781     26.8566E-03     28.8851E-03
            1154            1782     28.6493E-03     30.6726E-03
            1154            1798     26.3149E-03     28.6954E-03
            1154            1799     28.0931E-03     30.4326E-03
            1155            1782     28.6493E-03     30.6726E-03
            1155            1783     30.6039E-03     32.6100E-03
            1155            1799     28.0931E-03     30.4326E-03
            1155            1800     30.0096E-03     32.3010E-03
            1156            1783     30.6039E-03     32.6100E-03
            1156            1784     32.7837E-03     34.7812E-03
            1156            1800     30.0096E-03     32.3010E-03
            1156            1801     32.1889E-03     34.4170E-03
            1157            1784     32.7837E-03     34.7812E-03
            1157            1785     35.3832E-03     37.3523E-03
            1157            1801     32.1889E-03     34.4170E-03
            1157            1802     34.7075E-03     36.8963E-03
            1158            1785     35.3832E-03     37.3523E-03
            1158            1786     38.6522E-03     40.5935E-03
            1158            1802     34.7075E-03     36.8963E-03
            1158            1803     37.9005E-03     40.0735E-03
            1159            1786     38.6522E-03     40.5935E-03
            1159            1787     43.0429E-03     44.9092E-03
            1159            1803     37.9005E-03     40.0735E-03
            1159            1804     42.0136E-03     44.2805E-03
            1160            1787     43.0429E-03     44.9092E-03
            1160            1788     50.0910E-03     51.3456E-03
            1160            1804     42.0136E-03     44.2805E-03
            1160            1805     48.2688E-03     50.8134E-03
            1161            1788     50.0910E-03     51.3456E-03
            1161            1789     58.7960E-03     59.1061E-03
            1161            1805     48.2688E-03     50.8134E-03
            1161            1806     59.4554E-03     61.6180E-03
            1162             134     66.6337E-03     68.2526E-03
            1162             135     63.0293E-03     62.9197E-03
            1162            1789     58.7960E-03     59.1061E-03
            1162            1806     59.4554E-03     61.6180E-03
            1163             394     26.3107E-03     27.3210E-03
            1163             395     23.3653E-03     25.0565E-03
            1163            1790     21.7327E-03     23.5984E-03
            1163            1807     25.3044E-03     26.0755E-03
            1164            1790     21.7327E-03     23.5984E-03
            1164            1791     19.3040E-03     21.4377E-03
            1164            1807     25.3044E-03     26.0755E-03
            1164            1808     24.6176E-03     25.1940E-03
            1165            1791     19.3040E-03     21.4377E-03
            1165            1792     18.7847E-03     21.0338E-03
            1165            1808     24.6176E-03     25.1940E-03
            1165            1809     25.6587E-03     26.3802E-03
            1166            1792     18.7847E-03     21.0338E-03
            1166            1793     19.4078E-03     21.7171E-03
            1166            1809     25.6587E-03     26.3802E-03
            1166            1810     27.2569E-03     28.1384E-03
            1167            1793     19.4078E-03     21.7171E-03
            1167            1794     20.3808E-03     22.7442E-03
            1167            1810     27.2569E-03     28.1384E-03
            1167            1811     29.1564E-03     30.1304E-03
            1168            1794     20.3808E-03     22.7442E-03
            1168            1795     21.6719E-03     24.0636E-03
            1168            1811     29.1564E-03     30.1304E-03
            1168            1812     31.2161E-03     32.2397E-03
            1169            1795     21.6719E-03     24.0636E-03
            1169            1796     23.0996E-03     25.5070E-03
            1169            1812     31.2161E-03     32.2397E-03
            1169            1813     33.3582E-03     34.3856E-03
            1170            1796     23.0996E-03     25.5070E-03
            1170            1797     24.6643E-03     27.0651E-03
            1170            1813     33.3582E-03     34.3856E-03
            1170            1814     35.5415E-03     36.5446E-03
            1171            1797     24.6643E-03     27.0651E-03
            1171            1798     26.3149E-03     28.6954E-03
            1171            1814     35.5415E-03     36.5446E-03
            1171            1815     37.7497E-03     38.6859E-03
            1172            1798     26.3149E-03     28.6954E-03
            1172            1799     28.0931E-03     30.4326E-03
            1172            1815     37.7497E-03     38.6859E-03
            1172            1816     39.9629E-03     40.8154E-03
            1173            1799     28.0931E-03     30.4326E-03
            1173            1800     30.0096E-03     32.3010E-03
            1173            1816     39.9629E-03     40.8154E-03
            1173            1817     42.2090E-03     42.9197E-03
            1174            1800     30.0096E-03     32.3010E-03
            1174            1801     32.1889E-03     34.4170E-03
            1174            1817     42.2090E-03     42.9197E-03
            1174            1818     44.4660E-03     45.0380E-03
            1175            1801     32.1889E-03     34.4170E-03
            1175            1802     34.7075E-03     36.8963E-03
            1175            1818     44.4660E-03     45.0380E-03
            1175            1819     46.8348E-03     47.1897E-03
            1176            1802     34.7075E-03     36.8963E-03
            1176            1803     37.9005E-03     40.0735E-03
            1176            1819     46.8348E-03     47.1897E-03
            1176            1820     49.2668E-03     49.4797E-03
            1177            1803     37.9005E-03     40.0735E-03
            1177            1804     42.0136E-03     44.2805E-03
            1177            1820     49.2668E-03     49.4797E-03
            1177            1821     52.0705E-03     52.1017E-03
            1178            1804     42.0136E-03     44.2805E-03
            1178            1805     48.2688E-03     50.8134E-03
            1178            1821     52.0705E-03     52.1017E-03
            1178            1822     55.0977E-03     55.2803E-03
            1179            1805     48.2688E-03     50.8134E-03
            1179            1806     59.4554E-03     61.6180E-03
            1179            1822     55.0977E-03     55.2803E-03
            1179            1823     60.1365E-03     61.4736E-03
            1180             133     63.7947E-03     65.9037E-03
            1180             134     66.6337E-03     68.2526E-03
            1180            1806     59.4554E-03     61.6180E-03
            1180            1823     60.1365E-03     61.4736E-03
            1181             393     24.6981E-03     26.9789E-03
            1181             394     26.3107E-03     27.3210E-03
            1181            1807     25.3044E-03     26.0755E-03
            1181            1824     26.5825E-03     27.6479E-03
            1182            1807     25.3044E-03     26.0755E-03
            1182            1808     24.6176E-03     25.1940E-03
            1182            1824     26.5825E-03     27.6479E-03
            1182            1825     29.7371E-03     29.3662E-03
            1183            1808     24.6176E-03     25.1940E-03
            1183            1809     25.6587E-03     26.3802E-03
            1183            1825     29.7371E-03     29.3662E-03
            1183            1826     32.5058E-03     31.9331E-03
            1184            1809     25.6587E-03     26.3802E-03
            1184            1810     27.2569E-03     28.1384E-03
            1184            1826     32.5058E-03     31.9331E-03
            1184            1827     35.4462E-03     34.9423E-03
            1185            1810     27.2569E-03     28.1384E-03
            1185            1811     29.1564E-03     30.1304E-03
            1185            1827     35.4462E-03     34.9423E-03
            1185            1828     38.3970E-03     37.9684E-03
            1186            1811     29.1564E-03     30.1304E-03
            1186            1812     31.2161E-03     32.2397E-03
            1186            1828     38.3970E-03     37.9684E-03
            1186            1829     41.3854E-03     40.9941E-03
            1187            1812     31.2161E-03     32.2397E-03
            1187            1813     33.3582E-03     34.3856E-03
            1187            1829     41.3854E-03     40.9941E-03
            1187            1830     44.3479E-03     43.9612E-03
            1188            1813     33.3582E-03     34.3856E-03
            1188            1814     35.5415E-03     36.5446E-03
            1188            1830     44.3479E-03     43.9612E-03
            1188            1831     47.2849E-03     46.8628E-03
            1189            1814     35.5415E-03     36.5446E-03
            1189            1815     37.7497E-03     38.6859E-03
            1189            1831     47.2849E-03     46.8628E-03
            1189            1832     50.1607E-03     49.6790E-03
            1190            1815     37.7497E-03     38.6859E-03
            1190            1816     39.9629E-03     40.8154E-03
            1190            1832     50.1607E-03     49.6790E-03
            1190            1833     52.9648E-03     52.3876E-03
            1191            1816     39.9629E-03     40.8154E-03
            1191            1817     42.2090E-03     42.9197E-03
            1191            1833     52.9648E-03     52.3876E-03
            1191            1834     55.6537E-03     54.9556E-03
            1192            1817     42.2090E-03     42.9197E-03
            1192            1818     44.4660E-03     45.0380E-03
            1192            1834     55.6537E-03     54.9556E-03
            1192            1835     58.1836E-03     57.3351E-03
            1193            1818     44.4660E-03     45.0380E-03
            1193            1819     46.8348E-03     47.1897E-03
            1193            1835     58.1836E-03     57.3351E-03
            1193            1836     60.4857E-03     59.4580E-03
            1194            1819     46.8348E-03     47.1897E-03
            1194            1820     49.2668E-03     49.4797E-03
            1194            1836     60.4857E-03     59.4580E-03
            1194            1837     62.4435E-03     61.2424E-03
            1195            1820     49.2668E-03     49.4797E-03
            1195            1821     52.0705E-03     52.1017E-03
            1195            1837     62.4435E-03     61.2424E-03
            1195            1838     63.9114E-03     62.5474E-03
            1196            1821     52.0705E-03     52.1017E-03
            1196            1822     55.0977E-03     55.2803E-03
            1196            1838     63.9114E-03     62.5474E-03
            1196            1839     64.5339E-03     63.1325E-03
            1197            1822     55.0977E-03     55.2803E-03
            1197            1823     60.1365E-03     61.4736E-03
            1197            1839     64.5339E-03     63.1325E-03
            1197            1840     64.1997E-03     62.5864E-03
            1198             132     63.8317E-03     61.9696E-03
            1198             133     63.7947E-03     65.9037E-03
            1198            1823     60.1365E-03     61.4736E-03
            1198            1840     64.1997E-03     62.5864E-03
            1199             392     22.7890E-03     25.2780E-03
            1199             393     24.6981E-03     26.9789E-03
            1199            1824     26.5825E-03     27.6479E-03
            1199            1841     24.7217E-03     26.9560E-03
            1200            1824     26.5825E-03     27.6479E-03
            1200            1825     29.7371E-03     29.3662E-03
            1200            1841     24.7217E-03     26.9560E-03
            1200            1842     28.6064E-03     29.8616E-03
            1201            1825     29.7371E-03     29.3662E-03
            1201            1826     32.5058E-03     31.9331E-03
            1201            1842     28.6064E-03     29.8616E-03
            1201            1843     32.3077E-03     32.6320E-03
            1202            1826     32.5058E-03     31.9331E-03
            1202            1827     35.4462E-03     34.9423E-03
            1202            1843     32.3077E-03     32.6320E-03
            1202            1844     35.7180E-03     35.7823E-03
            1203            1827     35.4462E-03     34.9423E-03
            1203            1828     38.3970E-03     37.9684E-03
            1203            1844     35.7180E-03     35.7823E-03
            1203            1845     38.9897E-03     38.9784E-03
            1204            1828     38.3970E-03     37.9684E-03
            1204            1829     41.3854E-03     40.9941E-03
            1204            1845     38.9897E-03     38.9784E-03
            1204            1846     42.1872E-03     42.1561E-03
            1205            1829     41.3854E-03     40.9941E-03
            1205            1830     44.3479E-03     43.9612E-03
            1205            1846     42.1872E-03     42.1561E-03
            1205            1847     45.3377E-03     45.2995E-03
            1206            1830     44.3479E-03     43.9612E-03
            1206            1831     47.2849E-03     46.8628E-03
            1206            1847     45.3377E-03     45.2995E-03
            1206            1848     48.4474E-03     48.4021E-03
            1207            1831     47.2849E-03     46.8628E-03
            1207            1832     50.1607E-03     49.6790E-03
            1207            1848     48.4474E-03     48.4021E-03
            1207            1849     51.5264E-03     51.4614E-03
            1208            1832     50.1607E-03     49.6790E-03
            1208            1833     52.9648E-03     52.3876E-03
            1208            1849     51.5264E-03     51.4614E-03
            1208            1850     54.5445E-03     54.4642E-03
            1209            1833     52.9648E-03     52.3876E-03
            1209            1834     55.6537E-03     54.9556E-03
            1209            1850     54.5445E-03     54.4642E-03
            1209            1851     57.4835E-03     57.3797E-03
            1210            1834     55.6537E-03     54.9556E-03
            1210            1835     58.1836E-03     57.3351E-03
            1210            1851     57.4835E-03     57.3797E-03
            1210            1852     60.2693E-03     60.1656E-03
            1211            1835     58.1836E-03     57.3351E-03
            1211            1836     60.4857E-03     59.4580E-03
            1211            1852     60.2693E-03     60.1656E-03
            1211            1853     62.8172E-03     62.7384E-03
            1212            1836     60.4857E-03     59.4580E-03
            1212            1837     62.4435E-03     61.2424E-03
            1212            1853     62.8172E-03     62.7384E-03
            1212            1854     64.9818E-03     64.9937E-03
            1213            1837     62.4435E-03     61.2424E-03
            1213            1838     63.9114E-03     62.5474E-03
            1213            1854     64.9818E-03     64.9937E-03
            1213            1855     66.5652E-03     66.7637E-03
            1214            1838     63.9114E-03     62.5474E-03
            1214            1839     64.5339E-03     63.1325E-03
            1214            1855     66.5652E-03     66.7637E-03
            1214            1856     67.3484E-03     67.7549E-03
            1215            1839     64.5339E-03     63.1325E-03
            1215            1840     64.1997E-03     62.5864E-03
            1215            1856     67.3484E-03     67.7549E-03
            1215            1857     68.3553E-03     68.5563E-03
            1216             131     69.2136E-03     69.0919E-03
            1216             132     63.8317E-03     61.9696E-03
            1216            1840     64.1997E-03     62.5864E-03
            1216            1857     68.3553E-03     68.5563E-03
            1217             391     22.9141E-03     24.1026E-03
            1217             392     22.7890E-03     25.2780E-03
            1217            1841     24.7217E-03     26.9560E-03
            1217            1858     24.5387E-03     26.1036E-03
            1218            1841     24.7217E-03     26.9560E-03
            1218            1842     28.6064E-03     29.8616E-03
            1218            1858     24.5387E-03     26.1036E-03
            1218            1859     28.2347E-03     29.9507E-03
            1219            1842     28.6064E-03     29.8616E-03
            1219            1843     32.3077E-03     32.6320E-03
            1219            1859     28.2347E-03     29.9507E-03
            1219            1860     32.2336E-03     33.3693E-03
            1220            1843     32.3077E-03     32.6320E-03
            1220            1844     35.7180E-03     35.7823E-03
            1220            1860     32.2336E-03     33.3693E-03
            1220            1861     35.9574E-03     36.6217E-03
            1221            1844     35.7180E-03     35.7823E-03
            1221            1845     38.9897E-03     38.9784E-03
            1221            1861     35.9574E-03     36.6217E-03
            1221            1862     39.4548E-03     39.9406E-03
            1222            1845     38.9897E-03     38.9784E-03
            1222            1846     42.1872E-03     42.1561E-03
            1222            1862     39.4548E-03     39.9406E-03
            1222            1863     42.8077E-03     43.2068E-03
            1223            1846     42.1872E-03     42.1561E-03
            1223            1847     45.3377E-03     45.2995E-03
            1223            1863     42.8077E-03     43.2068E-03
            1223            1864     46.0861E-03     46.4617E-03
            1224            1847     45.3377E-03     45.2995E-03
            1224            1848     48.4474E-03     48.4021E-03
            1224            1864     46.0861E-03     46.4617E-03
            1224            1865     49.3297E-03     49.7025E-03
            1225            1848     48.4474E-03     48.4021E-03
            1225            1849     51.5264E-03     51.4614E-03
            1225            1865     49.3297E-03     49.7025E-03
            1225            1866     52.5406E-03     52.9362E-03
            1226            1849     51.5264E-03     51.4614E-03
            1226            1850     54.5445E-03     54.4642E-03
            1226            1866     52.5406E-03     52.9362E-03
            1226            1867     55.7310E-03     56.1561E-03
            1227            1850     54.5445E-03     54.4642E-03
            1227            1851     57.4835E-03     57.3797E-03
            1227            1867     55.7310E-03     56.1561E-03
            1227            1868     58.8493E-03     59.3403E-03
            1228            1851     57.4835E-03     57.3797E-03
            1228            1852     60.2693E-03     60.1656E-03
            1228            1868     58.8493E-03     59.3403E-03
            1228            1869     61.8565E-03     62.4339E-03
            1229            1852     60.2693E-03     60.1656E-03
            1229            1853     62.8172E-03     62.7384E-03
            1229            1869     61.8565E-03     62.4339E-03
            1229            1870     64.6403E-03     65.3584E-03
            1230            1853     62.8172E-03     62.7384E-03
            1230            1854     64.9818E-03     64.9937E-03
            1230            1870     64.6403E-03     65.3584E-03
            1230            1871     67.0617E-03     67.9819E-03
            1231            1854     64.9818E-03     64.9937E-03
            1231            1855     66.5652E-03     66.7637E-03
            1231            1871     67.0617E-03     67.9819E-03
            1231            1872     68.9969E-03     70.0950E-03
            1232            1855     66.5652E-03     66.7637E-03
            1232            1856     67.3484E-03     67.7549E-03
            1232            1872     68.9969E-03     70.0950E-03
            1232            1873     70.5260E-03     71.7000E-03
            1233            1856     67.3484E-03     67.7549E-03
            1233            1857     68.3553E-03     68.5563E-03
            1233            1873     70.5260E-03     71.7000E-03
            1233            1874     72.5659E-03     73.2675E-03
            1234             130     73.8890E-03     74.1355E-03
            1234             131     69.2136E-03     69.0919E-03
            1234            1857     68.3553E-03     68.5563E-03
            1234            1874     72.5659E-03     73.2675E-03
            1235             390     22.9277E-03     24.9789E-03
            1235             391     22.9141E-03     24.1026E-03
            1235            1858     24.5387E-03     26.1036E-03
            1235            1875     24.7536E-03     26.6007E-03
            1236            1858     24.5387E-03     26.1036E-03
            1236            1859     28.2347E-03     29.9507E-03
            1236            1875     24.7536E-03     26.6007E-03
            1236            1876     28.5180E-03     30.1738E-03
            1237            1859     28.2347E-03     29.9507E-03
            1237            1860     32.2336E-03     33.3693E-03
            1237            1876     28.5180E-03     30.1738E-03
            1237            1877     32.4097E-03     33.9262E-03
            1238            1860     32.2336E-03     33.3693E-03
            1238            1861     35.9574E-03     36.6217E-03
            1238            1877     32.4097E-03     33.9262E-03
            1238            1878     36.1985E-03     37.3847E-03
            1239            1861     35.9574E-03     36.6217E-03
            1239            1862     39.4548E-03     39.9406E-03
            1239            1878     36.1985E-03     37.3847E-03
            1239            1879     39.7603E-03     40.7051E-03
            1240            1862     39.4548E-03     39.9406E-03
            1240            1863     42.8077E-03     43.2068E-03
            1240            1879     39.7603E-03     40.7051E-03
            1240            1880     43.1711E-03     44.0137E-03
            1241            1863     42.8077E-03     43.2068E-03
            1241            1864     46.0861E-03     46.4617E-03
            1241            1880     43.1711E-03     44.0137E-03
            1241            1881     46.5081E-03     47.3029E-03
            1242            1864     46.0861E-03     46.4617E-03
            1242            1865     49.3297E-03     49.7025E-03
            1242            1881     46.5081E-03     47.3029E-03
            1242            1882     49.8071E-03     50.6113E-03
            1243            1865     49.3297E-03     49.7025E-03
            1243            1866     52.5406E-03     52.9362E-03
            1243            1882     49.8071E-03     50.6113E-03
            1243            1883     53.1102E-03     53.9482E-03
            1244            1866     52.5406E-03     52.9362E-03
            1244            1867     55.7310E-03     56.1561E-03
            1244            1883     53.1102E-03     53.9482E-03
            1244            1884     56.3962E-03     57.3094E-03
            1245            1867     55.7310E-03     56.1561E-03
            1245            1868     58.8493E-03     59.3403E-03
            1245            1884     56.3962E-03     57.3094E-03
            1245            1885     59.6752E-03     60.6803E-03
            1246            1868     58.8493E-03     59.3403E-03
            1246            1869     61.8565E-03     62.4339E-03
            1246            1885     59.6752E-03     60.6803E-03
            1246            1886     62.8735E-03     64.0200E-03
            1247            1869     61.8565E-03     62.4339E-03
            1247            1870     64.6403E-03     65.3584E-03
            1247            1886     62.8735E-03     64.0200E-03
            1247            1887     65.9348E-03     67.2428E-03
            1248            1870     64.6403E-03     65.3584E-03
            1248            1871     67.0617E-03     67.9819E-03
            1248            1887     65.9348E-03     67.2428E-03
            1248            1888     68.7556E-03     70.2134E-03
            1249            1871     67.0617E-03     67.9819E-03
            1249            1872     68.9969E-03     70.0950E-03
            1249            1888     68.7556E-03     70.2134E-03
            1249            1889     71.2457E-03     72.8152E-03
            1250            1872     68.9969E-03     70.0950E-03
            1250            1873     70.5260E-03     71.7000E-03
            1250            1889     71.2457E-03     72.8152E-03
            1250            1890     73.6886E-03     75.0311E-03
            1251            1873     70.5260E-03     71.7000E-03
            1251            1874     72.5659E-03     73.2675E-03
            1251            1890     73.6886E-03     75.0311E-03
            1251            1891     76.3644E-03     77.1825E-03
            1252             129     77.7795E-03     78.3144E-03
            1252             130     73.8890E-03     74.1355E-03
            1252            1874     72.5659E-03     73.2675E-03
            1252            1891     76.3644E-03     77.1825E-03
            1253             389     23.7924E-03     25.4287E-03
            1253             390     22.9277E-03     24.9789E-03
            1253            1875     24.7536E-03     26.6007E-03
            1253            1892     25.4532E-03     27.2728E-03
            1254            1875     24.7536E-03     26.6007E-03
            1254            1876     28.5180E-03     30.1738E-03
            1254            1892     25.4532E-03     27.2728E-03
            1254            1893     29.0368E-03     30.9167E-03
            1255            1876     28.5180E-03     30.1738E-03
            1255            1877     32.4097E-03     33.9262E-03
            1255            1893     29.0368E-03     30.9167E-03
            1255            1894     32.8228E-03     34.5076E-03
            1256            1877     32.4097E-03     33.9262E-03
            1256            1878     36.1985E-03     37.3847E-03
            1256            1894     32.8228E-03     34.5076E-03
            1256            1895     36.4384E-03     37.9616E-03
            1257            1878     36.1985E-03     37.3847E-03
            1257            1879     39.7603E-03     40.7051E-03
            1257            1895     36.4384E-03     37.9616E-03
            1257            1896     39.9054E-03     41.2519E-03
            1258            1879     39.7603E-03     40.7051E-03
            1258            1880     43.1711E-03     44.0137E-03
            1258            1896     39.9054E-03     41.2519E-03
            1258            1897     43.2629E-03     44.4947E-03
            1259            1880     43.1711E-03     44.0137E-03
            1259            1881     46.5081E-03     47.3029E-03
            1259            1897     43.2629E-03     44.4947E-03
            1259            1898     46.5603E-03     47.7561E-03
            1260            1881     46.5081E-03     47.3029E-03
            1260            1882     49.8071E-03     50.6113E-03
            1260            1898     46.5603E-03     47.7561E-03
            1260            1899     49.8685E-03     51.0688E-03
            1261            1882     49.8071E-03     50.6113E-03
            1261            1883     53.1102E-03     53.9482E-03
            1261            1899     49.8685E-03     51.0688E-03
            1261            1900     53.1835E-03     54.4357E-03
            1262            1883     53.1102E-03     53.9482E-03
            1262            1884     56.3962E-03     57.3094E-03
            1262            1900     53.1835E-03     54.4357E-03
            1262            1901     56.5418E-03     57.8704E-03
            1263            1884     56.3962E-03     57.3094E-03
            1263            1885     59.6752E-03     60.6803E-03
            1263            1901     56.5418E-03     57.8704E-03
            1263            1902     59.9126E-03     61.3593E-03
            1264            1885     59.6752E-03     60.6803E-03
            1264            1886     62.8735E-03     64.0200E-03
            1264            1902     59.9126E-03     61.3593E-03
            1264            1903     63.3235E-03     64.8899E-03
            1265            1886     62.8735E-03     64.0200E-03
            1265            1887     65.9348E-03     67.2428E-03
            1265            1903     63.3235E-03     64.8899E-03
            1265            1904     66.7021E-03     68.4084E-03
            1266            1887     65.9348E-03     67.2428E-03
            1266            1888     68.7556E-03     70.2134E-03
            1266            1904     66.7021E-03     68.4084E-03
            1266            1905     70.0145E-03     71.8129E-03
            1267            1888     68.7556E-03     70.2134E-03
            1267            1889     71.2457E-03     72.8152E-03
            1267            1905     70.0145E-03     71.8129E-03
            1267            1906     73.2773E-03     74.9906E-03
            1268            1889     71.2457E-03     72.8152E-03
            1268            1890     73.6886E-03     75.0311E-03
            1268            1906     73.2773E-03     74.9906E-03
            1268            1907     76.4567E-03     77.9507E-03
            1269            1890     73.6886E-03     75.0311E-03
            1269            1891     76.3644E-03     77.1825E-03
            1269            1907     76.4567E-03     77.9507E-03
            1269            1908     79.8759E-03     80.8590E-03
            1270             128     81.7079E-03     82.3227E-03
            1270             129     77.7795E-03     78.3144E-03
            1270            1891     76.3644E-03     77.1825E-03
            1270            1908     79.8759E-03     80.8590E-03
            1271             388     24.5581E-03     26.5752E-03
            1271             389     23.7924E-03     25.4287E-03
            1271            1892     25.4532E-03     27.2728E-03
            1271            1909     26.3304E-03     28.3172E-03
            1272            1892     25.4532E-03     27.2728E-03
            1272            1893     29.0368E-03     30.9167E-03
            1272            1909     26.3304E-03     28.3172E-03
            1272            1910     29.8711E-03     31.8371E-03
            1273            1893     29.0368E-03     30.9167E-03
            1273            1894     32.8228E-03     34.5076E-03
            1273            1910     29.8711E-03     31.8371E-03
            1273            1911     33.3201E-03     35.2184E-03
            1274            1894     32.8228E-03     34.5076E-03
            1274            1895     36.4384E-03     37.9616E-03
            1274            1911     33.3201E-03     35.2184E-03
            1274            1912     36.6665E-03     38.4255E-03
            1275            1895     36.4384E-03     37.9616E-03
            1275            1896     39.9054E-03     41.2519E-03
            1275            1912     36.6665E-03     38.4255E-03
            1275            1913     39.8947E-03     41.5458E-03
            1276            1896     39.9054E-03     41.2519E-03
            1276            1897     43.2629E-03     44.4947E-03
            1276            1913     39.8947E-03     41.5458E-03
            1276            1914     43.0703E-03     44.6454E-03
            1277            1897     43.2629E-03     44.4947E-03
            1277            1898     46.5603E-03     47.7561E-03
            1277            1914     43.0703E-03     44.6454E-03
            1277            1915     46.2860E-03     47.8309E-03
            1278            1898     46.5603E-03     47.7561E-03
            1278            1899     49.8685E-03     51.0688E-03
            1278            1915     46.2860E-03     47.8309E-03
            1278            1916     49.5232E-03     51.0831E-03
            1279            1899     49.8685E-03     51.0688E-03
            1279            1900     53.1835E-03     54.4357E-03
            1279            1916     49.5232E-03     51.0831E-03
            1279            1917     52.8217E-03     54.4288E-03
            1280            1900     53.1835E-03     54.4357E-03
            1280            1901     56.5418E-03     57.8704E-03
            1280            1917     52.8217E-03     54.4288E-03
            1280            1918     56.1744E-03     57.8615E-03
            1281            1901     56.5418E-03     57.8704E-03
            1281            1902     59.9126E-03     61.3593E-03
            1281            1918     56.1744E-03     57.8615E-03
            1281            1919     59.6265E-03     61.4085E-03
            1282            1902     59.9126E-03     61.3593E-03
            1282            1903     63.3235E-03     64.8899E-03
            1282            1919     59.6265E-03     61.4085E-03
            1282            1920     63.1680E-03     65.0671E-03
            1283            1903     63.3235E-03     64.8899E-03
            1283            1904     66.7021E-03     68.4084E-03
            1283            1920     63.1680E-03     65.0671E-03
            1283            1921     66.9058E-03     68.8625E-03
            1284            1904     66.7021E-03     68.4084E-03
            1284            1905     70.0145E-03     71.8129E-03
            1284            1921     66.9058E-03     68.8625E-03
            1284            1922     70.7913E-03     72.7762E-03
            1285            1905     70.0145E-03     71.8129E-03
            1285            1906     73.2773E-03     74.9906E-03
            1285            1922     70.7913E-03     72.7762E-03
            1285            1923     74.8085E-03     76.6948E-03
            1286            1906     73.2773E-03     74.9906E-03
            1286            1907     76.4567E-03     77.9507E-03
            1286            1923     74.8085E-03     76.6948E-03
            1286            1924     78.9782E-03     80.5026E-03
            1287            1907     76.4567E-03     77.9507E-03
            1287            1908     79.8759E-03     80.8590E-03
            1287            1924     78.9782E-03     80.5026E-03
            1287            1925     83.0995E-03     84.3261E-03
            1288             127     85.1417E-03     86.2941E-03
            1288             128     81.7079E-03     82.3227E-03
            1288            1908     79.8759E-03     80.8590E-03
            1288            1925     83.0995E-03     84.3261E-03
            1289             387     25.8993E-03     27.9852E-03
            1289             388     24.5581E-03     26.5752E-03
            1289            1909     26.3304E-03     28.3172E-03
            1289            1926     27.6068E-03     29.7112E-03
            1290            1909     26.3304E-03     28.3172E-03
            1290            1910     29.8711E-03     31.8371E-03
            1290            1926     27.6068E-03     29.7112E-03
            1290            1927     30.8684E-03     32.9737E-03
            1291            1910     29.8711E-03     31.8371E-03
            1291            1911     33.3201E-03     35.2184E-03
            1291            1927     30.8684E-03     32.9737E-03
            1291            1928     33.9476E-03     36.0005E-03
            1292            1911     33.3201E-03     35.2184E-03
            1292            1912     36.6665E-03     38.4255E-03
            1292            1928     33.9476E-03     36.0005E-03
            1292            1929     36.8259E-03     38.7952E-03
            1293            1912     36.6665E-03     38.4255E-03
            1293            1913     39.8947E-03     41.5458E-03
            1293            1929     36.8259E-03     38.7952E-03
            1293            1930     39.6696E-03     41.5699E-03
            1294            1913     39.8947E-03     41.5458E-03
            1294            1914     43.0703E-03     44.6454E-03
            1294            1930     39.6696E-03     41.5699E-03
            1294            1931     42.6601E-03     44.5294E-03
            1295            1914     43.0703E-03     44.6454E-03
            1295            1915     46.2860E-03     47.8309E-03
            1295            1931     42.6601E-03     44.5294E-03
            1295            1932     45.7191E-03     47.5769E-03
            1296            1915     46.2860E-03     47.8309E-03
            1296            1916     49.5232E-03     51.0831E-03
            1296            1932     45.7191E-03     47.5769E-03
            1296            1933     48.8675E-03     50.7436E-03
            1297            1916     49.5232E-03     51.0831E-03
            1297            1917     52.8217E-03     54.4288E-03
            1297            1933     48.8675E-03     50.7436E-03
            1297            1934     52.0903E-03     54.0050E-03
            1298            1917     52.8217E-03     54.4288E-03
            1298            1918     56.1744E-03     57.8615E-03
            1298            1934     52.0903E-03     54.0050E-03
            1298            1935     55.4079E-03     57.3856E-03
            1299            1918     56.1744E-03     57.8615E-03
            1299            1919     59.6265E-03     61.4085E-03
            1299            1935     55.4079E-03     57.3856E-03
            1299            1936     58.8477E-03     60.9002E-03
            1300            1919     59.6265E-03     61.4085E-03
            1300            1920     63.1680E-03     65.0671E-03
            1300            1936     58.8477E-03     60.9002E-03
            1300            1937     62.4996E-03     64.6220E-03
            1301            1920     63.1680E-03     65.0671E-03
            1301            1921     66.9058E-03     68.8625E-03
            1301            1937     62.4996E-03     64.6220E-03
            1301            1938     66.4139E-03     68.5980E-03
            1302            1921     66.9058E-03     68.8625E-03
            1302            1922     70.7913E-03     72.7762E-03
            1302            1938     66.4139E-03     68.5980E-03
            1302            1939     70.8892E-03     72.9702E-03
            1303            1922     70.7913E-03     72.7762E-03
            1303            1923     74.8085E-03     76.6948E-03
            1303            1939     70.8892E-03     72.9702E-03
            1303            1940     75.8216E-03     77.7728E-03
            1304            1923     74.8085E-03     76.6948E-03
            1304            1924     78.9782E-03     80.5026E-03
            1304            1940     75.8216E-03     77.7728E-03
            1304            1941     80.9743E-03     82.7704E-03
            1305            1924     78.9782E-03     80.5026E-03
            1305            1925     83.0995E-03     84.3261E-03
            1305            1941     80.9743E-03     82.7704E-03
            1305            1942     86.3263E-03     87.5109E-03
            1306             126     89.0009E-03     89.7254E-03
            1306             127     85.1417E-03     86.2941E-03
            1306            1925     83.0995E-03     84.3261E-03
            1306            1942     86.3263E-03     87.5109E-03
            1307             386     27.6767E-03     29.8175E-03
            1307             387     25.8993E-03     27.9852E-03
            1307            1926     27.6068E-03     29.7112E-03
            1307            1943     29.2845E-03     31.5091E-03
            1308            1926     27.6068E-03     29.7112E-03
            1308            1927     30.8684E-03     32.9737E-03
            1308            1943     29.2845E-03     31.5091E-03
            1308            1944     32.2773E-03     34.5367E-03
            1309            1927     30.8684E-03     32.9737E-03
            1309            1928     33.9476E-03     36.0005E-03
            1309            1944     32.2773E-03     34.5367E-03
            1309            1945     34.5867E-03     36.7572E-03
            1310            1928     33.9476E-03     36.0005E-03
            1310            1929     36.8259E-03     38.7952E-03
            1310            1945     34.5867E-03     36.7572E-03
            1310            1946     36.7380E-03     38.8804E-03
            1311            1929     36.8259E-03     38.7952E-03
            1311            1930     39.6696E-03     41.5699E-03
            1311            1946     36.7380E-03     38.8804E-03
            1311            1947     39.2978E-03     41.4425E-03
            1312            1930     39.6696E-03     41.5699E-03
            1312            1931     42.6601E-03     44.5294E-03
            1312            1947     39.2978E-03     41.4425E-03
            1312            1948     42.0524E-03     44.1935E-03
            1313            1931     42.6601E-03     44.5294E-03
            1313            1932     45.7191E-03     47.5769E-03
            1313            1948     42.0524E-03     44.1935E-03
            1313            1949     44.9664E-03     47.1210E-03
            1314            1932     45.7191E-03     47.5769E-03
            1314            1933     48.8675E-03     50.7436E-03
            1314            1949     44.9664E-03     47.1210E-03
            1314            1950     47.9977E-03     50.1631E-03
            1315            1933     48.8675E-03     50.7436E-03
            1315            1934     52.0903E-03     54.0050E-03
            1315            1950     47.9977E-03     50.1631E-03
            1315            1951     51.1184E-03     53.3106E-03
            1316            1934     52.0903E-03     54.0050E-03
            1316            1935     55.4079E-03     57.3856E-03
            1316            1951     51.1184E-03     53.3106E-03
            1316            1952     54.3540E-03     56.5712E-03
            1317            1935     55.4079E-03     57.3856E-03
            1317            1936     58.8477E-03     60.9002E-03
            1317            1952     54.3540E-03     56.5712E-03
            1317            1953     57.7317E-03     59.9924E-03
            1318            1936     58.8477E-03     60.9002E-03
            1318            1937     62.4996E-03     64.6220E-03
            1318            1953     57.7317E-03     59.9924E-03
            1318            1954     61.3496E-03     63.6419E-03
            1319            1937     62.4996E-03     64.6220E-03
            1319            1938     66.4139E-03     68.5980E-03
            1319            1954     61.3496E-03     63.6419E-03
            1319            1955     65.3750E-03     67.6832E-03
            1320            1938     66.4139E-03     68.5980E-03
            1320            1939     70.8892E-03     72.9702E-03
            1320            1955     65.3750E-03     67.6832E-03
            1320            1956     69.9756E-03     72.2688E-03
            1321            1939     70.8892E-03     72.9702E-03
            1321            1940     75.8216E-03     77.7728E-03
            1321            1956     69.9756E-03     72.2688E-03
            1321            1957     75.8598E-03     77.8178E-03
            1322            1940     75.8216E-03     77.7728E-03
            1322            1941     80.9743E-03     82.7704E-03
            1322            1957     75.8598E-03     77.8178E-03
            1322            1958     82.6153E-03     84.2401E-03
            1323            1941     80.9743E-03     82.7704E-03
            1323            1942     86.3263E-03     87.5109E-03
            1323            1958     82.6153E-03     84.2401E-03
            1323            1959     89.0710E-03     90.8521E-03
            1324             125     92.1861E-03     94.1628E-03
            1324             126     89.0009E-03     89.7254E-03
            1324            1942     86.3263E-03     87.5109E-03
            1324            1959     89.0710E-03     90.8521E-03
            1325             385     30.4688E-03     33.0278E-03
            1325             386     27.6767E-03     29.8175E-03
            1325            1943     29.2845E-03     31.5091E-03
            1325            1960     32.1201E-03     34.5412E-03
            1326            1943     29.2845E-03     31.5091E-03
            1326            1944     32.2773E-03     34.5367E-03
            1326            1960     32.1201E-03     34.5412E-03
            1326            1961     33.9087E-03     36.1492E-03
            1327            1944     32.2773E-03     34.5367E-03
            1327            1945     34.5867E-03     36.7572E-03
            1327            1961     33.9087E-03     36.1492E-03
            1327            1962     34.7229E-03     36.9858E-03
            1328            1945     34.5867E-03     36.7572E-03
            1328            1946     36.7380E-03     38.8804E-03
            1328            1962     34.7229E-03     36.9858E-03
            1328            1963     36.4939E-03     38.8369E-03
            1329            1946     36.7380E-03     38.8804E-03
            1329            1947     39.2978E-03     41.4425E-03
            1329            1963     36.4939E-03     38.8369E-03
            1329            1964     38.7813E-03     41.1739E-03
            1330            1947     39.2978E-03     41.4425E-03
            1330            1948     42.0524E-03     44.1935E-03
            1330            1964     38.7813E-03     41.1739E-03
            1330            1965     41.3461E-03     43.7841E-03
            1331            1948     42.0524E-03     44.1935E-03
            1331            1949     44.9664E-03     47.1210E-03
            1331            1965     41.3461E-03     43.7841E-03
            1331            1966     44.1319E-03     46.5857E-03
            1332            1949     44.9664E-03     47.1210E-03
            1332            1950     47.9977E-03     50.1631E-03
            1332            1966     44.1319E-03     46.5857E-03
            1332            1967     47.0290E-03     49.4934E-03
            1333            1950     47.9977E-03     50.1631E-03
            1333            1951     51.1184E-03     53.3106E-03
            1333            1967     47.0290E-03     49.4934E-03
            1333            1968     50.0474E-03     52.5007E-03
            1334            1951     51.1184E-03     53.3106E-03
            1334            1952     54.3540E-03     56.5712E-03
            1334            1968     50.0474E-03     52.5007E-03
            1334            1969     53.1586E-03     55.6029E-03
            1335            1952     54.3540E-03     56.5712E-03
            1335            1953     57.7317E-03     59.9924E-03
            1335            1969     53.1586E-03     55.6029E-03
            1335            1970     56.4404E-03     58.8553E-03
            1336            1953     57.7317E-03     59.9924E-03
            1336            1954     61.3496E-03     63.6419E-03
            1336            1970     56.4404E-03     58.8553E-03
            1336            1971     59.9383E-03     62.3424E-03
            1337            1954     61.3496E-03     63.6419E-03
            1337            1955     65.3750E-03     67.6832E-03
            1337            1971     59.9383E-03     62.3424E-03
            1337            1972     63.8626E-03     66.2317E-03
            1338            1955     65.3750E-03     67.6832E-03
            1338            1956     69.9756E-03     72.2688E-03
            1338            1972     63.8626E-03     66.2317E-03
            1338            1973     68.4482E-03     70.8053E-03
            1339            1956     69.9756E-03     72.2688E-03
            1339            1957     75.8598E-03     77.8178E-03
            1339            1973     68.4482E-03     70.8053E-03
            1339            1974     74.1671E-03     76.4688E-03
            1340            1957     75.8598E-03     77.8178E-03
            1340            1958     82.6153E-03     84.2401E-03
            1340            1974     74.1671E-03     76.4688E-03
            1340            1975     82.6017E-03     84.2525E-03
            1341            1958     82.6153E-03     84.2401E-03
            1341            1959     89.0710E-03     90.8521E-03
            1341            1975     82.6017E-03     84.2525E-03
            1341            1976     92.0668E-03     92.6887E-03
            1342             124     96.3629E-03     96.5022E-03
            1342             125     92.1861E-03     94.1628E-03
            1342            1959     89.0710E-03     90.8521E-03
            1342            1976     92.0668E-03     92.6887E-03
            1343             384     36.6041E-03     38.6983E-03
            1343             385     30.4688E-03     33.0278E-03
            1343            1960     32.1201E-03     34.5412E-03
            1343            1977     35.7840E-03     37.8264E-03
            1344            1960     32.1201E-03     34.5412E-03
            1344            1961     33.9087E-03     36.1492E-03
            1344            1977     35.7840E-03     37.8264E-03
            1344            1978     34.3224E-03     36.4925E-03
            1345            1961     33.9087E-03     36.1492E-03
            1345            1962     34.7229E-03     36.9858E-03
            1345            1978     34.3224E-03     36.4925E-03
            1345            1979     34.4907E-03     36.9145E-03
            1346            1962     34.7229E-03     36.9858E-03
            1346            1963     36.4939E-03     38.8369E-03
            1346            1979     34.4907E-03     36.9145E-03
            1346            1980     36.1391E-03     38.7206E-03
            1347            1963     36.4939E-03     38.8369E-03
            1347            1964     38.7813E-03     41.1739E-03
            1347            1980     36.1391E-03     38.7206E-03
            1347            1981     38.1976E-03     40.9012E-03
            1348            1964     38.7813E-03     41.1739E-03
            1348            1965     41.3461E-03     43.7841E-03
            1348            1981     38.1976E-03     40.9012E-03
            1348            1982     40.6684E-03     43.4362E-03
            1349            1965     41.3461E-03     43.7841E-03
            1349            1966     44.1319E-03     46.5857E-03
            1349            1982     40.6684E-03     43.4362E-03
            1349            1983     43.2995E-03     46.0993E-03
            1350            1966     44.1319E-03     46.5857E-03
            1350            1967     47.0290E-03     49.4934E-03
            1350            1983     43.2995E-03     46.0993E-03
            1350            1984     46.0956E-03     48.8840E-03
            1351            1967     47.0290E-03     49.4934E-03
            1351            1968     50.0474E-03     52.5007E-03
            1351            1984     46.0956E-03     48.8840E-03
            1351            1985     48.9774E-03     51.7276E-03
            1352            1968     50.0474E-03     52.5007E-03
            1352            1969     53.1586E-03     55.6029E-03
            1352            1985     48.9774E-03     51.7276E-03
            1352            1986     51.9904E-03     54.6636E-03
            1353            1969     53.1586E-03     55.6029E-03
            1353            1970     56.4404E-03     58.8553E-03
            1353            1986     51.9904E-03     54.6636E-03
            1353            1987     55.1266E-03     57.7035E-03
            1354            1970     56.4404E-03     58.8553E-03
            1354            1971     59.9383E-03     62.3424E-03
            1354            1987     55.1266E-03     57.7035E-03
            1354            1988     58.5195E-03     60.9687E-03
            1355            1971     59.9383E-03     62.3424E-03
            1355            1972     63.8626E-03     66.2317E-03
            1355            1988     58.5195E-03     60.9687E-03
            1355            1989     62.2245E-03     64.5610E-03
            1356            1972     63.8626E-03     66.2317E-03
            1356            1973     68.4482E-03     70.8053E-03
            1356            1989     62.2245E-03     64.5610E-03
            1356            1990     66.6137E-03     68.8537E-03
            1357            1973     68.4482E-03     70.8053E-03
            1357            1974     74.1671E-03     76.4688E-03
            1357            1990     66.6137E-03     68.8537E-03
            1357            1991     71.8876E-03     74.1604E-03
            1358            1974     74.1671E-03     76.4688E-03
            1358            1975     82.6017E-03     84.2525E-03
            1358            1991     71.8876E-03     74.1604E-03
            1358            1992     79.4569E-03     81.9747E-03
            1359            1975     82.6017E-03     84.2525E-03
            1359            1976     92.0668E-03     92.6887E-03
            1359            1992     79.4569E-03     81.9747E-03
            1359            1993     91.8929E-03     93.9028E-03
            1360             123     99.5450E-03     100.907E-03
            1360             124     96.3629E-03     96.5022E-03
            1360            1976     92.0668E-03     92.6887E-03
            1360            1993     91.8929E-03     93.9028E-03
            1361             383     41.2319E-03     40.7412E-03
            1361             384     36.6041E-03     38.6983E-03
            1361            1977     35.7840E-03     37.8264E-03
            1361            1994     39.8738E-03     39.7561E-03
            1362            1977     35.7840E-03     37.8264E-03
            1362            1978     34.3224E-03     36.4925E-03
            1362            1994     39.8738E-03     39.7561E-03
            1362            1995     38.9973E-03     39.5042E-03
            1363            1978     34.3224E-03     36.4925E-03
            1363            1979     34.4907E-03     36.9145E-03
            1363            1995     38.9973E-03     39.5042E-03
            1363            1996     40.6468E-03     41.5952E-03
            1364            1979     34.4907E-03     36.9145E-03
            1364            1980     36.1391E-03     38.7206E-03
            1364            1996     40.6468E-03     41.5952E-03
            1364            1997     43.1647E-03     44.4271E-03
            1365            1980     36.1391E-03     38.7206E-03
            1365            1981     38.1976E-03     40.9012E-03
            1365            1997     43.1647E-03     44.4271E-03
            1365            1998     46.0975E-03     47.5426E-03
            1366            1981     38.1976E-03     40.9012E-03
            1366            1982     40.6684E-03     43.4362E-03
            1366            1998     46.0975E-03     47.5426E-03
            1366            1999     49.2717E-03     50.8086E-03
            1367            1982     40.6684E-03     43.4362E-03
            1367            1983     43.2995E-03     46.0993E-03
            1367            1999     49.2717E-03     50.8086E-03
            1367            2000     52.5596E-03     54.1136E-03
            1368            1983     43.2995E-03     46.0993E-03
            1368            1984     46.0956E-03     48.8840E-03
            1368            2000     52.5596E-03     54.1136E-03
            1368            2001     55.9067E-03     57.4278E-03
            1369            1984     46.0956E-03     48.8840E-03
            1369            1985     48.9774E-03     51.7276E-03
            1369            2001     55.9067E-03     57.4278E-03
            1369            2002     59.2849E-03     60.7061E-03
            1370            1985     48.9774E-03     51.7276E-03
            1370            1986     51.9904E-03     54.6636E-03
            1370            2002     59.2849E-03     60.7061E-03
            1370            2003     62.6637E-03     63.9545E-03
            1371            1986     51.9904E-03     54.6636E-03
            1371            1987     55.1266E-03     57.7035E-03
            1371            2003     62.6637E-03     63.9545E-03
            1371            2004     66.0770E-03     67.1485E-03
            1372            1987     55.1266E-03     57.7035E-03
            1372            1988     58.5195E-03     60.9687E-03
            1372            2004     66.0770E-03     67.1485E-03
            1372            2005     69.4914E-03     70.3373E-03
            1373            1988     58.5195E-03     60.9687E-03
            1373            1989     62.2245E-03     64.5610E-03
            1373            2005     69.4914E-03     70.3373E-03
            1373            2006     73.0308E-03     73.5360E-03
            1374            1989     62.2245E-03     64.5610E-03
            1374            1990     66.6137E-03     68.8537E-03
            1374            2006     73.0308E-03     73.5360E-03
            1374            2007     76.6400E-03     76.8838E-03
            1375            1990     66.6137E-03     68.8537E-03
            1375            1991     71.8876E-03     74.1604E-03
            1375            2007     76.6400E-03     76.8838E-03
            1375            2008     80.6884E-03     80.6218E-03
            1376            1991     71.8876E-03     74.1604E-03
            1376            1992     79.4569E-03     81.9747E-03
            1376            2008     80.6884E-03     80.6218E-03
            1376            2009     85.0652E-03     85.0828E-03
            1377            1992     79.4569E-03     81.9747E-03
            1377            1993     91.8929E-03     93.9028E-03
            1377            2009     85.0652E-03     85.0828E-03
            1377            2010     91.8293E-03     93.3899E-03
            1378             122     96.5428E-03     99.2257E-03
            1378             123     99.5450E-03     100.907E-03
            1378            1993     91.8929E-03     93.9028E-03
            1378            2010     91.8293E-03     93.3899E-03
            1379             382     36.9132E-03     39.5757E-03
            1379             383     41.2319E-03     40.7412E-03
            1379            1994     39.8738E-03     39.7561E-03
            1379            2011     39.4728E-03     40.8181E-03
            1380            1994     39.8738E-03     39.7561E-03
            1380            1995     38.9973E-03     39.5042E-03
            1380            2011     39.4728E-03     40.8181E-03
            1380            2012     43.4425E-03     43.3614E-03
            1381            1995     38.9973E-03     39.5042E-03
            1381            1996     40.6468E-03     41.5952E-03
            1381            2012     43.4425E-03     43.3614E-03
            1381            2013     46.8527E-03     46.7356E-03
            1382            1996     40.6468E-03     41.5952E-03
            1382            1997     43.1647E-03     44.4271E-03
            1382            2013     46.8527E-03     46.7356E-03
            1382            2014     50.7672E-03     50.8146E-03
            1383            1997     43.1647E-03     44.4271E-03
            1383            1998     46.0975E-03     47.5426E-03
            1383            2014     50.7672E-03     50.8146E-03
            1383            2015     54.7552E-03     54.9387E-03
            1384            1998     46.0975E-03     47.5426E-03
            1384            1999     49.2717E-03     50.8086E-03
            1384            2015     54.7552E-03     54.9387E-03
            1384            2016     58.8659E-03     59.1154E-03
            1385            1999     49.2717E-03     50.8086E-03
            1385            2000     52.5596E-03     54.1136E-03
            1385            2016     58.8659E-03     59.1154E-03
            1385            2017     62.9703E-03     63.2343E-03
            1386            2000     52.5596E-03     54.1136E-03
            1386            2001     55.9067E-03     57.4278E-03
            1386            2017     62.9703E-03     63.2343E-03
            1386            2018     67.0747E-03     67.2937E-03
            1387            2001     55.9067E-03     57.4278E-03
            1387            2002     59.2849E-03     60.7061E-03
            1387            2018     67.0747E-03     67.2937E-03
            1387            2019     71.1211E-03     71.2582E-03
            1388            2002     59.2849E-03     60.7061E-03
            1388            2003     62.6637E-03     63.9545E-03
            1388            2019     71.1211E-03     71.2582E-03
            1388            2020     75.1097E-03     75.1131E-03
            1389            2003     62.6637E-03     63.9545E-03
            1389            2004     66.0770E-03     67.1485E-03
            1389            2020     75.1097E-03     75.1131E-03
            1389            2021     78.9875E-03     78.8207E-03
            1390            2004     66.0770E-03     67.1485E-03
            1390            2005     69.4914E-03     70.3373E-03
            1390            2021     78.9875E-03     78.8207E-03
            1390            2022     82.7353E-03     82.3549E-03
            1391            2005     69.4914E-03     70.3373E-03
            1391            2006     73.0308E-03     73.5360E-03
            1391            2022     82.7353E-03     82.3549E-03
            1391            2023     86.2798E-03     85.6512E-03
            1392            2006     73.0308E-03     73.5360E-03
            1392            2007     76.6400E-03     76.8838E-03
            1392            2023     86.2798E-03     85.6512E-03
            1392            2024     89.5753E-03     88.6994E-03
            1393            2007     76.6400E-03     76.8838E-03
            1393            2008     80.6884E-03     80.6218E-03
            1393            2024     89.5753E-03     88.6994E-03
            1393            2025     92.4652E-03     91.3737E-03
            1394            2008     80.6884E-03     80.6218E-03
            1394            2009     85.0652E-03     85.0828E-03
            1394            2025     92.4652E-03     91.3737E-03
            1394            2026     94.8861E-03     93.7200E-03
            1395            2009     85.0652E-03     85.0828E-03
            1395            2010     91.8293E-03     93.3899E-03
            1395            2026     94.8861E-03     93.7200E-03
            1395            2027     96.6310E-03     95.0443E-03
            1396             121     97.2448E-03     95.2289E-03
            1396             122     96.5428E-03     99.2257E-03
            1396            2010     91.8293E-03     93.3899E-03
            1396            2027     96.6310E-03     95.0443E-03
            1397             381     33.0662E-03     36.9926E-03
            1397             382     36.9132E-03     39.5757E-03
            1397            2011     39.4728E-03     40.8181E-03
            1397            2028     36.3660E-03     39.7335E-03
            1398            2011     39.4728E-03     40.8181E-03
            1398            2012     43.4425E-03     43.3614E-03
            1398            2028     36.3660E-03     39.7335E-03
            1398            2029     42.1366E-03     44.0912E-03
            1399            2012     43.4425E-03     43.3614E-03
            1399            2013     46.8527E-03     46.7356E-03
            1399            2029     42.1366E-03     44.0912E-03
            1399            2030     46.8523E-03     47.7547E-03
            1400            2013     46.8527E-03     46.7356E-03
            1400            2014     50.7672E-03     50.8146E-03
            1400            2030     46.8523E-03     47.7547E-03
            1400            2031     51.3192E-03     51.9721E-03
            1401            2014     50.7672E-03     50.8146E-03
            1401            2015     54.7552E-03     54.9387E-03
            1401            2031     51.3192E-03     51.9721E-03
            1401            2032     55.7155E-03     56.3049E-03
            1402            2015     54.7552E-03     54.9387E-03
            1402            2016     58.8659E-03     59.1154E-03
            1402            2032     55.7155E-03     56.3049E-03
            1402            2033     60.0728E-03     60.6564E-03
            1403            2016     58.8659E-03     59.1154E-03
            1403            2017     62.9703E-03     63.2343E-03
            1403            2033     60.0728E-03     60.6564E-03
            1403            2034     64.4170E-03     64.9975E-03
            1404            2017     62.9703E-03     63.2343E-03
            1404            2018     67.0747E-03     67.2937E-03
            1404            2034     64.4170E-03     64.9975E-03
            1404            2035     68.7323E-03     69.3068E-03
            1405            2018     67.0747E-03     67.2937E-03
            1405            2019     71.1211E-03     71.2582E-03
            1405            2035     68.7323E-03     69.3068E-03
            1405            2036     73.0358E-03     73.5831E-03
            1406            2019     71.1211E-03     71.2582E-03
            1406            2020     75.1097E-03     75.1131E-03
            1406            2036     73.0358E-03     73.5831E-03
            1406            2037     77.2862E-03     77.8115E-03
            1407            2020     75.1097E-03     75.1131E-03
            1407            2021     78.9875E-03     78.8207E-03
            1407            2037     77.2862E-03     77.8115E-03
            1407            2038     81.4829E-03     81.9701E-03
            1408            2021     78.9875E-03     78.8207E-03
            1408            2022     82.7353E-03     82.3549E-03
            1408            2038     81.4829E-03     81.9701E-03
            1408            2039     85.5478E-03     86.0288E-03
            1409            2022     82.7353E-03     82.3549E-03
            1409            2023     86.2798E-03     85.6512E-03
            1409            2039     85.5478E-03     86.0288E-03
            1409            2040     89.4350E-03     89.9269E-03
            1410            2023     86.2798E-03     85.6512E-03
            1410            2024     89.5753E-03     88.6994E-03
            1410            2040     89.4350E-03     89.9269E-03
            1410            2041     93.0164E-03     93.6014E-03
            1411            2024     89.5753E-03     88.6994E-03
            1411            2025     92.4652E-03     91.3737E-03
            1411            2041     93.0164E-03     93.6014E-03
            1411            2042     96.1680E-03     96.9280E-03
            1412            2025     92.4652E-03     91.3737E-03
            1412            2026     94.8861E-03     93.7200E-03
            1412            2042     96.1680E-03     96.9280E-03
            1412            2043     98.8477E-03     99.6996E-03
            1413            2026     94.8861E-03     93.7200E-03
            1413            2027     96.6310E-03     95.0443E-03
            1413            2043     98.8477E-03     99.6996E-03
            1413            2044     101.271E-03     101.754E-03
            1414             120     102.503E-03     102.577E-03
            1414             121     97.2448E-03     95.2289E-03
            1414            2027     96.6310E-03     95.0443E-03
            1414            2044     101.271E-03     101.754E-03
            1415             380     33.0442E-03     35.1758E-03
            1415             381     33.0662E-03     36.9926E-03
            1415            2028     36.3660E-03     39.7335E-03
            1415            2045     35.7534E-03     38.2900E-03
            1416            2028     36.3660E-03     39.7335E-03
            1416            2029     42.1366E-03     44.0912E-03
            1416            2045     35.7534E-03     38.2900E-03
            1416            2046     41.4027E-03     44.0159E-03
            1417            2029     42.1366E-03     44.0912E-03
            1417            2030     46.8523E-03     47.7547E-03
            1417            2046     41.4027E-03     44.0159E-03
            1417            2047     46.8644E-03     48.7230E-03
            1418            2030     46.8523E-03     47.7547E-03
            1418            2031     51.3192E-03     51.9721E-03
            1418            2047     46.8644E-03     48.7230E-03
            1418            2048     51.7882E-03     53.0944E-03
            1419            2031     51.3192E-03     51.9721E-03
            1419            2032     55.7155E-03     56.3049E-03
            1419            2048     51.7882E-03     53.0944E-03
            1419            2049     56.4953E-03     57.6017E-03
            1420            2032     55.7155E-03     56.3049E-03
            1420            2033     60.0728E-03     60.6564E-03
            1420            2049     56.4953E-03     57.6017E-03
            1420            2050     61.0617E-03     62.0694E-03
            1421            2033     60.0728E-03     60.6564E-03
            1421            2034     64.4170E-03     64.9975E-03
            1421            2050     61.0617E-03     62.0694E-03
            1421            2051     65.5696E-03     66.5551E-03
            1422            2034     64.4170E-03     64.9975E-03
            1422            2035     68.7323E-03     69.3068E-03
            1422            2051     65.5696E-03     66.5551E-03
            1422            2052     70.0593E-03     71.0443E-03
            1423            2035     68.7323E-03     69.3068E-03
            1423            2036     73.0358E-03     73.5831E-03
            1423            2052     70.0593E-03     71.0443E-03
            1423            2053     74.5284E-03     75.5465E-03
            1424            2036     73.0358E-03     73.5831E-03
            1424            2037     77.2862E-03     77.8115E-03
            1424            2053     74.5284E-03     75.5465E-03
            1424            2054     78.9995E-03     80.0569E-03
            1425            2037     77.2862E-03     77.8115E-03
            1425            2038     81.4829E-03     81.9701E-03
            1425            2054     78.9995E-03     80.0569E-03
            1425            2055     83.4186E-03     84.5629E-03
            1426            2038     81.4829E-03     81.9701E-03
            1426            2039     85.5478E-03     86.0288E-03
            1426            2055     83.4186E-03     84.5629E-03
            1426            2056     87.7655E-03     89.0153E-03
            1427            2039     85.5478E-03     86.0288E-03
            1427            2040     89.4350E-03     89.9269E-03
            1427            2056     87.7655E-03     89.0153E-03
            1427            2057     91.9438E-03     93.3596E-03
            1428            2040     89.4350E-03     89.9269E-03
            1428            2041     93.0164E-03     93.6014E-03
            1428            2057     91.9438E-03     93.3596E-03
            1428            2058     95.8231E-03     97.4636E-03
            1429            2041     93.0164E-03     93.6014E-03
            1429            2042     96.1680E-03     96.9280E-03
            1429            2058     95.8231E-03     97.4636E-03
            1429            2059     99.3695E-03     101.143E-03
            1430            2042     96.1680E-03     96.9280E-03
            1430            2043     98.8477E-03     99.6996E-03
            1430            2059     99.3695E-03     101.143E-03
            1430            2060     102.382E-03     104.208E-03
            1431            2043     98.8477E-03     99.6996E-03
            1431            2044     101.271E-03     101.754E-03
            1431            2060     102.382E-03     104.208E-03
            1431            2061     105.351E-03     106.699E-03
            1432             119     106.979E-03     107.851E-03
            1432             120     102.503E-03     102.577E-03
            1432            2044     101.271E-03     101.754E-03
            1432            2061     105.351E-03     106.699E-03
            1433             379     32.8610E-03     36.0521E-03
            1433             380     33.0442E-03     35.1758E-03
            1433            2045     35.7534E-03     38.2900E-03
            1433            2062     35.8033E-03     38.6727E-03
            1434            2045     35.7534E-03     38.2900E-03
            1434            2046     41.4027E-03     44.0159E-03
            1434            2062     35.8033E-03     38.6727E-03
            1434            2063     41.5394E-03     44.0651E-03
            1435            2046     41.4027E-03     44.0159E-03
            1435            2047     46.8644E-03     48.7230E-03
            1435            2063     41.5394E-03     44.0651E-03
            1435            2064     47.0313E-03     49.3338E-03
            1436            2047     46.8644E-03     48.7230E-03
            1436            2048     51.7882E-03     53.0944E-03
            1436            2064     47.0313E-03     49.3338E-03
            1436            2065     52.2028E-03     54.0824E-03
            1437            2048     51.7882E-03     53.0944E-03
            1437            2049     56.4953E-03     57.6017E-03
            1437            2065     52.2028E-03     54.0824E-03
            1437            2066     57.0387E-03     58.6194E-03
            1438            2049     56.4953E-03     57.6017E-03
            1438            2050     61.0617E-03     62.0694E-03
            1438            2066     57.0387E-03     58.6194E-03
            1438            2067     61.7124E-03     63.1680E-03
            1439            2050     61.0617E-03     62.0694E-03
            1439            2051     65.5696E-03     66.5551E-03
            1439            2067     61.7124E-03     63.1680E-03
            1439            2068     66.3082E-03     67.7061E-03
            1440            2051     65.5696E-03     66.5551E-03
            1440            2052     70.0593E-03     71.0443E-03
            1440            2068     66.3082E-03     67.7061E-03
            1440            2069     70.8768E-03     72.2910E-03
            1441            2052     70.0593E-03     71.0443E-03
            1441            2053     74.5284E-03     75.5465E-03
            1441            2069     70.8768E-03     72.2910E-03
            1441            2070     75.4665E-03     76.9297E-03
            1442            2053     74.5284E-03     75.5465E-03
            1442            2054     78.9995E-03     80.0569E-03
            1442            2070     75.4665E-03     76.9297E-03
            1442            2071     80.0580E-03     81.6249E-03
            1443            2054     78.9995E-03     80.0569E-03
            1443            2055     83.4186E-03     84.5629E-03
            1443            2071     80.0580E-03     81.6249E-03
            1443            2072     84.6713E-03     86.3633E-03
            1444            2055     83.4186E-03     84.5629E-03
            1444            2056     87.7655E-03     89.0153E-03
            1444            2072     84.6713E-03     86.3633E-03
            1444            2073     89.2408E-03     91.1152E-03
            1445            2056     87.7655E-03     89.0153E-03
            1445            2057     91.9438E-03     93.3596E-03
            1445            2073     89.2408E-03     91.1152E-03
            1445            2074     93.7084E-03     95.7861E-03
            1446            2057     91.9438E-03     93.3596E-03
            1446            2058     95.8231E-03     97.4636E-03
            1446            2074     93.7084E-03     95.7861E-03
            1446            2075     98.0016E-03     100.234E-03
            1447            2058     95.8231E-03     97.4636E-03
            1447            2059     99.3695E-03     101.143E-03
            1447            2075     98.0016E-03     100.234E-03
            1447            2076     101.915E-03     104.266E-03
            1448            2059     99.3695E-03     101.143E-03
            1448            2060     102.382E-03     104.208E-03
            1448            2076     101.915E-03     104.266E-03
            1448            2077     105.574E-03     107.649E-03
            1449            2060     102.382E-03     104.208E-03
            1449            2061     105.351E-03     106.699E-03
            1449            2077     105.574E-03     107.649E-03
            1449            2078     109.063E-03     110.395E-03
            1450             118     110.740E-03     111.634E-03
            1450             119     106.979E-03     107.851E-03
            1450            2061     105.351E-03     106.699E-03
            1450            2078     109.063E-03     110.395E-03
            1451             378     33.8161E-03     36.4975E-03
            1451             379     32.8610E-03     36.0521E-03
            1451            2062     35.8033E-03     38.6727E-03
            1451            2079     36.5226E-03     39.3370E-03
            1452            2062     35.8033E-03     38.6727E-03
            1452            2063     41.5394E-03     44.0651E-03
            1452            2079     36.5226E-03     39.3370E-03
            1452            2080     42.0450E-03     44.8126E-03
            1453            2063     41.5394E-03     44.0651E-03
            1453            2064     47.0313E-03     49.3338E-03
            1453            2080     42.0450E-03     44.8126E-03
            1453            2081     47.4822E-03     49.9515E-03
            1454            2064     47.0313E-03     49.3338E-03
            1454            2065     52.2028E-03     54.0824E-03
            1454            2081     47.4822E-03     49.9515E-03
            1454            2082     52.5449E-03     54.7712E-03
            1455            2065     52.2028E-03     54.0824E-03
            1455            2066     57.0387E-03     58.6194E-03
            1455            2082     52.5449E-03     54.7712E-03
            1455            2083     57.3450E-03     59.3330E-03
            1456            2066     57.0387E-03     58.6194E-03
            1456            2067     61.7124E-03     63.1680E-03
            1456            2083     57.3450E-03     59.3330E-03
            1456            2084     61.9840E-03     63.8187E-03
            1457            2067     61.7124E-03     63.1680E-03
            1457            2068     66.3082E-03     67.7061E-03
            1457            2084     61.9840E-03     63.8187E-03
            1457            2085     66.5555E-03     68.3411E-03
            1458            2068     66.3082E-03     67.7061E-03
            1458            2069     70.8768E-03     72.2910E-03
            1458            2085     66.5555E-03     68.3411E-03
            1458            2086     71.1438E-03     72.9388E-03
            1459            2069     70.8768E-03     72.2910E-03
            1459            2070     75.4665E-03     76.9297E-03
            1459            2086     71.1438E-03     72.9388E-03
            1459            2087     75.7543E-03     77.6222E-03
            1460            2070     75.4665E-03     76.9297E-03
            1460            2071     80.0580E-03     81.6249E-03
            1460            2087     75.7543E-03     77.6222E-03
            1460            2088     80.4292E-03     82.4063E-03
            1461            2071     80.0580E-03     81.6249E-03
            1461            2072     84.6713E-03     86.3633E-03
            1461            2088     80.4292E-03     82.4063E-03
            1461            2089     85.1434E-03     87.2827E-03
            1462            2072     84.6713E-03     86.3633E-03
            1462            2073     89.2408E-03     91.1152E-03
            1462            2089     85.1434E-03     87.2827E-03
            1462            2090     89.9261E-03     92.2347E-03
            1463            2073     89.2408E-03     91.1152E-03
            1463            2074     93.7084E-03     95.7861E-03
            1463            2090     89.9261E-03     92.2347E-03
            1463            2091     94.7110E-03     97.2002E-03
            1464            2074     93.7084E-03     95.7861E-03
            1464            2075     98.0016E-03     100.234E-03
            1464            2091     94.7110E-03     97.2002E-03
            1464            2092     99.4182E-03     102.031E-03
            1465            2075     98.0016E-03     100.234E-03
            1465            2076     101.915E-03     104.266E-03
            1465            2092     99.4182E-03     102.031E-03
            1465            2093     103.991E-03     106.501E-03
            1466            2076     101.915E-03     104.266E-03
            1466            2077     105.574E-03     107.649E-03
            1466            2093     103.991E-03     106.501E-03
            1466            2094     108.256E-03     110.452E-03
            1467            2077     105.574E-03     107.649E-03
            1467            2078     109.063E-03     110.395E-03
            1467            2094     108.256E-03     110.452E-03
            1467            2095     112.355E-03     113.891E-03
            1468             117     114.409E-03     115.492E-03
            1468             118     110.740E-03     111.634E-03
            1468            2078     109.063E-03     110.395E-03
            1468            2095     112.355E-03     113.891E-03
            1469             377     34.7370E-03     37.7554E-03
            1469             378     33.8161E-03     36.4975E-03
            1469            2079     36.5226E-03     39.3370E-03
            1469            2096     37.5267E-03     40.4880E-03
            1470            2079     36.5226E-03     39.3370E-03
            1470            2080     42.0450E-03     44.8126E-03
            1470            2096     37.5267E-03     40.4880E-03
            1470            2097     42.9744E-03     45.8197E-03
            1471            2080     42.0450E-03     44.8126E-03
            1471            2081     47.4822E-03     49.9515E-03
            1471            2097     42.9744E-03     45.8197E-03
            1471            2098     48.0657E-03     50.7302E-03
            1472            2081     47.4822E-03     49.9515E-03
            1472            2082     52.5449E-03     54.7712E-03
            1472            2098     48.0657E-03     50.7302E-03
            1472            2099     52.8508E-03     55.2934E-03
            1473            2082     52.5449E-03     54.7712E-03
            1473            2083     57.3450E-03     59.3330E-03
            1473            2099     52.8508E-03     55.2934E-03
            1473            2100     57.4061E-03     59.6725E-03
            1474            2083     57.3450E-03     59.3330E-03
            1474            2084     61.9840E-03     63.8187E-03
            1474            2100     57.4061E-03     59.6725E-03
            1474            2101     61.8559E-03     64.0033E-03
            1475            2084     61.9840E-03     63.8187E-03
            1475            2085     66.5555E-03     68.3411E-03
            1475            2101     61.8559E-03     64.0033E-03
            1475            2102     66.3378E-03     68.4408E-03
            1476            2085     66.5555E-03     68.3411E-03
            1476            2086     71.1438E-03     72.9388E-03
            1476            2102     66.3378E-03     68.4408E-03
            1476            2103     70.8479E-03     72.9698E-03
            1477            2086     71.1438E-03     72.9388E-03
            1477            2087     75.7543E-03     77.6222E-03
            1477            2103     70.8479E-03     72.9698E-03
            1477            2104     75.4336E-03     77.6237E-03
            1478            2087     75.7543E-03     77.6222E-03
            1478            2088     80.4292E-03     82.4063E-03
            1478            2104     75.4336E-03     77.6237E-03
            1478            2105     80.0940E-03     82.3973E-03
            1479            2088     80.4292E-03     82.4063E-03
            1479            2089     85.1434E-03     87.2827E-03
            1479            2105     80.0940E-03     82.3973E-03
            1479            2106     84.8749E-03     87.3191E-03
            1480            2089     85.1434E-03     87.2827E-03
            1480            2090     89.9261E-03     92.2347E-03
            1480            2106     84.8749E-03     87.3191E-03
            1480            2107     89.7697E-03     92.3817E-03
            1481            2090     89.9261E-03     92.2347E-03
            1481            2091     94.7110E-03     97.2002E-03
            1481            2107     89.7697E-03     92.3817E-03
            1481            2108     94.8774E-03     97.5954E-03
            1482            2091     94.7110E-03     97.2002E-03
            1482            2092     99.4182E-03     102.031E-03
            1482            2108     94.8774E-03     97.5954E-03
            1482            2109     100.107E-03     102.890E-03
            1483            2092     99.4182E-03     102.031E-03
            1483            2093     103.991E-03     106.501E-03
            1483            2109     100.107E-03     102.890E-03
            1483            2110     105.371E-03     108.043E-03
            1484            2093     103.991E-03     106.501E-03
            1484            2094     108.256E-03     110.452E-03
            1484            2110     105.371E-03     108.043E-03
            1484            2111     110.557E-03     112.782E-03
            1485            2094     108.256E-03     110.452E-03
            1485            2095     112.355E-03     113.891E-03
            1485            2111     110.557E-03     112.782E-03
            1485            2112     115.324E-03     117.089E-03
            1486             116     117.585E-03     119.174E-03
            1486             117     114.409E-03     115.492E-03
            1486            2095     112.355E-03     113.891E-03
            1486            2112     115.324E-03     117.089E-03
            1487             376     36.2632E-03     39.4557E-03
            1487             377     34.7370E-03     37.7554E-03
            1487            2096     37.5267E-03     40.4880E-03
            1487            2113     39.0330E-03     42.1177E-03
            1488            2096     37.5267E-03     40.4880E-03
            1488            2097     42.9744E-03     45.8197E-03
            1488            2113     39.0330E-03     42.1177E-03
            1488            2114     44.1852E-03     47.1175E-03
            1489            2097     42.9744E-03     45.8197E-03
            1489            2098     48.0657E-03     50.7302E-03
            1489            2114     44.1852E-03     47.1175E-03
            1489            2115     48.8272E-03     51.6227E-03
            1490            2098     48.0657E-03     50.7302E-03
            1490            2099     52.8508E-03     55.2934E-03
            1490            2115     48.8272E-03     51.6227E-03
            1490            2116     53.0687E-03     55.6667E-03
            1491            2099     52.8508E-03     55.2934E-03
            1491            2100     57.4061E-03     59.6725E-03
            1491            2116     53.0687E-03     55.6667E-03
            1491            2117     57.1645E-03     59.6174E-03
            1492            2100     57.4061E-03     59.6725E-03
            1492            2101     61.8559E-03     64.0033E-03
            1492            2117     57.1645E-03     59.6174E-03
            1492            2118     61.3934E-03     63.7835E-03
            1493            2101     61.8559E-03     64.0033E-03
            1493            2102     66.3378E-03     68.4408E-03
            1493            2118     61.3934E-03     63.7835E-03
            1493            2119     65.6874E-03     68.0519E-03
            1494            2102     66.3378E-03     68.4408E-03
            1494            2103     70.8479E-03     72.9698E-03
            1494            2119     65.6874E-03     68.0519E-03
            1494            2120     70.0818E-03     72.4703E-03
            1495            2103     70.8479E-03     72.9698E-03
            1495            2104     75.4336E-03     77.6237E-03
            1495            2120     70.0818E-03     72.4703E-03
            1495            2121     74.5670E-03     77.0094E-03
            1496            2104     75.4336E-03     77.6237E-03
            1496            2105     80.0940E-03     82.3973E-03
            1496            2121     74.5670E-03     77.0094E-03
            1496            2122     79.1610E-03     81.6962E-03
            1497            2105     80.0940E-03     82.3973E-03
            1497            2106     84.8749E-03     87.3191E-03
            1497            2122     79.1610E-03     81.6962E-03
            1497            2123     83.8968E-03     86.5430E-03
            1498            2106     84.8749E-03     87.3191E-03
            1498            2107     89.7697E-03     92.3817E-03
            1498            2123     83.8968E-03     86.5430E-03
            1498            2124     88.8597E-03     91.6237E-03
            1499            2107     89.7697E-03     92.3817E-03
            1499            2108     94.8774E-03     97.5954E-03
            1499            2124     88.8597E-03     91.6237E-03
            1499            2125     94.0887E-03     96.9675E-03
            1500            2108     94.8774E-03     97.5954E-03
            1500            2109     100.107E-03     102.890E-03
            1500            2125     94.0887E-03     96.9675E-03
            1500            2126     99.8846E-03     102.689E-03
            1501            2109     100.107E-03     102.890E-03
            1501            2110     105.371E-03     108.043E-03
            1501            2126     99.8846E-03     102.689E-03
            1501            2127     106.040E-03     108.742E-03
            1502            2110     105.371E-03     108.043E-03
            1502            2111     110.557E-03     112.782E-03
            1502            2127     106.040E-03     108.742E-03
            1502            2128     112.211E-03     114.711E-03
            1503            2111     110.557E-03     112.782E-03
            1503            2112     115.324E-03     117.089E-03
            1503            2128     112.211E-03     114.711E-03
            1503            2129     118.239E-03     119.920E-03
            1504             115     121.133E-03     122.212E-03
            1504             116     117.585E-03     119.174E-03
            1504            2112     115.324E-03     117.089E-03
            1504            2129     118.239E-03     119.920E-03
            1505             375     38.5497E-03     41.5248E-03
            1505             376     36.2632E-03     39.4557E-03
            1505            2113     39.0330E-03     42.1177E-03
            1505            2130     41.1390E-03     44.2580E-03
            1506            2113     39.0330E-03     42.1177E-03
            1506            2114     44.1852E-03     47.1175E-03
            1506            2130     41.1390E-03     44.2580E-03
            1506            2131     45.9444E-03     49.0539E-03
            1507            2114     44.1852E-03     47.1175E-03
            1507            2115     48.8272E-03     51.6227E-03
            1507            2131     45.9444E-03     49.0539E-03
            1507            2132     49.6639E-03     52.4782E-03
            1508            2115     48.8272E-03     51.6227E-03
            1508            2116     53.0687E-03     55.6667E-03
            1508            2132     49.6639E-03     52.4782E-03
            1508            2133     52.9767E-03     55.6355E-03
            1509            2116     53.0687E-03     55.6667E-03
            1509            2117     57.1645E-03     59.6174E-03
            1509            2133     52.9767E-03     55.6355E-03
            1509            2134     56.7002E-03     59.3180E-03
            1510            2117     57.1645E-03     59.6174E-03
            1510            2118     61.3934E-03     63.7835E-03
            1510            2134     56.7002E-03     59.3180E-03
            1510            2135     60.6231E-03     63.2152E-03
            1511            2118     61.3934E-03     63.7835E-03
            1511            2119     65.6874E-03     68.0519E-03
            1511            2135     60.6231E-03     63.2152E-03
            1511            2136     64.7234E-03     67.3260E-03
            1512            2119     65.6874E-03     68.0519E-03
            1512            2120     70.0818E-03     72.4703E-03
            1512            2136     64.7234E-03     67.3260E-03
            1512            2137     68.9592E-03     71.5743E-03
            1513            2120     70.0818E-03     72.4703E-03
            1513            2121     74.5670E-03     77.0094E-03
            1513            2137     68.9592E-03     71.5743E-03
            1513            2138     73.2956E-03     75.9484E-03
            1514            2121     74.5670E-03     77.0094E-03
            1514            2122     79.1610E-03     81.6962E-03
            1514            2138     73.2956E-03     75.9484E-03
            1514            2139     77.7632E-03     80.4531E-03
            1515            2122     79.1610E-03     81.6962E-03
            1515            2123     83.8968E-03     86.5430E-03
            1515            2139     77.7632E-03     80.4531E-03
            1515            2140     82.3791E-03     85.1367E-03
            1516            2123     83.8968E-03     86.5430E-03
            1516            2124     88.8597E-03     91.6237E-03
            1516            2140     82.3791E-03     85.1367E-03
            1516            2141     87.2462E-03     90.0622E-03
            1517            2124     88.8597E-03     91.6237E-03
            1517            2125     94.0887E-03     96.9675E-03
            1517            2141     87.2462E-03     90.0622E-03
            1517            2142     92.5269E-03     95.3977E-03
            1518            2125     94.0887E-03     96.9675E-03
            1518            2126     99.8846E-03     102.689E-03
            1518            2142     92.5269E-03     95.3977E-03
            1518            2143     98.3727E-03     101.277E-03
            1519            2126     99.8846E-03     102.689E-03
            1519            2127     106.040E-03     108.742E-03
            1519            2143     98.3727E-03     101.277E-03
            1519            2144     105.529E-03     108.101E-03
            1520            2127     106.040E-03     108.742E-03
            1520            2128     112.211E-03     114.711E-03
            1520            2144     105.529E-03     108.101E-03
            1520            2145     113.380E-03     115.626E-03
            1521            2128     112.211E-03     114.711E-03
            1521            2129     118.239E-03     119.920E-03
            1521            2145     113.380E-03     115.626E-03
            1521            2146     120.534E-03     122.898E-03
            1522             114     123.902E-03     126.406E-03
            1522             115     121.133E-03     122.212E-03
            1522            2129     118.239E-03     119.920E-03
            1522            2146     120.534E-03     122.898E-03
            1523             374     41.8471E-03     45.7284E-03
            1523             375     38.5497E-03     41.5248E-03
            1523            2130     41.1390E-03     44.2580E-03
            1523            2147     44.6922E-03     48.1946E-03
            1524            2130     41.1390E-03     44.2580E-03
            1524            2131     45.9444E-03     49.0539E-03
            1524            2147     44.6922E-03     48.1946E-03
            1524            2148     48.1661E-03     51.0517E-03
            1525            2131     45.9444E-03     49.0539E-03
            1525            2132     49.6639E-03     52.4782E-03
            1525            2148     48.1661E-03     51.0517E-03
            1525            2149     49.9273E-03     52.6128E-03
            1526            2132     49.6639E-03     52.4782E-03
            1526            2133     52.9767E-03     55.6355E-03
            1526            2149     49.9273E-03     52.6128E-03
            1526            2150     52.6775E-03     55.4078E-03
            1527            2133     52.9767E-03     55.6355E-03
            1527            2134     56.7002E-03     59.3180E-03
            1527            2150     52.6775E-03     55.4078E-03
            1527            2151     56.0146E-03     58.7894E-03
            1528            2134     56.7002E-03     59.3180E-03
            1528            2135     60.6231E-03     63.2152E-03
            1528            2151     56.0146E-03     58.7894E-03
            1528            2152     59.6684E-03     62.4949E-03
            1529            2135     60.6231E-03     63.2152E-03
            1529            2136     64.7234E-03     67.3260E-03
            1529            2152     59.6684E-03     62.4949E-03
            1529            2153     63.5824E-03     66.4276E-03
            1530            2136     64.7234E-03     67.3260E-03
            1530            2137     68.9592E-03     71.5743E-03
            1530            2153     63.5824E-03     66.4276E-03
            1530            2154     67.6225E-03     70.4802E-03
            1531            2137     68.9592E-03     71.5743E-03
            1531            2138     73.2956E-03     75.9484E-03
            1531            2154     67.6225E-03     70.4802E-03
            1531            2155     71.8018E-03     74.6429E-03
            1532            2138     73.2956E-03     75.9484E-03
            1532            2139     77.7632E-03     80.4531E-03
            1532            2155     71.8018E-03     74.6429E-03
            1532            2156     76.0750E-03     78.9030E-03
            1533            2139     77.7632E-03     80.4531E-03
            1533            2140     82.3791E-03     85.1367E-03
            1533            2156     76.0750E-03     78.9030E-03
            1533            2157     80.5274E-03     83.3151E-03
            1534            2140     82.3791E-03     85.1367E-03
            1534            2141     87.2462E-03     90.0622E-03
            1534            2157     80.5274E-03     83.3151E-03
            1534            2158     85.1889E-03     87.9641E-03
            1535            2141     87.2462E-03     90.0622E-03
            1535            2142     92.5269E-03     95.3977E-03
            1535            2158     85.1889E-03     87.9641E-03
            1535            2159     90.2831E-03     93.0200E-03
            1536            2142     92.5269E-03     95.3977E-03
            1536            2143     98.3727E-03     101.277E-03
            1536            2159     90.2831E-03     93.0200E-03
            1536            2160     96.0357E-03     98.7781E-03
            1537            2143     98.3727E-03     101.277E-03
            1537            2144     105.529E-03     108.101E-03
            1537            2160     96.0357E-03     98.7781E-03
            1537            2161     102.937E-03     105.651E-03
            1538            2144     105.529E-03     108.101E-03
            1538            2145     113.380E-03     115.626E-03
            1538            2161     102.937E-03     105.651E-03
            1538            2162     112.658E-03     114.683E-03
            1539            2145     113.380E-03     115.626E-03
            1539            2146     120.534E-03     122.898E-03
            1539            2162     112.658E-03     114.683E-03
            1539            2163     123.053E-03     123.932E-03
            1540             113     127.606E-03     127.918E-03
            1540             114     123.902E-03     126.406E-03
            1540            2146     120.534E-03     122.898E-03
            1540            2163     123.053E-03     123.932E-03
            1541             373     50.1470E-03     52.7774E-03
            1541             374     41.8471E-03     45.7284E-03
            1541            2147     44.6922E-03     48.1946E-03
            1541            2164     49.8777E-03     52.2243E-03
            1542            2147     44.6922E-03     48.1946E-03
            1542            2148     48.1661E-03     51.0517E-03
            1542            2164     49.8777E-03     52.2243E-03
            1542            2165     49.0353E-03     51.3214E-03
            1543            2148     48.1661E-03     51.0517E-03
            1543            2149     49.9273E-03     52.6128E-03
            1543            2165     49.0353E-03     51.3214E-03
            1543            2166     49.7137E-03     52.3334E-03
            1544            2149     49.9273E-03     52.6128E-03
            1544            2150     52.6775E-03     55.4078E-03
            1544            2166     49.7137E-03     52.3334E-03
            1544            2167     52.2173E-03     55.0663E-03
            1545            2150     52.6775E-03     55.4078E-03
            1545            2151     56.0146E-03     58.7894E-03
            1545            2167     52.2173E-03     55.0663E-03
            1545            2168     55.2044E-03     58.2282E-03
            1546            2151     56.0146E-03     58.7894E-03
            1546            2152     59.6684E-03     62.4949E-03
            1546            2168     55.2044E-03     58.2282E-03
            1546            2169     58.7010E-03     61.8165E-03
            1547            2152     59.6684E-03     62.4949E-03
            1547            2153     63.5824E-03     66.4276E-03
            1547            2169     58.7010E-03     61.8165E-03
            1547            2170     62.3846E-03     65.5438E-03
            1548            2153     63.5824E-03     66.4276E-03
            1548            2154     67.6225E-03     70.4802E-03
            1548            2170     62.3846E-03     65.5438E-03
            1548            2171     66.2624E-03     69.4035E-03
            1549            2154     67.6225E-03     70.4802E-03
            1549            2155     71.8018E-03     74.6429E-03
            1549            2171     66.2624E-03     69.4035E-03
            1549            2172     70.2272E-03     73.3119E-03
            1550            2155     71.8018E-03     74.6429E-03
            1550            2156     76.0750E-03     78.9030E-03
            1550            2172     70.2272E-03     73.3119E-03
            1550            2173     74.3283E-03     77.3015E-03
            1551            2156     76.0750E-03     78.9030E-03
            1551            2157     80.5274E-03     83.3151E-03
            1551            2173     74.3283E-03     77.3015E-03
            1551            2174     78.5405E-03     81.3723E-03
            1552            2157     80.5274E-03     83.3151E-03
            1552            2158     85.1889E-03     87.9641E-03
            1552            2174     78.5405E-03     81.3723E-03
            1552            2175     83.0067E-03     85.6509E-03
            1553            2158     85.1889E-03     87.9641E-03
            1553            2159     90.2831E-03     93.0200E-03
            1553            2175     83.0067E-03     85.6509E-03
            1553            2176     87.7656E-03     90.2301E-03
            1554            2159     90.2831E-03     93.0200E-03
            1554            2160     96.0357E-03     98.7781E-03
            1554            2176     87.7656E-03     90.2301E-03
            1554            2177     93.2207E-03     95.5181E-03
            1555            2160     96.0357E-03     98.7781E-03
            1555            2161     102.937E-03     105.651E-03
            1555            2177     93.2207E-03     95.5181E-03
            1555            2178     99.5418E-03     101.820E-03
            1556            2161     102.937E-03     105.651E-03
            1556            2162     112.658E-03     114.683E-03
            1556            2178     99.5418E-03     101.820E-03
            1556            2179     108.292E-03     110.801E-03
            1557            2162     112.658E-03     114.683E-03
            1557            2163     123.053E-03     123.932E-03
            1557            2179     108.292E-03     110.801E-03
            1557            2180     121.976E-03     123.851E-03
            1558             112     130.189E-03     131.295E-03
            1558             113     127.606E-03     127.918E-03
            1558            2163     123.053E-03     123.932E-03
            1558            2180     121.976E-03     123.851E-03
            1559             372     55.5191E-03     54.0422E-03
            1559             373     50.1470E-03     52.7774E-03
            1559            2164     49.8777E-03     52.2243E-03
            1559            2181     53.6603E-03     53.0193E-03
            1560            2164     49.8777E-03     52.2243E-03
            1560            2165     49.0353E-03     51.3214E-03
            1560            2181     53.6603E-03     53.0193E-03
            1560            2182     52.5172E-03     53.1053E-03
            1561            2165     49.0353E-03     51.3214E-03
            1561            2166     49.7137E-03     52.3334E-03
            1561            2182     52.5172E-03     53.1053E-03
            1561            2183     54.7541E-03     55.9965E-03
            1562            2166     49.7137E-03     52.3334E-03
            1562            2167     52.2173E-03     55.0663E-03
            1562            2183     54.7541E-03     55.9965E-03
            1562            2184     58.1263E-03     59.7931E-03
            1563            2167     52.2173E-03     55.0663E-03
            1563            2168     55.2044E-03     58.2282E-03
            1563            2184     58.1263E-03     59.7931E-03
            1563            2185     62.0312E-03     63.9342E-03
            1564            2168     55.2044E-03     58.2282E-03
            1564            2169     58.7010E-03     61.8165E-03
            1564            2185     62.0312E-03     63.9342E-03
            1564            2186     66.2203E-03     68.2404E-03
            1565            2169     58.7010E-03     61.8165E-03
            1565            2170     62.3846E-03     65.5438E-03
            1565            2186     66.2203E-03     68.2404E-03
            1565            2187     70.5610E-03     72.6005E-03
            1566            2170     62.3846E-03     65.5438E-03
            1566            2171     66.2624E-03     69.4035E-03
            1566            2187     70.5610E-03     72.6005E-03
            1566            2188     74.9529E-03     76.9547E-03
            1567            2171     66.2624E-03     69.4035E-03
            1567            2172     70.2272E-03     73.3119E-03
            1567            2188     74.9529E-03     76.9547E-03
            1567            2189     79.3922E-03     81.2703E-03
            1568            2172     70.2272E-03     73.3119E-03
            1568            2173     74.3283E-03     77.3015E-03
            1568            2189     79.3922E-03     81.2703E-03
            1568            2190     83.8117E-03     85.5306E-03
            1569            2173     74.3283E-03     77.3015E-03
            1569            2174     78.5405E-03     81.3723E-03
            1569            2190     83.8117E-03     85.5306E-03
            1569            2191     88.2826E-03     89.7241E-03
            1570            2174     78.5405E-03     81.3723E-03
            1570            2175     83.0067E-03     85.6509E-03
            1570            2191     88.2826E-03     89.7241E-03
            1570            2192     92.7264E-03     93.8777E-03
            1571            2175     83.0067E-03     85.6509E-03
            1571            2176     87.7656E-03     90.2301E-03
            1571            2192     92.7264E-03     93.8777E-03
            1571            2193     97.3316E-03     98.0299E-03
            1572            2176     87.7656E-03     90.2301E-03
            1572            2177     93.2207E-03     95.5181E-03
            1572            2193     97.3316E-03     98.0299E-03
            1572            2194     101.981E-03     102.317E-03
            1573            2177     93.2207E-03     95.5181E-03
            1573            2178     99.5418E-03     101.820E-03
            1573            2194     101.981E-03     102.317E-03
            1573            2195     107.157E-03     107.047E-03
            1574            2178     99.5418E-03     101.820E-03
            1574            2179     108.292E-03     110.801E-03
            1574            2195     107.157E-03     107.047E-03
            1574            2196     112.711E-03     112.638E-03
            1575            2179     108.292E-03     110.801E-03
            1575            2180     121.976E-03     123.851E-03
            1575            2196     112.711E-03     112.638E-03
            1575            2197     121.063E-03     122.936E-03
            1576             111     126.853E-03     130.161E-03
            1576             112     130.189E-03     131.295E-03
            1576            2180     121.976E-03     123.851E-03
            1576            2197     121.063E-03     122.936E-03
            1577             371     48.1408E-03     51.2337E-03
            1577             372     55.5191E-03     54.0422E-03
            1577            2181     53.6603E-03     53.0193E-03
            1577            2198     51.2422E-03     52.9223E-03
            1578            2181     53.6603E-03     53.0193E-03
            1578            2182     52.5172E-03     53.1053E-03
            1578            2198     51.2422E-03     52.9223E-03
            1578            2199     55.8906E-03     56.1688E-03
            1579            2182     52.5172E-03     53.1053E-03
            1579            2183     54.7541E-03     55.9965E-03
            1579            2199     55.8906E-03     56.1688E-03
            1579            2200     59.9681E-03     60.3703E-03
            1580            2183     54.7541E-03     55.9965E-03
            1580            2184     58.1263E-03     59.7931E-03
            1580            2200     59.9681E-03     60.3703E-03
            1580            2201     64.8658E-03     65.4877E-03
            1581            2184     58.1263E-03     59.7931E-03
            1581            2185     62.0312E-03     63.9342E-03
            1581            2201     64.8658E-03     65.4877E-03
            1581            2202     69.8482E-03     70.6362E-03
            1582            2185     62.0312E-03     63.9342E-03
            1582            2186     66.2203E-03     68.2404E-03
            1582            2202     69.8482E-03     70.6362E-03
            1582            2203     75.0142E-03     75.8822E-03
            1583            2186     66.2203E-03     68.2404E-03
            1583            2187     70.5610E-03     72.6005E-03
            1583            2203     75.0142E-03     75.8822E-03
            1583            2204     80.1680E-03     81.0447E-03
            1584            2187     70.5610E-03     72.6005E-03
            1584            2188     74.9529E-03     76.9547E-03
            1584            2204     80.1680E-03     81.0447E-03
            1584            2205     85.3326E-03     86.1689E-03
            1585            2188     74.9529E-03     76.9547E-03
            1585            2189     79.3922E-03     81.2703E-03
            1585            2205     85.3326E-03     86.1689E-03
            1585            2206     90.4468E-03     91.1848E-03
            1586            2189     79.3922E-03     81.2703E-03
            1586            2190     83.8117E-03     85.5306E-03
            1586            2206     90.4468E-03     91.1848E-03
            1586            2207     95.5102E-03     96.1098E-03
            1587            2190     83.8117E-03     85.5306E-03
            1587            2191     88.2826E-03     89.7241E-03
            1587            2207     95.5102E-03     96.1098E-03
            1587            2208     100.478E-03     100.880E-03
            1588            2191     88.2826E-03     89.7241E-03
            1588            2192     92.7264E-03     93.8777E-03
            1588            2208     100.478E-03     100.880E-03
            1588            2209     105.352E-03     105.502E-03
            1589            2192     92.7264E-03     93.8777E-03
            1589            2193     97.3316E-03     98.0299E-03
            1589            2209     105.352E-03     105.502E-03
            1589            2210     110.028E-03     109.893E-03
            1590            2193     97.3316E-03     98.0299E-03
            1590            2194     101.981E-03     102.317E-03
            1590            2210     110.028E-03     109.893E-03
            1590            2211     114.565E-03     114.093E-03
            1591            2194     101.981E-03     102.317E-03
            1591            2195     107.157E-03     107.047E-03
            1591            2211     114.565E-03     114.093E-03
            1591            2212     118.717E-03     118.011E-03
            1592            2195     107.157E-03     107.047E-03
            1592            2196     112.711E-03     112.638E-03
            1592            2212     118.717E-03     118.011E-03
            1592            2213     122.734E-03     121.889E-03
            1593            2196     112.711E-03     112.638E-03
            1593            2197     121.063E-03     122.936E-03
            1593            2213     122.734E-03     121.889E-03
            1593            2214     126.484E-03     125.035E-03
            1594             110     128.091E-03     126.119E-03
            1594             111     126.853E-03     130.161E-03
            1594            2197     121.063E-03     122.936E-03
            1594            2214     126.484E-03     125.035E-03
            1595             370     42.7491E-03     47.8390E-03
            1595             371     48.1408E-03     51.2337E-03
            1595            2198     51.2422E-03     52.9223E-03
            1595            2215     47.2327E-03     51.5304E-03
            1596            2198     51.2422E-03     52.9223E-03
            1596            2199     55.8906E-03     56.1688E-03
            1596            2215     47.2327E-03     51.5304E-03
            1596            2216     54.6396E-03     57.2156E-03
            1597            2199     55.8906E-03     56.1688E-03
            1597            2200     59.9681E-03     60.3703E-03
            1597            2216     54.6396E-03     57.2156E-03
            1597            2217     60.2567E-03     61.7099E-03
            1598            2200     59.9681E-03     60.3703E-03
            1598            2201     64.8658E-03     65.4877E-03
            1598            2217     60.2567E-03     61.7099E-03
            1598            2218     65.6675E-03     66.8958E-03
            1599            2201     64.8658E-03     65.4877E-03
            1599            2202     69.8482E-03     70.6362E-03
            1599            2218     65.6675E-03     66.8958E-03
            1599            2219     71.0563E-03     72.2377E-03
            1600            2202     69.8482E-03     70.6362E-03
            1600            2203     75.0142E-03     75.8822E-03
            1600            2219     71.0563E-03     72.2377E-03
            1600            2220     76.4190E-03     77.5962E-03
            1601            2203     75.0142E-03     75.8822E-03
            1601            2204     80.1680E-03     81.0447E-03
            1601            2220     76.4190E-03     77.5962E-03
            1601            2221     81.7902E-03     82.9769E-03
            1602            2204     80.1680E-03     81.0447E-03
            1602            2205     85.3326E-03     86.1689E-03
            1602            2221     81.7902E-03     82.9769E-03
            1602            2222     87.1600E-03     88.3346E-03
            1603            2205     85.3326E-03     86.1689E-03
            1603            2206     90.4468E-03     91.1848E-03
            1603            2222     87.1600E-03     88.3346E-03
            1603            2223     92.5296E-03     93.6900E-03
            1604            2206     90.4468E-03     91.1848E-03
            1604            2207     95.5102E-03     96.1098E-03
            1604            2223     92.5296E-03     93.6900E-03
            1604            2224     97.8924E-03     99.0228E-03
            1605            2207     95.5102E-03     96.1098E-03
            1605            2208     100.478E-03     100.880E-03
            1605            2224     97.8924E-03     99.0228E-03
            1605            2225     103.228E-03     104.333E-03
            1606            2208     100.478E-03     100.880E-03
            1606            2209     105.352E-03     105.502E-03
            1606            2225     103.228E-03     104.333E-03
            1606            2226     108.486E-03     109.589E-03
            1607            2209     105.352E-03     105.502E-03
            1607            2210     110.028E-03     109.893E-03
            1607            2226     108.486E-03     109.589E-03
            1607            2227     113.644E-03     114.755E-03
            1608            2210     110.028E-03     109.893E-03
            1608            2211     114.565E-03     114.093E-03
            1608            2227     113.644E-03     114.755E-03
            1608            2228     118.550E-03     119.799E-03
            1609            2211     114.565E-03     114.093E-03
            1609            2212     118.717E-03     118.011E-03
            1609            2228     118.550E-03     119.799E-03
            1609            2229     123.205E-03     124.582E-03
            1610            2212     118.717E-03     118.011E-03
            1610            2213     122.734E-03     121.889E-03
            1610            2229     123.205E-03     124.582E-03
            1610            2230     127.639E-03     129.051E-03
            1611            2213     122.734E-03     121.889E-03
            1611            2214     126.484E-03     125.035E-03
            1611            2230     127.639E-03     129.051E-03
            1611            2231     131.545E-03     132.337E-03
            1612             109     133.318E-03     133.456E-03
            1612             110     128.091E-03     126.119E-03
            1612            2214     126.484E-03     125.035E-03
            1612            2231     131.545E-03     132.337E-03
            1613             369     42.5919E-03     45.6699E-03
            1613             370     42.7491E-03     47.8390E-03
            1613            2215     47.2327E-03     51.5304E-03
            1613            2232     46.3013E-03     49.7657E-03
            1614            2215     47.2327E-03     51.5304E-03
            1614            2216     54.6396E-03     57.2156E-03
            1614            2232     46.3013E-03     49.7657E-03
            1614            2233     53.7228E-03     57.1195E-03
            1615            2216     54.6396E-03     57.2156E-03
            1615            2217     60.2567E-03     61.7099E-03
            1615            2233     53.7228E-03     57.1195E-03
            1615            2234     60.4207E-03     62.9238E-03
            1616            2217     60.2567E-03     61.7099E-03
            1616            2218     65.6675E-03     66.8958E-03
            1616            2234     60.4207E-03     62.9238E-03
            1616            2235     66.3242E-03     68.2332E-03
            1617            2218     65.6675E-03     66.8958E-03
            1617            2219     71.0563E-03     72.2377E-03
            1617            2235     66.3242E-03     68.2332E-03
            1617            2236     71.9998E-03     73.6889E-03
            1618            2219     71.0563E-03     72.2377E-03
            1618            2220     76.4190E-03     77.5962E-03
            1618            2236     71.9998E-03     73.6889E-03
            1618            2237     77.5327E-03     79.1300E-03
            1619            2220     76.4190E-03     77.5962E-03
            1619            2221     81.7902E-03     82.9769E-03
            1619            2237     77.5327E-03     79.1300E-03
            1619            2238     83.0484E-03     84.6187E-03
            1620            2221     81.7902E-03     82.9769E-03
            1620            2222     87.1600E-03     88.3346E-03
            1620            2238     83.0484E-03     84.6187E-03
            1620            2239     88.5558E-03     90.1427E-03
            1621            2222     87.1600E-03     88.3346E-03
            1621            2223     92.5296E-03     93.6900E-03
            1621            2239     88.5558E-03     90.1427E-03
            1621            2240     94.1065E-03     95.7287E-03
            1622            2223     92.5296E-03     93.6900E-03
            1622            2224     97.8924E-03     99.0228E-03
            1622            2240     94.1065E-03     95.7287E-03
            1622            2241     99.6725E-03     101.367E-03
            1623            2224     97.8924E-03     99.0228E-03
            1623            2225     103.228E-03     104.333E-03
            1623            2241     99.6725E-03     101.367E-03
            1623            2242     105.275E-03     107.069E-03
            1624            2225     103.228E-03     104.333E-03
            1624            2226     108.486E-03     109.589E-03
            1624            2242     105.275E-03     107.069E-03
            1624            2243     110.851E-03     112.802E-03
            1625            2226     108.486E-03     109.589E-03
            1625            2227     113.644E-03     114.755E-03
            1625            2243     110.851E-03     112.802E-03
            1625            2244     116.368E-03     118.529E-03
            1626            2227     113.644E-03     114.755E-03
            1626            2228     118.550E-03     119.799E-03
            1626            2244     116.368E-03     118.529E-03
            1626            2245     121.696E-03     124.107E-03
            1627            2228     118.550E-03     119.799E-03
            1627            2229     123.205E-03     124.582E-03
            1627            2245     121.696E-03     124.107E-03
            1627            2246     126.797E-03     129.386E-03
            1628            2229     123.205E-03     124.582E-03
            1628            2230     127.639E-03     129.051E-03
            1628            2246     126.797E-03     129.386E-03
            1628            2247     131.394E-03     133.912E-03
            1629            2230     127.639E-03     129.051E-03
            1629            2231     131.545E-03     132.337E-03
            1629            2247     131.394E-03     133.912E-03
            1629            2248     135.404E-03     137.508E-03
            1630             108     137.354E-03     139.138E-03
            1630             109     133.318E-03     133.456E-03
            1630            2231     131.545E-03     132.337E-03
            1630            2248     135.404E-03     137.508E-03
            1631             368     42.4422E-03     46.6863E-03
            1631             369     42.5919E-03     45.6699E-03
            1631            2232     46.3013E-03     49.7657E-03
            1631            2249     46.4013E-03     50.1918E-03
            1632            2232     46.3013E-03     49.7657E-03
            1632            2233     53.7228E-03     57.1195E-03
            1632            2249     46.4013E-03     50.1918E-03
            1632            2250     53.8467E-03     57.1785E-03
            1633            2233     53.7228E-03     57.1195E-03
            1633            2234     60.4207E-03     62.9238E-03
            1633            2250     53.8467E-03     57.1785E-03
            1633            2251     60.6554E-03     63.6778E-03
            1634            2234     60.4207E-03     62.9238E-03
            1634            2235     66.3242E-03     68.2332E-03
            1634            2251     60.6554E-03     63.6778E-03
            1634            2252     66.8527E-03     69.3484E-03
            1635            2235     66.3242E-03     68.2332E-03
            1635            2236     71.9998E-03     73.6889E-03
            1635            2252     66.8527E-03     69.3484E-03
            1635            2253     72.6062E-03     74.7811E-03
            1636            2236     71.9998E-03     73.6889E-03
            1636            2237     77.5327E-03     79.1300E-03
            1636            2253     72.6062E-03     74.7811E-03
            1636            2254     78.2233E-03     80.2495E-03
            1637            2237     77.5327E-03     79.1300E-03
            1637            2238     83.0484E-03     84.6187E-03
            1637            2254     78.2233E-03     80.2495E-03
            1637            2255     83.7612E-03     85.7379E-03
            1638            2238     83.0484E-03     84.6187E-03
            1638            2239     88.5558E-03     90.1427E-03
            1638            2255     83.7612E-03     85.7379E-03
            1638            2256     89.3515E-03     91.3485E-03
            1639            2239     88.5558E-03     90.1427E-03
            1639            2240     94.1065E-03     95.7287E-03
            1639            2256     89.3515E-03     91.3485E-03
            1639            2257     94.9658E-03     97.0408E-03
            1640            2240     94.1065E-03     95.7287E-03
            1640            2241     99.6725E-03     101.367E-03
            1640            2257     94.9658E-03     97.0408E-03
            1640            2258     100.670E-03     102.863E-03
            1641            2241     99.6725E-03     101.367E-03
            1641            2242     105.275E-03     107.069E-03
            1641            2258     100.670E-03     102.863E-03
            1641            2259     106.408E-03     108.791E-03
            1642            2242     105.275E-03     107.069E-03
            1642            2243     110.851E-03     112.802E-03
            1642            2259     106.408E-03     108.791E-03
            1642            2260     112.247E-03     114.839E-03
            1643            2243     110.851E-03     112.802E-03
            1643            2244     116.368E-03     118.529E-03
            1643            2260     112.247E-03     114.839E-03
            1643            2261     118.048E-03     120.938E-03
            1644            2244     116.368E-03     118.529E-03
            1644            2245     121.696E-03     124.107E-03
            1644            2261     118.048E-03     120.938E-03
            1644            2262     123.830E-03     126.932E-03
            1645            2245     121.696E-03     124.107E-03
            1645            2246     126.797E-03     129.386E-03
            1645            2262     123.830E-03     126.932E-03
            1645            2263     129.320E-03     132.512E-03
            1646            2246     126.797E-03     129.386E-03
            1646            2247     131.394E-03     133.912E-03
            1646            2263     129.320E-03     132.512E-03
            1646            2264     134.274E-03     137.310E-03
            1647            2247     131.394E-03     133.912E-03
            1647            2248     135.404E-03     137.508E-03
            1647            2264     134.274E-03     137.310E-03
            1647            2265     138.984E-03     140.852E-03
            1648             107     141.269E-03     142.223E-03
            1648             108     137.354E-03     139.138E-03
            1648            2248     135.404E-03     137.508E-03
            1648            2265     138.984E-03     140.852E-03
            1649             367     43.7655E-03     47.3822E-03
            1649             368     42.4422E-03     46.6863E-03
            1649            2249     46.4013E-03     50.1918E-03
            1649            2266     47.3755E-03     51.1710E-03
            1650            2249     46.4013E-03     50.1918E-03
            1650            2250     53.8467E-03     57.1785E-03
            1650            2266     47.3755E-03     51.1710E-03
            1650            2267     54.5772E-03     58.1966E-03
            1651            2250     53.8467E-03     57.1785E-03
            1651            2251     60.6554E-03     63.6778E-03
            1651            2267     54.5772E-03     58.1966E-03
            1651            2268     61.2112E-03     64.3756E-03
            1652            2251     60.6554E-03     63.6778E-03
            1652            2252     66.8527E-03     69.3484E-03
            1652            2268     61.2112E-03     64.3756E-03
            1652            2269     67.2304E-03     70.1059E-03
            1653            2252     66.8527E-03     69.3484E-03
            1653            2253     72.6062E-03     74.7811E-03
            1653            2269     67.2304E-03     70.1059E-03
            1653            2270     72.8986E-03     75.4597E-03
            1654            2253     72.6062E-03     74.7811E-03
            1654            2254     78.2233E-03     80.2495E-03
            1654            2270     72.8986E-03     75.4597E-03
            1654            2271     78.3768E-03     80.7735E-03
            1655            2254     78.2233E-03     80.2495E-03
            1655            2255     83.7612E-03     85.7379E-03
            1655            2271     78.3768E-03     80.7735E-03
            1655            2272     83.9001E-03     86.2471E-03
            1656            2255     83.7612E-03     85.7379E-03
            1656            2256     89.3515E-03     91.3485E-03
            1656            2272     83.9001E-03     86.2471E-03
            1656            2273     89.4358E-03     91.8068E-03
            1657            2256     89.3515E-03     91.3485E-03
            1657            2257     94.9658E-03     97.0408E-03
            1657            2273     89.4358E-03     91.8068E-03
            1657            2274     95.0702E-03     97.5262E-03
            1658            2257     94.9658E-03     97.0408E-03
            1658            2258     100.670E-03     102.863E-03
            1658            2274     95.0702E-03     97.5262E-03
            1658            2275     100.764E-03     103.370E-03
            1659            2258     100.670E-03     102.863E-03
            1659            2259     106.408E-03     108.791E-03
            1659            2275     100.764E-03     103.370E-03
            1659            2276     106.601E-03     109.390E-03
            1660            2259     106.408E-03     108.791E-03
            1660            2260     112.247E-03     114.839E-03
            1660            2276     106.601E-03     109.390E-03
            1660            2277     112.507E-03     115.567E-03
            1661            2260     112.247E-03     114.839E-03
            1661            2261     118.048E-03     120.938E-03
            1661            2277     112.507E-03     115.567E-03
            1661            2278     118.648E-03     121.902E-03
            1662            2261     118.048E-03     120.938E-03
            1662            2262     123.830E-03     126.932E-03
            1662            2278     118.648E-03     121.902E-03
            1662            2279     124.800E-03     128.290E-03
            1663            2262     123.830E-03     126.932E-03
            1663            2263     129.320E-03     132.512E-03
            1663            2279     124.800E-03     128.290E-03
            1663            2280     130.868E-03     134.371E-03
            1664            2263     129.320E-03     132.512E-03
            1664            2264     134.274E-03     137.310E-03
            1664            2280     130.868E-03     134.371E-03
            1664            2281     136.698E-03     139.623E-03
            1665            2264     134.274E-03     137.310E-03
            1665            2265     138.984E-03     140.852E-03
            1665            2281     136.698E-03     139.623E-03
            1665            2282     141.697E-03     144.094E-03
            1666             106     143.992E-03     146.228E-03
            1666             107     141.269E-03     142.223E-03
            1666            2265     138.984E-03     140.852E-03
            1666            2282     141.697E-03     144.094E-03
            1667             366     45.1230E-03     49.4032E-03
            1667             367     43.7655E-03     47.3822E-03
            1667            2266     47.3755E-03     51.1710E-03
            1667            2283     48.9468E-03     52.8879E-03
            1668            2266     47.3755E-03     51.1710E-03
            1668            2267     54.5772E-03     58.1966E-03
            1668            2283     48.9468E-03     52.8879E-03
            1668            2284     55.8925E-03     59.5233E-03
            1669            2267     54.5772E-03     58.1966E-03
            1669            2268     61.2112E-03     64.3756E-03
            1669            2284     55.8925E-03     59.5233E-03
            1669            2285     62.0101E-03     65.4211E-03
            1670            2268     61.2112E-03     64.3756E-03
            1670            2269     67.2304E-03     70.1059E-03
            1670            2285     62.0101E-03     65.4211E-03
            1670            2286     67.5340E-03     70.5644E-03
            1671            2269     67.2304E-03     70.1059E-03
            1671            2270     72.8986E-03     75.4597E-03
            1671            2286     67.5340E-03     70.5644E-03
            1671            2287     72.7536E-03     75.5735E-03
            1672            2270     72.8986E-03     75.4597E-03
            1672            2271     78.3768E-03     80.7735E-03
            1672            2287     72.7536E-03     75.5735E-03
            1672            2288     78.0765E-03     80.7745E-03
            1673            2271     78.3768E-03     80.7735E-03
            1673            2272     83.9001E-03     86.2471E-03
            1673            2288     78.0765E-03     80.7745E-03
            1673            2289     83.4251E-03     86.0851E-03
            1674            2272     83.9001E-03     86.2471E-03
            1674            2273     89.4358E-03     91.8068E-03
            1674            2289     83.4251E-03     86.0851E-03
            1674            2290     88.8821E-03     91.5697E-03
            1675            2273     89.4358E-03     91.8068E-03
            1675            2274     95.0702E-03     97.5262E-03
            1675            2290     88.8821E-03     91.5697E-03
            1675            2291     94.4085E-03     97.1727E-03
            1676            2274     95.0702E-03     97.5262E-03
            1676            2275     100.764E-03     103.370E-03
            1676            2291     94.4085E-03     97.1727E-03
            1676            2292     100.052E-03     102.939E-03
            1677            2275     100.764E-03     103.370E-03
            1677            2276     106.601E-03     109.390E-03
            1677            2292     100.052E-03     102.939E-03
            1677            2293     105.799E-03     108.864E-03
            1678            2276     106.601E-03     109.390E-03
            1678            2277     112.507E-03     115.567E-03
            1678            2293     105.799E-03     108.864E-03
            1678            2294     111.770E-03     115.022E-03
            1679            2277     112.507E-03     115.567E-03
            1679            2278     118.648E-03     121.902E-03
            1679            2294     111.770E-03     115.022E-03
            1679            2295     117.925E-03     121.422E-03
            1680            2278     118.648E-03     121.902E-03
            1680            2279     124.800E-03     128.290E-03
            1680            2295     117.925E-03     121.422E-03
            1680            2296     124.595E-03     128.124E-03
            1681            2279     124.800E-03     128.290E-03
            1681            2280     130.868E-03     134.371E-03
            1681            2296     124.595E-03     128.124E-03
            1681            2297     131.493E-03     134.972E-03
            1682            2280     130.868E-03     134.371E-03
            1682            2281     136.698E-03     139.623E-03
            1682            2297     131.493E-03     134.972E-03
            1682            2298     138.148E-03     141.455E-03
            1683            2281     136.698E-03     139.623E-03
            1683            2282     141.697E-03     144.094E-03
            1683            2298     138.148E-03     141.455E-03
            1683            2299     144.528E-03     146.640E-03
            1684             105     147.553E-03     148.731E-03
            1684             106     143.992E-03     146.228E-03
            1684            2282     141.697E-03     144.094E-03
            1684            2299     144.528E-03     146.640E-03
            1685             365     47.9222E-03     51.6567E-03
            1685             366     45.1230E-03     49.4032E-03
            1685            2283     48.9468E-03     52.8879E-03
            1685            2300     51.3886E-03     55.3411E-03
            1686            2283     48.9468E-03     52.8879E-03
            1686            2284     55.8925E-03     59.5233E-03
            1686            2300     51.3886E-03     55.3411E-03
            1686            2301     57.9010E-03     61.7625E-03
            1687            2284     55.8925E-03     59.5233E-03
            1687            2285     62.0101E-03     65.4211E-03
            1687            2301     57.9010E-03     61.7625E-03
            1687            2302     63.0030E-03     66.3745E-03
            1688            2285     62.0101E-03     65.4211E-03
            1688            2286     67.5340E-03     70.5644E-03
            1688            2302     63.0030E-03     66.3745E-03
            1688            2303     67.4586E-03     70.5660E-03
            1689            2286     67.5340E-03     70.5644E-03
            1689            2287     72.7536E-03     75.5735E-03
            1689            2303     67.4586E-03     70.5660E-03
            1689            2304     72.3071E-03     75.2968E-03
            1690            2287     72.7536E-03     75.5735E-03
            1690            2288     78.0765E-03     80.7745E-03
            1690            2304     72.3071E-03     75.2968E-03
            1690            2305     77.3095E-03     80.2567E-03
            1691            2288     78.0765E-03     80.7745E-03
            1691            2289     83.4251E-03     86.0851E-03
            1691            2305     77.3095E-03     80.2567E-03
            1691            2306     82.4816E-03     85.4225E-03
            1692            2289     83.4251E-03     86.0851E-03
            1692            2290     88.8821E-03     91.5697E-03
            1692            2306     82.4816E-03     85.4225E-03
            1692            2307     87.7648E-03     90.7269E-03
            1693            2290     88.8821E-03     91.5697E-03
            1693            2291     94.4085E-03     97.1727E-03
            1693            2307     87.7648E-03     90.7269E-03
            1693            2308     93.1430E-03     96.1529E-03
            1694            2291     94.4085E-03     97.1727E-03
            1694            2292     100.052E-03     102.939E-03
            1694            2308     93.1430E-03     96.1529E-03
            1694            2309     98.6183E-03     101.697E-03
            1695            2292     100.052E-03     102.939E-03
            1695            2293     105.799E-03     108.864E-03
            1695            2309     98.6183E-03     101.697E-03
            1695            2310     104.224E-03     107.404E-03
            1696            2293     105.799E-03     108.864E-03
            1696            2294     111.770E-03     115.022E-03
            1696            2310     104.224E-03     107.404E-03
            1696            2311     110.019E-03     113.324E-03
            1697            2294     111.770E-03     115.022E-03
            1697            2295     117.925E-03     121.422E-03
            1697            2311     110.019E-03     113.324E-03
            1697            2312     116.175E-03     119.609E-03
            1698            2295     117.925E-03     121.422E-03
            1698            2296     124.595E-03     128.124E-03
            1698            2312     116.175E-03     119.609E-03
            1698            2313     122.804E-03     126.350E-03
            1699            2296     124.595E-03     128.124E-03
            1699            2297     131.493E-03     134.972E-03
            1699            2313     122.804E-03     126.350E-03
            1699            2314     130.653E-03     133.930E-03
            1700            2297     131.493E-03     134.972E-03
            1700            2298     138.148E-03     141.455E-03
            1700            2314     130.653E-03     133.930E-03
            1700            2315     139.056E-03     141.937E-03
            1701            2298     138.148E-03     141.455E-03
            1701            2299     144.528E-03     146.640E-03
            1701            2315     139.056E-03     141.937E-03
            1701            2316     146.392E-03     149.327E-03
            1702             104     149.750E-03     152.819E-03
            1702             105     147.553E-03     148.731E-03
            1702            2299     144.528E-03     146.640E-03
            1702            2316     146.392E-03     149.327E-03
            1703             364     51.6665E-03     56.6694E-03
            1703             365     47.9222E-03     51.6567E-03
            1703            2300     51.3886E-03     55.3411E-03
            1703            2317     55.5787E-03     60.0283E-03
            1704            2300     51.3886E-03     55.3411E-03
            1704            2301     57.9010E-03     61.7625E-03
            1704            2317     55.5787E-03     60.0283E-03
            1704            2318     60.6044E-03     64.1275E-03
            1705            2301     57.9010E-03     61.7625E-03
            1705            2302     63.0030E-03     66.3745E-03
            1705            2318     60.6044E-03     64.1275E-03
            1705            2319     63.3563E-03     66.4867E-03
            1706            2302     63.0030E-03     66.3745E-03
            1706            2303     67.4586E-03     70.5660E-03
            1706            2319     63.3563E-03     66.4867E-03
            1706            2320     67.1417E-03     70.2697E-03
            1707            2303     67.4586E-03     70.5660E-03
            1707            2304     72.3071E-03     75.2968E-03
            1707            2320     67.1417E-03     70.2697E-03
            1707            2321     71.5337E-03     74.6995E-03
            1708            2304     72.3071E-03     75.2968E-03
            1708            2305     77.3095E-03     80.2567E-03
            1708            2321     71.5337E-03     74.6995E-03
            1708            2322     76.2443E-03     79.4480E-03
            1709            2305     77.3095E-03     80.2567E-03
            1709            2306     82.4816E-03     85.4225E-03
            1709            2322     76.2443E-03     79.4480E-03
            1709            2323     81.2036E-03     84.4347E-03
            1710            2306     82.4816E-03     85.4225E-03
            1710            2307     87.7648E-03     90.7269E-03
            1710            2323     81.2036E-03     84.4347E-03
            1710            2324     86.2722E-03     89.5140E-03
            1711            2307     87.7648E-03     90.7269E-03
            1711            2308     93.1430E-03     96.1529E-03
            1711            2324     86.2722E-03     89.5140E-03
            1711            2325     91.4505E-03     94.6865E-03
            1712            2308     93.1430E-03     96.1529E-03
            1712            2309     98.6183E-03     101.697E-03
            1712            2325     91.4505E-03     94.6865E-03
            1712            2326     96.6941E-03     99.9198E-03
            1713            2309     98.6183E-03     101.697E-03
            1713            2310     104.224E-03     107.404E-03
            1713            2326     96.6941E-03     99.9198E-03
            1713            2327     102.067E-03     105.266E-03
            1714            2310     104.224E-03     107.404E-03
            1714            2311     110.019E-03     113.324E-03
            1714            2327     102.067E-03     105.266E-03
            1714            2328     107.593E-03     110.793E-03
            1715            2311     110.019E-03     113.324E-03
            1715            2312     116.175E-03     119.609E-03
            1715            2328     107.593E-03     110.793E-03
            1715            2329     113.483E-03     116.656E-03
            1716            2312     116.175E-03     119.609E-03
            1716            2313     122.804E-03     126.350E-03
            1716            2329     113.483E-03     116.656E-03
            1716            2330     119.933E-03     123.151E-03
            1717            2313     122.804E-03     126.350E-03
            1717            2314     130.653E-03     133.930E-03
            1717            2330     119.933E-03     123.151E-03
            1717            2331     127.464E-03     130.654E-03
            1718            2314     130.653E-03     133.930E-03
            1718            2315     139.056E-03     141.937E-03
            1718            2331     127.464E-03     130.654E-03
            1718            2332     137.771E-03     140.250E-03
            1719            2315     139.056E-03     141.937E-03
            1719            2316     146.392E-03     149.327E-03
            1719            2332     137.771E-03     140.250E-03
            1719            2333     148.482E-03     149.622E-03
            1720             103     153.063E-03     153.452E-03
            1720             104     149.750E-03     152.819E-03
            1720            2316     146.392E-03     149.327E-03
            1720            2333     148.482E-03     149.622E-03
            1721             363     61.7929E-03     65.0801E-03
            1721             364     51.6665E-03     56.6694E-03
            1721            2317     55.5787E-03     60.0283E-03
            1721            2334     62.0245E-03     64.8056E-03
            1722            2317     55.5787E-03     60.0283E-03
            1722            2318     60.6044E-03     64.1275E-03
            1722            2334     62.0245E-03     64.8056E-03
            1722            2335     61.8358E-03     64.3781E-03
            1723            2318     60.6044E-03     64.1275E-03
            1723            2319     63.3563E-03     66.4867E-03
            1723            2335     61.8358E-03     64.3781E-03
            1723            2336     63.1579E-03     66.1067E-03
            1724            2319     63.3563E-03     66.4867E-03
            1724            2320     67.1417E-03     70.2697E-03
            1724            2336     63.1579E-03     66.1067E-03
            1724            2337     66.6015E-03     69.8209E-03
            1725            2320     67.1417E-03     70.2697E-03
            1725            2321     71.5337E-03     74.6995E-03
            1725            2337     66.6015E-03     69.8209E-03
            1725            2338     70.5622E-03     73.9880E-03
            1726            2321     71.5337E-03     74.6995E-03
            1726            2322     76.2443E-03     79.4480E-03
            1726            2338     70.5622E-03     73.9880E-03
            1726            2339     75.0789E-03     78.6176E-03
            1727            2322     76.2443E-03     79.4480E-03
            1727            2323     81.2036E-03     84.4347E-03
            1727            2339     75.0789E-03     78.6176E-03
            1727            2340     79.7661E-03     83.3518E-03
            1728            2323     81.2036E-03     84.4347E-03
            1728            2324     86.2722E-03     89.5140E-03
            1728            2340     79.7661E-03     83.3518E-03
            1728            2341     84.6285E-03     88.2043E-03
            1729            2324     86.2722E-03     89.5140E-03
            1729            2325     91.4505E-03     94.6865E-03
            1729            2341     84.6285E-03     88.2043E-03
            1729            2342     89.5394E-03     93.0520E-03
            1730            2325     91.4505E-03     94.6865E-03
            1730            2326     96.6941E-03     99.9198E-03
            1730            2342     89.5394E-03     93.0520E-03
            1730            2343     94.5410E-03     97.9363E-03
            1731            2326     96.6941E-03     99.9198E-03
            1731            2327     102.067E-03     105.266E-03
            1731            2343     94.5410E-03     97.9363E-03
            1731            2344     99.5962E-03     102.824E-03
            1732            2327     102.067E-03     105.266E-03
            1732            2328     107.593E-03     110.793E-03
            1732            2344     99.5962E-03     102.824E-03
            1732            2345     104.846E-03     107.842E-03
            1733            2328     107.593E-03     110.793E-03
            1733            2329     113.483E-03     116.656E-03
            1733            2345     104.846E-03     107.842E-03
            1733            2346     110.300E-03     113.058E-03
            1734            2329     113.483E-03     116.656E-03
            1734            2330     119.933E-03     123.151E-03
            1734            2346     110.300E-03     113.058E-03
            1734            2347     116.394E-03     118.883E-03
            1735            2330     119.933E-03     123.151E-03
            1735            2331     127.464E-03     130.654E-03
            1735            2347     116.394E-03     118.883E-03
            1735            2348     123.235E-03     125.634E-03
            1736            2331     127.464E-03     130.654E-03
            1736            2332     137.771E-03     140.250E-03
            1736            2348     123.235E-03     125.634E-03
            1736            2349     132.504E-03     135.049E-03
            1737            2332     137.771E-03     140.250E-03
            1737            2333     148.482E-03     149.622E-03
            1737            2349     132.504E-03     135.049E-03
            1737            2350     146.670E-03     148.437E-03
            1738             102     155.052E-03     155.968E-03
            1738             103     153.063E-03     153.452E-03
            1738            2333     148.482E-03     149.622E-03
            1738            2350     146.670E-03     148.437E-03
            1739              20     62.7713E-03     63.2834E-03
            1739             362     61.8415E-03     62.9303E-03
            1739             363     61.7929E-03     65.0801E-03
            1739            2334     62.0245E-03     64.8056E-03
            1740             361     62.2144E-03     64.1289E-03
            1740             362     61.8415E-03     62.9303E-03
            1740            2334     62.0245E-03     64.8056E-03
            1740            2335     61.8358E-03     64.3781E-03
            1741             360     65.4501E-03     67.7690E-03
            1741             361     62.2144E-03     64.1289E-03
            1741            2335     61.8358E-03     64.3781E-03
            1741            2336     63.1579E-03     66.1067E-03
            1742             359     69.5832E-03     72.1604E-03
            1742             360     65.4501E-03     67.7690E-03
            1742            2336     63.1579E-03     66.1067E-03
            1742            2337     66.6015E-03     69.8209E-03
            1743             358     74.1726E-03     76.9107E-03
            1743             359     69.5832E-03     72.1604E-03
            1743            2337     66.6015E-03     69.8209E-03
            1743            2338     70.5622E-03     73.9880E-03
            1744             357     79.0352E-03     81.8719E-03
            1744             358     74.1726E-03     76.9107E-03
            1744            2338     70.5622E-03     73.9880E-03
            1744            2339     75.0789E-03     78.6176E-03
            1745             356     84.0591E-03     86.9365E-03
            1745             357     79.0352E-03     81.8719E-03
            1745            2339     75.0789E-03     78.6176E-03
            1745            2340     79.7661E-03     83.3518E-03
            1746             355     89.1697E-03     92.0590E-03
            1746             356     84.0591E-03     86.9365E-03
            1746            2340     79.7661E-03     83.3518E-03
            1746            2341     84.6285E-03     88.2043E-03
            1747             354     94.3574E-03     97.2039E-03
            1747             355     89.1697E-03     92.0590E-03
            1747            2341     84.6285E-03     88.2043E-03
            1747            2342     89.5394E-03     93.0520E-03
            1748             353     99.5731E-03     102.361E-03
            1748             354     94.3574E-03     97.2039E-03
            1748            2342     89.5394E-03     93.0520E-03
            1748            2343     94.5410E-03     97.9363E-03
            1749             352     104.875E-03     107.527E-03
            1749             353     99.5731E-03     102.361E-03
            1749            2343     94.5410E-03     97.9363E-03
            1749            2344     99.5962E-03     102.824E-03
            1750             351     110.216E-03     112.735E-03
            1750             352     104.875E-03     107.527E-03
            1750            2344     99.5962E-03     102.824E-03
            1750            2345     104.846E-03     107.842E-03
            1751             350     115.762E-03     118.038E-03
            1751             351     110.216E-03     112.735E-03
            1751            2345     104.846E-03     107.842E-03
            1751            2346     110.300E-03     113.058E-03
            1752             349     121.449E-03     123.573E-03
            1752             350     115.762E-03     118.038E-03
            1752            2346     110.300E-03     113.058E-03
            1752            2347     116.394E-03     118.883E-03
            1753             348     127.733E-03     129.651E-03
            1753             349     121.449E-03     123.573E-03
            1753            2347     116.394E-03     118.883E-03
            1753            2348     123.235E-03     125.634E-03
            1754             347     134.542E-03     136.672E-03
            1754             348     127.733E-03     129.651E-03
            1754            2348     123.235E-03     125.634E-03
            1754            2349     132.504E-03     135.049E-03
            1755             346     144.466E-03     148.283E-03
            1755             347     134.542E-03     136.672E-03
            1755            2349     132.504E-03     135.049E-03
            1755            2350     146.670E-03     148.437E-03
            1756               6     151.097E-03     156.091E-03
            1756             102     155.052E-03     155.968E-03
            1756             346     144.466E-03     148.283E-03
            1756            2350     146.670E-03     148.437E-03
            2271               3     7.65052E-03     9.51282E-03
            2271              38     479.046E-06     530.603E-06
            2271             345     6.11477E-03     6.94371E-03
            2271            2785     451.537E-06     506.265E-06
            2272             344     4.87104E-03     4.24231E-03
            2272             345     6.11477E-03     6.94371E-03
            2272            2785     451.537E-06     506.265E-06
            2272            2786     418.986E-06     473.869E-06
            2273             343     5.34205E-03     4.19646E-03
            2273             344     4.87104E-03     4.24231E-03
            2273            2786     418.986E-06     473.869E-06
            2273            2787     420.052E-06     467.500E-06
            2274             342     5.51917E-03     4.27669E-03
            2274             343     5.34205E-03     4.19646E-03
            2274            2787     420.052E-06     467.500E-06
            2274            2788     416.094E-06     461.443E-06
            2275             341     5.50394E-03     4.23217E-03
            2275             342     5.51917E-03     4.27669E-03
            2275            2788     416.094E-06     461.443E-06
            2275            2789     406.388E-06     452.296E-06
            2276             340     5.39373E-03     4.11603E-03
            2276             341     5.50394E-03     4.23217E-03
            2276            2789     406.388E-06     452.296E-06
            2276            2790     402.545E-06     446.164E-06
            2277             339     5.20274E-03     3.92813E-03
            2277             340     5.39373E-03     4.11603E-03
            2277            2790     402.545E-06     446.164E-06
            2277            2791     397.741E-06     439.616E-06
            2278             338     4.98996E-03     3.71558E-03
            2278             339     5.20274E-03     3.92813E-03
            2278            2791     397.741E-06     439.616E-06
            2278            2792     395.043E-06     434.480E-06
            2279             337     4.75829E-03     3.49223E-03
            2279             338     4.98996E-03     3.71558E-03
            2279            2792     395.043E-06     434.480E-06
            2279            2793     392.276E-06     429.152E-06
            2280             336     4.52497E-03     3.26050E-03
            2280             337     4.75829E-03     3.49223E-03
            2280            2793     392.276E-06     429.152E-06
            2280            2794     390.536E-06     424.569E-06
            2281             335     4.28397E-03     3.03207E-03
            2281             336     4.52497E-03     3.26050E-03
            2281            2794     390.536E-06     424.569E-06
            2281            2795     389.112E-06     420.057E-06
            2282             334     4.04038E-03     2.80446E-03
            2282             335     4.28397E-03     3.03207E-03
            2282            2795     389.112E-06     420.057E-06
            2282            2796     388.374E-06     416.003E-06
            2283             333     3.77385E-03     2.57465E-03
            2283             334     4.04038E-03     2.80446E-03
            2283            2796     388.374E-06     416.003E-06
            2283            2797     388.078E-06     412.251E-06
            2284             332     3.48886E-03     2.37821E-03
            2284             333     3.77385E-03     2.57465E-03
            2284            2797     388.078E-06     412.251E-06
            2284            2798     388.463E-06     408.875E-06
            2285             331     3.16462E-03     2.24046E-03
            2285             332     3.48886E-03     2.37821E-03
            2285            2798     388.463E-06     408.875E-06
            2285            2799     389.698E-06     406.290E-06
            2286             330     2.79240E-03     2.44386E-03
            2286             331     3.16462E-03     2.24046E-03
            2286            2799     389.698E-06     406.290E-06
            2286            2800     392.046E-06     404.801E-06
            2287             329     2.83132E-03     4.10917E-03
            2287             330     2.79240E-03     2.44386E-03
            2287            2800     392.046E-06     404.801E-06
            2287            2801     396.011E-06     400.337E-06
            2288              16     3.05959E-03     5.51001E-03
            2288             328     398.567E-06     396.516E-06
            2288             329     2.83132E-03     4.10917E-03
            2288            2801     396.011E-06     400.337E-06
            2289              38     479.046E-06     530.603E-06
            2289              39     227.867E-06     234.562E-06
            2289            2785     451.537E-06     506.265E-06
            2289            2802     328.613E-06     346.597E-06
            2290            2785     451.537E-06     506.265E-06
            2290            2786     418.986E-06     473.869E-06
            2290            2802     328.613E-06     346.597E-06
            2290            2803     455.381E-06     463.585E-06
            2291            2786     418.986E-06     473.869E-06
            2291            2787     420.052E-06     467.500E-06
            2291            2803     455.381E-06     463.585E-06
            2291            2804     457.933E-06     457.606E-06
            2292            2787     420.052E-06     467.500E-06
            2292            2788     416.094E-06     461.443E-06
            2292            2804     457.933E-06     457.606E-06
            2292            2805     435.558E-06     443.660E-06
            2293            2788     416.094E-06     461.443E-06
            2293            2789     406.388E-06     452.296E-06
            2293            2805     435.558E-06     443.660E-06
            2293            2806     430.100E-06     435.295E-06
            2294            2789     406.388E-06     452.296E-06
            2294            2790     402.545E-06     446.164E-06
            2294            2806     430.100E-06     435.295E-06
            2294            2807     423.120E-06     429.182E-06
            2295            2790     402.545E-06     446.164E-06
            2295            2791     397.741E-06     439.616E-06
            2295            2807     423.120E-06     429.182E-06
            2295            2808     419.293E-06     425.227E-06
            2296            2791     397.741E-06     439.616E-06
            2296            2792     395.043E-06     434.480E-06
            2296            2808     419.293E-06     425.227E-06
            2296            2809     414.754E-06     420.670E-06
            2297            2792     395.043E-06     434.480E-06
            2297            2793     392.276E-06     429.152E-06
            2297            2809     414.754E-06     420.670E-06
            2297            2810     411.280E-06     417.088E-06
            2298            2793     392.276E-06     429.152E-06
            2298            2794     390.536E-06     424.569E-06
            2298            2810     411.280E-06     417.088E-06
            2298            2811     407.694E-06     413.528E-06
            2299            2794     390.536E-06     424.569E-06
            2299            2795     389.112E-06     420.057E-06
            2299            2811     407.694E-06     413.528E-06
            2299            2812     404.850E-06     410.505E-06
            2300            2795     389.112E-06     420.057E-06
            2300            2796     388.374E-06     416.003E-06
            2300            2812     404.850E-06     410.505E-06
            2300            2813     402.195E-06     407.746E-06
            2301            2796     388.374E-06     416.003E-06
            2301            2797     388.078E-06     412.251E-06
            2301            2813     402.195E-06     407.746E-06
            2301            2814     399.716E-06     405.852E-06
            2302            2797     388.078E-06     412.251E-06
            2302            2798     388.463E-06     408.875E-06
            2302            2814     399.716E-06     405.852E-06
            2302            2815     399.075E-06     402.789E-06
            2303            2798     388.463E-06     408.875E-06
            2303            2799     389.698E-06     406.290E-06
            2303            2815     399.075E-06     402.789E-06
            2303            2816     396.447E-06     403.813E-06
            2304            2799     389.698E-06     406.290E-06
            2304            2800     392.046E-06     404.801E-06
            2304            2816     396.447E-06     403.813E-06
            2304            2817     397.761E-06     408.517E-06
            2305            2800     392.046E-06     404.801E-06
            2305            2801     396.011E-06     400.337E-06
            2305            2817     397.761E-06     408.517E-06
            2305            2818     423.540E-06     392.533E-06
            2306             327     444.605E-06     375.120E-06
            2306             328     398.567E-06     396.516E-06
            2306            2801     396.011E-06     400.337E-06
            2306            2818     423.540E-06     392.533E-06
            2307              39     227.867E-06     234.562E-06
            2307              40     89.9879E-06     209.381E-06
            2307            2802     328.613E-06     346.597E-06
            2307            2819     251.190E-06     292.293E-06
            2308            2802     328.613E-06     346.597E-06
            2308            2803     455.381E-06     463.585E-06
            2308            2819     251.190E-06     292.293E-06
            2308            2820     440.126E-06     399.505E-06
            2309            2803     455.381E-06     463.585E-06
            2309            2804     457.933E-06     457.606E-06
            2309            2820     440.126E-06     399.505E-06
            2309            2821     467.888E-06     426.779E-06
            2310            2804     457.933E-06     457.606E-06
            2310            2805     435.558E-06     443.660E-06
            2310            2821     467.888E-06     426.779E-06
            2310            2822     462.717E-06     425.347E-06
            2311            2805     435.558E-06     443.660E-06
            2311            2806     430.100E-06     435.295E-06
            2311            2822     462.717E-06     425.347E-06
            2311            2823     456.284E-06     420.513E-06
            2312            2806     430.100E-06     435.295E-06
            2312            2807     423.120E-06     429.182E-06
            2312            2823     456.284E-06     420.513E-06
            2312            2824     451.647E-06     418.008E-06
            2313            2807     423.120E-06     429.182E-06
            2313            2808     419.293E-06     425.227E-06
            2313            2824     451.647E-06     418.008E-06
            2313            2825     446.672E-06     415.108E-06
            2314            2808     419.293E-06     425.227E-06
            2314            2809     414.754E-06     420.670E-06
            2314            2825     446.672E-06     415.108E-06
            2314            2826     442.316E-06     412.904E-06
            2315            2809     414.754E-06     420.670E-06
            2315            2810     411.280E-06     417.088E-06
            2315            2826     442.316E-06     412.904E-06
            2315            2827     437.667E-06     410.745E-06
            2316            2810     411.280E-06     417.088E-06
            2316            2811     407.694E-06     413.528E-06
            2316            2827     437.667E-06     410.745E-06
            2316            2828     433.454E-06     409.108E-06
            2317            2811     407.694E-06     413.528E-06
            2317            2812     404.850E-06     410.505E-06
            2317            2828     433.454E-06     409.108E-06
            2317            2829     429.295E-06     407.812E-06
            2318            2812     404.850E-06     410.505E-06
            2318            2813     402.195E-06     407.746E-06
            2318            2829     429.295E-06     407.812E-06
            2318            2830     425.476E-06     407.019E-06
            2319            2813     402.195E-06     407.746E-06
            2319            2814     399.716E-06     405.852E-06
            2319            2830     425.476E-06     407.019E-06
            2319            2831     421.925E-06     406.629E-06
            2320            2814     399.716E-06     405.852E-06
            2320            2815     399.075E-06     402.789E-06
            2320            2831     421.925E-06     406.629E-06
            2320            2832     418.742E-06     406.871E-06
            2321            2815     399.075E-06     402.789E-06
            2321            2816     396.447E-06     403.813E-06
            2321            2832     418.742E-06     406.871E-06
            2321            2833     415.945E-06     407.905E-06
            2322            2816     396.447E-06     403.813E-06
            2322            2817     397.761E-06     408.517E-06
            2322            2833     415.945E-06     407.905E-06
            2322            2834     413.939E-06     410.401E-06
            2323            2817     397.761E-06     408.517E-06
            2323            2818     423.540E-06     392.533E-06
            2323            2834     413.939E-06     410.401E-06
            2323            2835     412.760E-06     412.868E-06
            2324             326     412.427E-06     413.596E-06
            2324             327     444.605E-06     375.120E-06
            2324            2818     423.540E-06     392.533E-06
            2324            2835     412.760E-06     412.868E-06
            2325               4     126.456E-06     275.447E-06
            2325              40     89.9879E-06     209.381E-06
            2325             513     268.860E-06     301.047E-06
            2325            2819     251.190E-06     292.293E-06
            2326             512     419.974E-06     354.583E-06
            2326             513     268.860E-06     301.047E-06
            2326            2819     251.190E-06     292.293E-06
            2326            2820     440.126E-06     399.505E-06
            2327             511     462.833E-06     404.201E-06
            2327             512     419.974E-06     354.583E-06
            2327            2820     440.126E-06     399.505E-06
            2327            2821     467.888E-06     426.779E-06
            2328             510     479.815E-06     416.477E-06
            2328             511     462.833E-06     404.201E-06
            2328            2821     467.888E-06     426.779E-06
            2328            2822     462.717E-06     425.347E-06
            2329             509     469.179E-06     413.608E-06
            2329             510     479.815E-06     416.477E-06
            2329            2822     462.717E-06     425.347E-06
            2329            2823     456.284E-06     420.513E-06
            2330             508     468.212E-06     414.382E-06
            2330             509     469.179E-06     413.608E-06
            2330            2823     456.284E-06     420.513E-06
            2330            2824     451.647E-06     418.008E-06
            2331             507     461.560E-06     411.001E-06
            2331             508     468.212E-06     414.382E-06
            2331            2824     451.647E-06     418.008E-06
            2331            2825     446.672E-06     415.108E-06
            2332             506     458.009E-06     410.776E-06
            2332             507     461.560E-06     411.001E-06
            2332            2825     446.672E-06     415.108E-06
            2332            2826     442.316E-06     412.904E-06
            2333             505     452.531E-06     408.959E-06
            2333             506     458.009E-06     410.776E-06
            2333            2826     442.316E-06     412.904E-06
            2333            2827     437.667E-06     410.745E-06
            2334             504     448.344E-06     408.668E-06
            2334             505     452.531E-06     408.959E-06
            2334            2827     437.667E-06     410.745E-06
            2334            2828     433.454E-06     409.108E-06
            2335             503     443.535E-06     408.171E-06
            2335             504     448.344E-06     408.668E-06
            2335            2828     433.454E-06     409.108E-06
            2335            2829     429.295E-06     407.812E-06
            2336             502     439.349E-06     408.564E-06
            2336             503     443.535E-06     408.171E-06
            2336            2829     429.295E-06     407.812E-06
            2336            2830     425.476E-06     407.019E-06
            2337             501     435.460E-06     408.862E-06
            2337             502     439.349E-06     408.564E-06
            2337            2830     425.476E-06     407.019E-06
            2337            2831     421.925E-06     406.629E-06
            2338             500     430.740E-06     411.416E-06
            2338             501     435.460E-06     408.862E-06
            2338            2831     421.925E-06     406.629E-06
            2338            2832     418.742E-06     406.871E-06
            2339             499     428.791E-06     411.484E-06
            2339             500     430.740E-06     411.416E-06
            2339            2832     418.742E-06     406.871E-06
            2339            2833     415.945E-06     407.905E-06
            2340             498     424.514E-06     411.209E-06
            2340             499     428.791E-06     411.484E-06
            2340            2833     415.945E-06     407.905E-06
            2340            2834     413.939E-06     410.401E-06
            2341             497     397.850E-06     428.792E-06
            2341             498     424.514E-06     411.209E-06
            2341            2834     413.939E-06     410.401E-06
            2341            2835     412.760E-06     412.868E-06
            2342              19     376.823E-06     444.654E-06
            2342             326     412.427E-06     413.596E-06
            2342             497     397.850E-06     428.792E-06
            2342            2835     412.760E-06     412.868E-06
            3393              23     37.6681E-03     82.7503E-03
            3393             570     30.1880E-03     54.7020E-03
            3393             608     49.2505E-03     68.0492E-03
            3393            3784     30.4452E-03     48.3562E-03
            3394             570     30.1880E-03     54.7020E-03
            3394             571     25.5722E-03     25.4743E-03
            3394            3784     30.4452E-03     48.3562E-03
            3394            3785     11.4852E-03     24.4565E-03
            3395             571     25.5722E-03     25.4743E-03
            3395             572     30.8290E-03     28.3488E-03
            3395            3785     11.4852E-03     24.4565E-03
            3395            3786     9.67511E-03     23.2928E-03
            3396             572     30.8290E-03     28.3488E-03
            3396             573     36.6256E-03     37.3313E-03
            3396            3786     9.67511E-03     23.2928E-03
            3396            3787     11.3083E-03     30.7804E-03
            3397             573     36.6256E-03     37.3313E-03
            3397             574     44.9863E-03     47.1831E-03
            3397            3787     11.3083E-03     30.7804E-03
            3397            3788     20.6054E-03     40.9567E-03
            3398             574     44.9863E-03     47.1831E-03
            3398             575     54.6563E-03     57.2913E-03
            3398            3788     20.6054E-03     40.9567E-03
            3398            3789     32.2927E-03     52.1004E-03
            3399             575     54.6563E-03     57.2913E-03
            3399             576     64.3585E-03     67.4594E-03
            3399            3789     32.2927E-03     52.1004E-03
            3399            3790     44.3063E-03     63.2288E-03
            3400             576     64.3585E-03     67.4594E-03
            3400             577     74.2148E-03     77.5804E-03
            3400            3790     44.3063E-03     63.2288E-03
            3400            3791     56.6237E-03     74.4059E-03
            3401             577     74.2148E-03     77.5804E-03
            3401             578     84.0729E-03     87.6861E-03
            3401            3791     56.6237E-03     74.4059E-03
            3401            3792     68.8285E-03     85.4393E-03
            3402             578     84.0729E-03     87.6861E-03
            3402             579     93.8559E-03     97.6919E-03
            3402            3792     68.8285E-03     85.4393E-03
            3402            3793     81.0853E-03     96.4593E-03
            3403             579     93.8559E-03     97.6919E-03
            3403             580     103.622E-03     107.602E-03
            3403            3793     81.0853E-03     96.4593E-03
            3403            3794     93.2287E-03     107.329E-03
            3404             580     103.622E-03     107.602E-03
            3404             581     113.176E-03     117.347E-03
            3404            3794     93.2287E-03     107.329E-03
            3404            3795     105.363E-03     118.162E-03
            3405             581     113.176E-03     117.347E-03
            3405             582     122.791E-03     126.907E-03
            3405            3795     105.363E-03     118.162E-03
            3405            3796     117.377E-03     128.827E-03
            3406             582     122.791E-03     126.907E-03
            3406             583     132.074E-03     136.264E-03
            3406            3796     117.377E-03     128.827E-03
            3406            3797     129.616E-03     139.633E-03
            3407             583     132.074E-03     136.264E-03
            3407             584     141.966E-03     145.782E-03
            3407            3797     129.616E-03     139.633E-03
            3407            3798     141.906E-03     150.635E-03
            3408             584     141.966E-03     145.782E-03
            3408             585     151.844E-03     155.901E-03
            3408            3798     141.906E-03     150.635E-03
            3408            3799     156.311E-03     163.716E-03
            3409             585     151.844E-03     155.901E-03
            3409             586     168.091E-03     175.874E-03
            3409            3799     156.311E-03     163.716E-03
            3409            3800     176.458E-03     181.157E-03
            3410               8     180.102E-03     190.578E-03
            3410             182     188.239E-03     190.967E-03
            3410             586     168.091E-03     175.874E-03
            3410            3800     176.458E-03     181.157E-03
            3411             607     65.6811E-03     55.6298E-03
            3411             608     49.2505E-03     68.0492E-03
            3411            3784     30.4452E-03     48.3562E-03
            3411            3801     42.4499E-03     39.9331E-03
            3412            3784     30.4452E-03     48.3562E-03
            3412            3785     11.4852E-03     24.4565E-03
            3412            3801     42.4499E-03     39.9331E-03
            3412            3802     15.2000E-03     19.1721E-03
            3413            3785     11.4852E-03     24.4565E-03
            3413            3786     9.67511E-03     23.2928E-03
            3413            3802     15.2000E-03     19.1721E-03
            3413            3803     10.2257E-03     16.2905E-03
            3414            3786     9.67511E-03     23.2928E-03
            3414            3787     11.3083E-03     30.7804E-03
            3414            3803     10.2257E-03     16.2905E-03
            3414            3804     13.7508E-03     23.8853E-03
            3415            3787     11.3083E-03     30.7804E-03
            3415            3788     20.6054E-03     40.9567E-03
            3415            3804     13.7508E-03     23.8853E-03
            3415            3805     23.6029E-03     34.9419E-03
            3416            3788     20.6054E-03     40.9567E-03
            3416            3789     32.2927E-03     52.1004E-03
            3416            3805     23.6029E-03     34.9419E-03
            3416            3806     35.3169E-03     46.5549E-03
            3417            3789     32.2927E-03     52.1004E-03
            3417            3790     44.3063E-03     63.2288E-03
            3417            3806     35.3169E-03     46.5549E-03
            3417            3807     47.6692E-03     58.3614E-03
            3418            3790     44.3063E-03     63.2288E-03
            3418            3791     56.6237E-03     74.4059E-03
            3418            3807     47.6692E-03     58.3614E-03
            3418            3808     59.9335E-03     70.0946E-03
            3419            3791     56.6237E-03     74.4059E-03
            3419            3792     68.8285E-03     85.4393E-03
            3419            3808     59.9335E-03     70.0946E-03
            3419            3809     72.2841E-03     81.8211E-03
            3420            3792     68.8285E-03     85.4393E-03
            3420            3793     81.0853E-03     96.4593E-03
            3420            3809     72.2841E-03     81.8211E-03
            3420            3810     84.5844E-03     93.5015E-03
            3421            3793     81.0853E-03     96.4593E-03
            3421            3794     93.2287E-03     107.329E-03
            3421            3810     84.5844E-03     93.5015E-03
            3421            3811     96.9226E-03     105.216E-03
            3422            3794     93.2287E-03     107.329E-03
            3422            3795     105.363E-03     118.162E-03
            3422            3811     96.9226E-03     105.216E-03
            3422            3812     109.272E-03     116.963E-03
            3423            3795     105.363E-03     118.162E-03
            3423            3796     117.377E-03     128.827E-03
            3423            3812     109.272E-03     116.963E-03
            3423            3813     121.686E-03     128.832E-03
            3424            3796     117.377E-03     128.827E-03
            3424            3797     129.616E-03     139.633E-03
            3424            3813     121.686E-03     128.832E-03
            3424            3814     134.389E-03     141.050E-03
            3425            3797     129.616E-03     139.633E-03
            3425            3798     141.906E-03     150.635E-03
            3425            3814     134.389E-03     141.050E-03
            3425            3815     147.511E-03     153.782E-03
            3426            3798     141.906E-03     150.635E-03
            3426            3799     156.311E-03     163.716E-03
            3426            3815     147.511E-03     153.782E-03
            3426            3816     163.390E-03     168.295E-03
            3427            3799     156.311E-03     163.716E-03
            3427            3800     176.458E-03     181.157E-03
            3427            3816     163.390E-03     168.295E-03
            3427            3817     179.170E-03     180.726E-03
            3428             181     185.689E-03     185.144E-03
            3428             182     188.239E-03     190.967E-03
            3428            3800     176.458E-03     181.157E-03
            3428            3817     179.170E-03     180.726E-03
            3429             606     72.4060E-03     63.3623E-03
            3429             607     65.6811E-03     55.6298E-03
            3429            3801     42.4499E-03     39.9331E-03
            3429            3818     53.5009E-03     44.9390E-03
            3430            3801     42.4499E-03     39.9331E-03
            3430            3802     15.2000E-03     19.1721E-03
            3430            3818     53.5009E-03     44.9390E-03
            3430            3819     21.6797E-03     19.2179E-03
            3431            3802     15.2000E-03     19.1721E-03
            3431            3803     10.2257E-03     16.2905E-03
            3431            3819     21.6797E-03     19.2179E-03
            3431            3820     10.5256E-03     12.3803E-03
            3432            3803     10.2257E-03     16.2905E-03
            3432            3804     13.7508E-03     23.8853E-03
            3432            3820     10.5256E-03     12.3803E-03
            3432            3821     17.0375E-03     18.5357E-03
            3433            3804     13.7508E-03     23.8853E-03
            3433            3805     23.6029E-03     34.9419E-03
            3433            3821     17.0375E-03     18.5357E-03
            3433            3822     27.7995E-03     30.1950E-03
            3434            3805     23.6029E-03     34.9419E-03
            3434            3806     35.3169E-03     46.5549E-03
            3434            3822     27.7995E-03     30.1950E-03
            3434            3823     39.7696E-03     42.2102E-03
            3435            3806     35.3169E-03     46.5549E-03
            3435            3807     47.6692E-03     58.3614E-03
            3435            3823     39.7696E-03     42.2102E-03
            3435            3824     51.7591E-03     54.2684E-03
            3436            3807     47.6692E-03     58.3614E-03
            3436            3808     59.9335E-03     70.0946E-03
            3436            3824     51.7591E-03     54.2684E-03
            3436            3825     63.8154E-03     66.3372E-03
            3437            3808     59.9335E-03     70.0946E-03
            3437            3809     72.2841E-03     81.8211E-03
            3437            3825     63.8154E-03     66.3372E-03
            3437            3826     75.9046E-03     78.4215E-03
            3438            3809     72.2841E-03     81.8211E-03
            3438            3810     84.5844E-03     93.5015E-03
            3438            3826     75.9046E-03     78.4215E-03
            3438            3827     88.0241E-03     90.5411E-03
            3439            3810     84.5844E-03     93.5015E-03
            3439            3811     96.9226E-03     105.216E-03
            3439            3827     88.0241E-03     90.5411E-03
            3439            3828     100.213E-03     102.736E-03
            3440            3811     96.9226E-03     105.216E-03
            3440            3812     109.272E-03     116.963E-03
            3440            3828     100.213E-03     102.736E-03
            3440            3829     112.448E-03     115.032E-03
            3441            3812     109.272E-03     116.963E-03
            3441            3813     121.686E-03     128.832E-03
            3441            3829     112.448E-03     115.032E-03
            3441            3830     124.903E-03     127.596E-03
            3442            3813     121.686E-03     128.832E-03
            3442            3814     134.389E-03     141.050E-03
            3442            3830     124.903E-03     127.596E-03
            3442            3831     137.382E-03     140.413E-03
            3443            3814     134.389E-03     141.050E-03
            3443            3815     147.511E-03     153.782E-03
            3443            3831     137.382E-03     140.413E-03
            3443            3832     151.113E-03     154.023E-03
            3444            3815     147.511E-03     153.782E-03
            3444            3816     163.390E-03     168.295E-03
            3444            3832     151.113E-03     154.023E-03
            3444            3833     164.823E-03     167.506E-03
            3445            3816     163.390E-03     168.295E-03
            3445            3817     179.170E-03     180.726E-03
            3445            3833     164.823E-03     167.506E-03
            3445            3834     175.333E-03     178.848E-03
            3446             180     179.737E-03     183.868E-03
            3446             181     185.689E-03     185.144E-03
            3446            3817     179.170E-03     180.726E-03
            3446            3834     175.333E-03     178.848E-03
            3447             605     92.4218E-03     80.0079E-03
            3447             606     72.4060E-03     63.3623E-03
            3447            3818     53.5009E-03     44.9390E-03
            3447            3835     64.9591E-03     60.5854E-03
            3448            3818     53.5009E-03     44.9390E-03
            3448            3819     21.6797E-03     19.2179E-03
            3448            3835     64.9591E-03     60.5854E-03
            3448            3836     23.4541E-03     27.7586E-03
            3449            3819     21.6797E-03     19.2179E-03
            3449            3820     10.5256E-03     12.3803E-03
            3449            3836     23.4541E-03     27.7586E-03
            3449            3837     13.2300E-03     13.2504E-03
            3450            3820     10.5256E-03     12.3803E-03
            3450            3821     17.0375E-03     18.5357E-03
            3450            3837     13.2300E-03     13.2504E-03
            3450            3838     22.3282E-03     16.5839E-03
            3451            3821     17.0375E-03     18.5357E-03
            3451            3822     27.7995E-03     30.1950E-03
            3451            3838     22.3282E-03     16.5839E-03
            3451            3839     33.6265E-03     27.0790E-03
            3452            3822     27.7995E-03     30.1950E-03
            3452            3823     39.7696E-03     42.2102E-03
            3452            3839     33.6265E-03     27.0790E-03
            3452            3840     45.1513E-03     38.9507E-03
            3453            3823     39.7696E-03     42.2102E-03
            3453            3824     51.7591E-03     54.2684E-03
            3453            3840     45.1513E-03     38.9507E-03
            3453            3841     56.5244E-03     50.8851E-03
            3454            3824     51.7591E-03     54.2684E-03
            3454            3825     63.8154E-03     66.3372E-03
            3454            3841     56.5244E-03     50.8851E-03
            3454            3842     68.0967E-03     62.9939E-03
            3455            3825     63.8154E-03     66.3372E-03
            3455            3826     75.9046E-03     78.4215E-03
            3455            3842     68.0967E-03     62.9939E-03
            3455            3843     79.6408E-03     75.1466E-03
            3456            3826     75.9046E-03     78.4215E-03
            3456            3827     88.0241E-03     90.5411E-03
            3456            3843     79.6408E-03     75.1466E-03
            3456            3844     91.2963E-03     87.3910E-03
            3457            3827     88.0241E-03     90.5411E-03
            3457            3828     100.213E-03     102.736E-03
            3457            3844     91.2963E-03     87.3910E-03
            3457            3845     102.949E-03     99.6780E-03
            3458            3828     100.213E-03     102.736E-03
            3458            3829     112.448E-03     115.032E-03
            3458            3845     102.949E-03     99.6780E-03
            3458            3846     114.721E-03     112.077E-03
            3459            3829     112.448E-03     115.032E-03
            3459            3830     124.903E-03     127.596E-03
            3459            3846     114.721E-03     112.077E-03
            3459            3847     126.486E-03     124.560E-03
            3460            3830     124.903E-03     127.596E-03
            3460            3831     137.382E-03     140.413E-03
            3460            3847     126.486E-03     124.560E-03
            3460            3848     138.518E-03     137.282E-03
            3461            3831     137.382E-03     140.413E-03
            3461            3832     151.113E-03     154.023E-03
            3461            3848     138.518E-03     137.282E-03
            3461            3849     150.421E-03     150.057E-03
            3462            3832     151.113E-03     154.023E-03
            3462            3833     164.823E-03     167.506E-03
            3462            3849     150.421E-03     150.057E-03
            3462            3850     161.877E-03     162.467E-03
            3463            3833     164.823E-03     167.506E-03
            3463            3834     175.333E-03     178.848E-03
            3463            3850     161.877E-03     162.467E-03
            3463            3851     171.466E-03     171.250E-03
            3464             179     175.298E-03     173.964E-03
            3464             180     179.737E-03     183.868E-03
            3464            3834     175.333E-03     178.848E-03
            3464            3851     171.466E-03     171.250E-03
            3465             604     95.7590E-03     116.372E-03
            3465             605     92.4218E-03     80.0079E-03
            3465            3835     64.9591E-03     60.5854E-03
            3465            3852     62.2681E-03     84.6123E-03
            3466            3835     64.9591E-03     60.5854E-03
            3466            3836     23.4541E-03     27.7586E-03
            3466            3852     62.2681E-03     84.6123E-03
            3466            3853     23.8478E-03     39.3707E-03
            3467            3836     23.4541E-03     27.7586E-03
            3467            3837     13.2300E-03     13.2504E-03
            3467            3853     23.8478E-03     39.3707E-03
            3467            3854     21.6363E-03     20.9173E-03
            3468            3837     13.2300E-03     13.2504E-03
            3468            3838     22.3282E-03     16.5839E-03
            3468            3854     21.6363E-03     20.9173E-03
            3468            3855     30.1532E-03     18.9418E-03
            3469            3838     22.3282E-03     16.5839E-03
            3469            3839     33.6265E-03     27.0790E-03
            3469            3855     30.1532E-03     18.9418E-03
            3469            3856     40.7648E-03     26.4120E-03
            3470            3839     33.6265E-03     27.0790E-03
            3470            3840     45.1513E-03     38.9507E-03
            3470            3856     40.7648E-03     26.4120E-03
            3470            3857     51.1917E-03     36.7445E-03
            3471            3840     45.1513E-03     38.9507E-03
            3471            3841     56.5244E-03     50.8851E-03
            3471            3857     51.1917E-03     36.7445E-03
            3471            3858     62.0011E-03     48.2791E-03
            3472            3841     56.5244E-03     50.8851E-03
            3472            3842     68.0967E-03     62.9939E-03
            3472            3858     62.0011E-03     48.2791E-03
            3472            3859     72.7377E-03     60.0441E-03
            3473            3842     68.0967E-03     62.9939E-03
            3473            3843     79.6408E-03     75.1466E-03
            3473            3859     72.7377E-03     60.0441E-03
            3473            3860     83.6459E-03     72.0679E-03
            3474            3843     79.6408E-03     75.1466E-03
            3474            3844     91.2963E-03     87.3910E-03
            3474            3860     83.6459E-03     72.0679E-03
            3474            3861     94.4725E-03     84.1075E-03
            3475            3844     91.2963E-03     87.3910E-03
            3475            3845     102.949E-03     99.6780E-03
            3475            3861     94.4725E-03     84.1075E-03
            3475            3862     105.341E-03     96.1718E-03
            3476            3845     102.949E-03     99.6780E-03
            3476            3846     114.721E-03     112.077E-03
            3476            3862     105.341E-03     96.1718E-03
            3476            3863     116.091E-03     108.169E-03
            3477            3846     114.721E-03     112.077E-03
            3477            3847     126.486E-03     124.560E-03
            3477            3863     116.091E-03     108.169E-03
            3477            3864     126.769E-03     120.015E-03
            3478            3847     126.486E-03     124.560E-03
            3478            3848     138.518E-03     137.282E-03
            3478            3864     126.769E-03     120.015E-03
            3478            3865     137.269E-03     131.656E-03
            3479            3848     138.518E-03     137.282E-03
            3479            3849     150.421E-03     150.057E-03
            3479            3865     137.269E-03     131.656E-03
            3479            3866     147.001E-03     142.690E-03
            3480            3849     150.421E-03     150.057E-03
            3480            3850     161.877E-03     162.467E-03
            3480            3866     147.001E-03     142.690E-03
            3480            3867     156.139E-03     153.019E-03
            3481            3850     161.877E-03     162.467E-03
            3481            3851     171.466E-03     171.250E-03
            3481            3867     156.139E-03     153.019E-03
            3481            3868     164.195E-03     161.757E-03
            3482             178     167.682E-03     165.366E-03
            3482             179     175.298E-03     173.964E-03
            3482            3851     171.466E-03     171.250E-03
            3482            3868     164.195E-03     161.757E-03
            3483              24     65.8284E-03     94.5070E-03
            3483             603     48.3175E-03     69.6215E-03
            3483             604     95.7590E-03     116.372E-03
            3483            3852     62.2681E-03     84.6123E-03
            3484             602     28.2326E-03     36.4806E-03
            3484             603     48.3175E-03     69.6215E-03
            3484            3852     62.2681E-03     84.6123E-03
            3484            3853     23.8478E-03     39.3707E-03
            3485             601     23.4404E-03     21.9161E-03
            3485             602     28.2326E-03     36.4806E-03
            3485            3853     23.8478E-03     39.3707E-03
            3485            3854     21.6363E-03     20.9173E-03
            3486             600     22.5228E-03     15.7036E-03
            3486             601     23.4404E-03     21.9161E-03
            3486            3854     21.6363E-03     20.9173E-03
            3486            3855     30.1532E-03     18.9418E-03
            3487             599     28.2267E-03     19.9213E-03
            3487             600     22.5228E-03     15.7036E-03
            3487            3855     30.1532E-03     18.9418E-03
            3487            3856     40.7648E-03     26.4120E-03
            3488             598     38.0624E-03     29.7685E-03
            3488             599     28.2267E-03     19.9213E-03
            3488            3856     40.7648E-03     26.4120E-03
            3488            3857     51.1917E-03     36.7445E-03
            3489             597     49.1212E-03     41.2973E-03
            3489             598     38.0624E-03     29.7685E-03
            3489            3857     51.1917E-03     36.7445E-03
            3489            3858     62.0011E-03     48.2791E-03
            3490             596     60.3824E-03     53.1573E-03
            3490             597     49.1212E-03     41.2973E-03
            3490            3858     62.0011E-03     48.2791E-03
            3490            3859     72.7377E-03     60.0441E-03
            3491             595     71.7365E-03     65.2131E-03
            3491             596     60.3824E-03     53.1573E-03
            3491            3859     72.7377E-03     60.0441E-03
            3491            3860     83.6459E-03     72.0679E-03
            3492             594     83.0938E-03     77.3283E-03
            3492             595     71.7365E-03     65.2131E-03
            3492            3860     83.6459E-03     72.0679E-03
            3492            3861     94.4725E-03     84.1075E-03
            3493             593     94.4340E-03     89.4135E-03
            3493             594     83.0938E-03     77.3283E-03
            3493            3861     94.4725E-03     84.1075E-03
            3493            3862     105.341E-03     96.1718E-03
            3494             592     105.688E-03     101.443E-03
            3494             593     94.4340E-03     89.4135E-03
            3494            3862     105.341E-03     96.1718E-03
            3494            3863     116.091E-03     108.169E-03
            3495             591     116.874E-03     113.330E-03
            3495             592     105.688E-03     101.443E-03
            3495            3863     116.091E-03     108.169E-03
            3495            3864     126.769E-03     120.015E-03
            3496             590     127.754E-03     124.928E-03
            3496             591     116.874E-03     113.330E-03
            3496            3864     126.769E-03     120.015E-03
            3496            3865     137.269E-03     131.656E-03
            3497             589     138.451E-03     136.159E-03
            3497             590     127.754E-03     124.928E-03
            3497            3865     137.269E-03     131.656E-03
            3497            3866     147.001E-03     142.690E-03
            3498             588     148.351E-03     146.750E-03
            3498             589     138.451E-03     136.159E-03
            3498            3866     147.001E-03     142.690E-03
            3498            3867     156.139E-03     153.019E-03
            3499             587     157.866E-03     157.964E-03
            3499             588     148.351E-03     146.750E-03
            3499            3867     156.139E-03     153.019E-03
            3499            3868     164.195E-03     161.757E-03
            3500              10     162.932E-03     164.045E-03
            3500             178     167.682E-03     165.366E-03
            3500             587     157.866E-03     157.964E-03
            3500            3868     164.195E-03     161.757E-03
            3959              20     62.7713E-03     63.2834E-03
            3959             362     61.8415E-03     62.9303E-03
            3959             548     63.0090E-03     84.7635E-03
            3959            4243     54.1836E-03     73.1518E-03
            3960             361     62.2144E-03     64.1289E-03
            3960             362     61.8415E-03     62.9303E-03
            3960            4243     54.1836E-03     73.1518E-03
            3960            4244     47.2599E-03     62.4666E-03
            3961             360     65.4501E-03     67.7690E-03
            3961             361     62.2144E-03     64.1289E-03
            3961            4244     47.2599E-03     62.4666E-03
            3961            4245     52.0770E-03     66.0468E-03
            3962             359     69.5832E-03     72.1604E-03
            3962             360     65.4501E-03     67.7690E-03
            3962            4245     52.0770E-03     66.0468E-03
            3962            4246     58.5068E-03     71.8038E-03
            3963             358     74.1726E-03     76.9107E-03
            3963             359     69.5832E-03     72.1604E-03
            3963            4246     58.5068E-03     71.8038E-03
            3963            4247     65.4998E-03     78.1688E-03
            3964             357     79.0352E-03     81.8719E-03
            3964             358     74.1726E-03     76.9107E-03
            3964            4247     65.4998E-03     78.1688E-03
            3964            4248     72.5586E-03     84.5868E-03
            3965             356     84.0591E-03     86.9365E-03
            3965             357     79.0352E-03     81.8719E-03
            3965            4248     72.5586E-03     84.5868E-03
            3965            4249     79.7428E-03     91.0130E-03
            3966             355     89.1697E-03     92.0590E-03
            3966             356     84.0591E-03     86.9365E-03
            3966            4249     79.7428E-03     91.0130E-03
            3966            4250     86.9704E-03     97.4504E-03
            3967             354     94.3574E-03     97.2039E-03
            3967             355     89.1697E-03     92.0590E-03
            3967            4250     86.9704E-03     97.4504E-03
            3967            4251     94.2656E-03     103.889E-03
            3968             353     99.5731E-03     102.361E-03
            3968             354     94.3574E-03     97.2039E-03
            3968            4251     94.2656E-03     103.889E-03
            3968            4252     101.543E-03     110.301E-03
            3969             352     104.875E-03     107.527E-03
            3969             353     99.5731E-03     102.361E-03
            3969            4252     101.543E-03     110.301E-03
            3969            4253     108.852E-03     116.702E-03
            3970             351     110.216E-03     112.735E-03
            3970             352     104.875E-03     107.527E-03
            3970            4253     108.852E-03     116.702E-03
            3970            4254     116.044E-03     123.005E-03
            3971             350     115.762E-03     118.038E-03
            3971             351     110.216E-03     112.735E-03
            3971            4254     116.044E-03     123.005E-03
            3971            4255     123.265E-03     129.208E-03
            3972             349     121.449E-03     123.573E-03
            3972             350     115.762E-03     118.038E-03
            3972            4255     123.265E-03     129.208E-03
            3972            4256     130.198E-03     135.231E-03
            3973             348     127.733E-03     129.651E-03
            3973             349     121.449E-03     123.573E-03
            3973            4256     130.198E-03     135.231E-03
            3973            4257     136.941E-03     140.843E-03
            3974             347     134.542E-03     136.672E-03
            3974             348     127.733E-03     129.651E-03
            3974            4257     136.941E-03     140.843E-03
            3974            4258     142.915E-03     145.751E-03
            3975             346     144.466E-03     148.283E-03
            3975             347     134.542E-03     136.672E-03
            3975            4258     142.915E-03     145.751E-03
            3975            4259     148.262E-03     151.320E-03
            3976               6     151.097E-03     156.091E-03
            3976             166     151.176E-03     154.733E-03
            3976             346     144.466E-03     148.283E-03
            3976            4259     148.262E-03     151.320E-03
            3977             548     63.0090E-03     84.7635E-03
            3977             549     69.5094E-03     88.7912E-03
            3977            4243     54.1836E-03     73.1518E-03
            3977            4260     52.5867E-03     73.2005E-03
            3978            4243     54.1836E-03     73.1518E-03
            3978            4244     47.2599E-03     62.4666E-03
            3978            4260     52.5867E-03     73.2005E-03
            3978            4261     34.5485E-03     56.1728E-03
            3979            4244     47.2599E-03     62.4666E-03
            3979            4245     52.0770E-03     66.0468E-03
            3979            4261     34.5485E-03     56.1728E-03
            3979            4262     37.9225E-03     58.1543E-03
            3980            4245     52.0770E-03     66.0468E-03
            3980            4246     58.5068E-03     71.8038E-03
            3980            4262     37.9225E-03     58.1543E-03
            3980            4263     46.4010E-03     65.1488E-03
            3981            4246     58.5068E-03     71.8038E-03
            3981            4247     65.4998E-03     78.1688E-03
            3981            4263     46.4010E-03     65.1488E-03
            3981            4264     54.6973E-03     72.6775E-03
            3982            4247     65.4998E-03     78.1688E-03
            3982            4248     72.5586E-03     84.5868E-03
            3982            4264     54.6973E-03     72.6775E-03
            3982            4265     63.4102E-03     80.4336E-03
            3983            4248     72.5586E-03     84.5868E-03
            3983            4249     79.7428E-03     91.0130E-03
            3983            4265     63.4102E-03     80.4336E-03
            3983            4266     72.2136E-03     88.0981E-03
            3984            4249     79.7428E-03     91.0130E-03
            3984            4250     86.9704E-03     97.4504E-03
            3984            4266     72.2136E-03     88.0981E-03
            3984            4267     81.0851E-03     95.7604E-03
            3985            4250     86.9704E-03     97.4504E-03
            3985            4251     94.2656E-03     103.889E-03
            3985            4267     81.0851E-03     95.7604E-03
            3985            4268     89.9887E-03     103.372E-03
            3986            4251     94.2656E-03     103.889E-03
            3986            4252     101.543E-03     110.301E-03
            3986            4268     89.9887E-03     103.372E-03
            3986            4269     98.9189E-03     110.979E-03
            3987            4252     101.543E-03     110.301E-03
            3987            4253     108.852E-03     116.702E-03
            3987            4269     98.9189E-03     110.979E-03
            3987            4270     107.789E-03     118.513E-03
            3988            4253     108.852E-03     116.702E-03
            3988            4254     116.044E-03     123.005E-03
            3988            4270     107.789E-03     118.513E-03
            3988            4271     116.683E-03     125.991E-03
            3989            4254     116.044E-03     123.005E-03
            3989            4255     123.265E-03     129.208E-03
            3989            4271     116.683E-03     125.991E-03
            3989            4272     125.370E-03     133.354E-03
            3990            4255     123.265E-03     129.208E-03
            3990            4256     130.198E-03     135.231E-03
            3990            4272     125.370E-03     133.354E-03
            3990            4273     134.137E-03     140.572E-03
            3991            4256     130.198E-03     135.231E-03
            3991            4257     136.941E-03     140.843E-03
            3991            4273     134.137E-03     140.572E-03
            3991            4274     142.380E-03     147.406E-03
            3992            4257     136.941E-03     140.843E-03
            3992            4258     142.915E-03     145.751E-03
            3992            4274     142.380E-03     147.406E-03
            3992            4275     149.628E-03     153.802E-03
            3993            4258     142.915E-03     145.751E-03
            3993            4259     148.262E-03     151.320E-03
            3993            4275     149.628E-03     153.802E-03
            3993            4276     156.272E-03     158.028E-03
            3994             165     159.309E-03     159.097E-03
            3994             166     151.176E-03     154.733E-03
            3994            4259     148.262E-03     151.320E-03
            3994            4276     156.272E-03     158.028E-03
            3995             549     69.5094E-03     88.7912E-03
            3995             550     61.2056E-03     52.2392E-03
            3995            4260     52.5867E-03     73.2005E-03
            3995            4277     48.3842E-03     48.1932E-03
            3996            4260     52.5867E-03     73.2005E-03
            3996            4261     34.5485E-03     56.1728E-03
            3996            4277     48.3842E-03     48.1932E-03
            3996            4278     37.2054E-03     45.3746E-03
            3997            4261     34.5485E-03     56.1728E-03
            3997            4262     37.9225E-03     58.1543E-03
            3997            4278     37.2054E-03     45.3746E-03
            3997            4279     42.9525E-03     50.2972E-03
            3998            4262     37.9225E-03     58.1543E-03
            3998            4263     46.4010E-03     65.1488E-03
            3998            4279     42.9525E-03     50.2972E-03
            3998            4280     50.9479E-03     58.0155E-03
            3999            4263     46.4010E-03     65.1488E-03
            3999            4264     54.6973E-03     72.6775E-03
            3999            4280     50.9479E-03     58.0155E-03
            3999            4281     58.9652E-03     66.0344E-03
            4000            4264     54.6973E-03     72.6775E-03
            4000            4265     63.4102E-03     80.4336E-03
            4000            4281     58.9652E-03     66.0344E-03
            4000            4282     67.3486E-03     74.2036E-03
            4001            4265     63.4102E-03     80.4336E-03
            4001            4266     72.2136E-03     88.0981E-03
            4001            4282     67.3486E-03     74.2036E-03
            4001            4283     75.8915E-03     82.4571E-03
            4002            4266     72.2136E-03     88.0981E-03
            4002            4267     81.0851E-03     95.7604E-03
            4002            4283     75.8915E-03     82.4571E-03
            4002            4284     84.5045E-03     90.6942E-03
            4003            4267     81.0851E-03     95.7604E-03
            4003            4268     89.9887E-03     103.372E-03
            4003            4284     84.5045E-03     90.6942E-03
            4003            4285     93.1839E-03     98.9809E-03
            4004            4268     89.9887E-03     103.372E-03
            4004            4269     98.9189E-03     110.979E-03
            4004            4285     93.1839E-03     98.9809E-03
            4004            4286     101.895E-03     107.274E-03
            4005            4269     98.9189E-03     110.979E-03
            4005            4270     107.789E-03     118.513E-03
            4005            4286     101.895E-03     107.274E-03
            4005            4287     110.662E-03     115.607E-03
            4006            4270     107.789E-03     118.513E-03
            4006            4271     116.683E-03     125.991E-03
            4006            4287     110.662E-03     115.607E-03
            4006            4288     119.455E-03     123.990E-03
            4007            4271     116.683E-03     125.991E-03
            4007            4272     125.370E-03     133.354E-03
            4007            4288     119.455E-03     123.990E-03
            4007            4289     128.370E-03     132.482E-03
            4008            4272     125.370E-03     133.354E-03
            4008            4273     134.137E-03     140.572E-03
            4008            4289     128.370E-03     132.482E-03
            4008            4290     137.290E-03     141.130E-03
            4009            4273     134.137E-03     140.572E-03
            4009            4274     142.380E-03     147.406E-03
            4009            4290     137.290E-03     141.130E-03
            4009            4291     146.681E-03     150.208E-03
            4010            4274     142.380E-03     147.406E-03
            4010            4275     149.628E-03     153.802E-03
            4010            4291     146.681E-03     150.208E-03
            4010            4292     156.436E-03     159.423E-03
            4011            4275     149.628E-03     153.802E-03
            4011            4276     156.272E-03     158.028E-03
            4011            4292     156.436E-03     159.423E-03
            4011            4293     163.227E-03     165.844E-03
            4012             164     165.266E-03     167.758E-03
            4012             165     159.309E-03     159.097E-03
            4012            4276     156.272E-03     158.028E-03
            4012            4293     163.227E-03     165.844E-03
            4013             550     61.2056E-03     52.2392E-03
            4013             551     56.4270E-03     48.1345E-03
            4013            4277     48.3842E-03     48.1932E-03
            4013            4294     41.2561E-03     36.0649E-03
            4014            4277     48.3842E-03     48.1932E-03
            4014            4278     37.2054E-03     45.3746E-03
            4014            4294     41.2561E-03     36.0649E-03
            4014            4295     35.7744E-03     31.3947E-03
            4015            4278     37.2054E-03     45.3746E-03
            4015            4279     42.9525E-03     50.2972E-03
            4015            4295     35.7744E-03     31.3947E-03
            4015            4296     48.5193E-03     42.7999E-03
            4016            4279     42.9525E-03     50.2972E-03
            4016            4280     50.9479E-03     58.0155E-03
            4016            4296     48.5193E-03     42.7999E-03
            4016            4297     55.6100E-03     51.1255E-03
            4017            4280     50.9479E-03     58.0155E-03
            4017            4281     58.9652E-03     66.0344E-03
            4017            4297     55.6100E-03     51.1255E-03
            4017            4298     63.5842E-03     59.7122E-03
            4018            4281     58.9652E-03     66.0344E-03
            4018            4282     67.3486E-03     74.2036E-03
            4018            4298     63.5842E-03     59.7122E-03
            4018            4299     71.5583E-03     68.2722E-03
            4019            4282     67.3486E-03     74.2036E-03
            4019            4283     75.8915E-03     82.4571E-03
            4019            4299     71.5583E-03     68.2722E-03
            4019            4300     79.7181E-03     76.9818E-03
            4020            4283     75.8915E-03     82.4571E-03
            4020            4284     84.5045E-03     90.6942E-03
            4020            4300     79.7181E-03     76.9818E-03
            4020            4301     87.9817E-03     85.7821E-03
            4021            4284     84.5045E-03     90.6942E-03
            4021            4285     93.1839E-03     98.9809E-03
            4021            4301     87.9817E-03     85.7821E-03
            4021            4302     96.2998E-03     94.6134E-03
            4022            4285     93.1839E-03     98.9809E-03
            4022            4286     101.895E-03     107.274E-03
            4022            4302     96.2998E-03     94.6134E-03
            4022            4303     104.649E-03     103.476E-03
            4023            4286     101.895E-03     107.274E-03
            4023            4287     110.662E-03     115.607E-03
            4023            4303     104.649E-03     103.476E-03
            4023            4304     113.062E-03     112.381E-03
            4024            4287     110.662E-03     115.607E-03
            4024            4288     119.455E-03     123.990E-03
            4024            4304     113.062E-03     112.381E-03
            4024            4305     121.488E-03     121.340E-03
            4025            4288     119.455E-03     123.990E-03
            4025            4289     128.370E-03     132.482E-03
            4025            4305     121.488E-03     121.340E-03
            4025            4306     130.063E-03     130.396E-03
            4026            4289     128.370E-03     132.482E-03
            4026            4290     137.290E-03     141.130E-03
            4026            4306     130.063E-03     130.396E-03
            4026            4307     138.647E-03     139.691E-03
            4027            4290     137.290E-03     141.130E-03
            4027            4291     146.681E-03     150.208E-03
            4027            4307     138.647E-03     139.691E-03
            4027            4308     147.727E-03     149.387E-03
            4028            4291     146.681E-03     150.208E-03
            4028            4292     156.436E-03     159.423E-03
            4028            4308     147.727E-03     149.387E-03
            4028            4309     158.540E-03     160.213E-03
            4029            4292     156.436E-03     159.423E-03
            4029            4293     163.227E-03     165.844E-03
            4029            4309     158.540E-03     160.213E-03
            4029            4310     167.837E-03     169.060E-03
            4030             163     171.209E-03     172.069E-03
            4030             164     165.266E-03     167.758E-03
            4030            4293     163.227E-03     165.844E-03
            4030            4310     167.837E-03     169.060E-03
            4031             551     56.4270E-03     48.1345E-03
            4031             552     49.3143E-03     70.2614E-03
            4031            4294     41.2561E-03     36.0649E-03
            4031            4311     38.6112E-03     44.3311E-03
            4032            4294     41.2561E-03     36.0649E-03
            4032            4295     35.7744E-03     31.3947E-03
            4032            4311     38.6112E-03     44.3311E-03
            4032            4312     37.3917E-03     23.5239E-03
            4033            4295     35.7744E-03     31.3947E-03
            4033            4296     48.5193E-03     42.7999E-03
            4033            4312     37.3917E-03     23.5239E-03
            4033            4313     51.6748E-03     34.0143E-03
            4034            4296     48.5193E-03     42.7999E-03
            4034            4297     55.6100E-03     51.1255E-03
            4034            4313     51.6748E-03     34.0143E-03
            4034            4314     60.3987E-03     44.0154E-03
            4035            4297     55.6100E-03     51.1255E-03
            4035            4298     63.5842E-03     59.7122E-03
            4035            4314     60.3987E-03     44.0154E-03
            4035            4315     68.2300E-03     53.2337E-03
            4036            4298     63.5842E-03     59.7122E-03
            4036            4299     71.5583E-03     68.2722E-03
            4036            4315     68.2300E-03     53.2337E-03
            4036            4316     75.9696E-03     62.4090E-03
            4037            4299     71.5583E-03     68.2722E-03
            4037            4300     79.7181E-03     76.9818E-03
            4037            4316     75.9696E-03     62.4090E-03
            4037            4317     83.7253E-03     71.6288E-03
            4038            4300     79.7181E-03     76.9818E-03
            4038            4301     87.9817E-03     85.7821E-03
            4038            4317     83.7253E-03     71.6288E-03
            4038            4318     91.5576E-03     80.9223E-03
            4039            4301     87.9817E-03     85.7821E-03
            4039            4302     96.2998E-03     94.6134E-03
            4039            4318     91.5576E-03     80.9223E-03
            4039            4319     99.3690E-03     90.2049E-03
            4040            4302     96.2998E-03     94.6134E-03
            4040            4303     104.649E-03     103.476E-03
            4040            4319     99.3690E-03     90.2049E-03
            4040            4320     107.208E-03     99.4987E-03
            4041            4303     104.649E-03     103.476E-03
            4041            4304     113.062E-03     112.381E-03
            4041            4320     107.208E-03     99.4987E-03
            4041            4321     114.969E-03     108.737E-03
            4042            4304     113.062E-03     112.381E-03
            4042            4305     121.488E-03     121.340E-03
            4042            4321     114.969E-03     108.737E-03
            4042            4322     122.778E-03     117.956E-03
            4043            4305     121.488E-03     121.340E-03
            4043            4306     130.063E-03     130.396E-03
            4043            4322     122.778E-03     117.956E-03
            4043            4323     130.412E-03     127.085E-03
            4044            4306     130.063E-03     130.396E-03
            4044            4307     138.647E-03     139.691E-03
            4044            4323     130.412E-03     127.085E-03
            4044            4324     138.271E-03     136.244E-03
            4045            4307     138.647E-03     139.691E-03
            4045            4308     147.727E-03     149.387E-03
            4045            4324     138.271E-03     136.244E-03
            4045            4325     146.011E-03     145.389E-03
            4046            4308     147.727E-03     149.387E-03
            4046            4309     158.540E-03     160.213E-03
            4046            4325     146.011E-03     145.389E-03
            4046            4326     154.900E-03     155.931E-03
            4047            4309     158.540E-03     160.213E-03
            4047            4310     167.837E-03     169.060E-03
            4047            4326     154.900E-03     155.931E-03
            4047            4327     167.824E-03     168.601E-03
            4048             162     175.388E-03     175.187E-03
            4048             163     171.209E-03     172.069E-03
            4048            4310     167.837E-03     169.060E-03
            4048            4327     167.824E-03     168.601E-03
            4049              23     37.6681E-03     82.7503E-03
            4049             552     49.3143E-03     70.2614E-03
            4049             570     30.1880E-03     54.7020E-03
            4049            4311     38.6112E-03     44.3311E-03
            4050             570     30.1880E-03     54.7020E-03
            4050             571     25.5722E-03     25.4743E-03
            4050            4311     38.6112E-03     44.3311E-03
            4050            4312     37.3917E-03     23.5239E-03
            4051             571     25.5722E-03     25.4743E-03
            4051             572     30.8290E-03     28.3488E-03
            4051            4312     37.3917E-03     23.5239E-03
            4051            4313     51.6748E-03     34.0143E-03
            4052             572     30.8290E-03     28.3488E-03
            4052             573     36.6256E-03     37.3313E-03
            4052            4313     51.6748E-03     34.0143E-03
            4052            4314     60.3987E-03     44.0154E-03
            4053             573     36.6256E-03     37.3313E-03
            4053             574     44.9863E-03     47.1831E-03
            4053            4314     60.3987E-03     44.0154E-03
            4053            4315     68.2300E-03     53.2337E-03
            4054             574     44.9863E-03     47.1831E-03
            4054             575     54.6563E-03     57.2913E-03
            4054            4315     68.2300E-03     53.2337E-03
            4054            4316     75.9696E-03     62.4090E-03
            4055             575     54.6563E-03     57.2913E-03
            4055             576     64.3585E-03     67.4594E-03
            4055            4316     75.9696E-03     62.4090E-03
            4055            4317     83.7253E-03     71.6288E-03
            4056             576     64.3585E-03     67.4594E-03
            4056             577     74.2148E-03     77.5804E-03
            4056            4317     83.7253E-03     71.6288E-03
            4056            4318     91.5576E-03     80.9223E-03
            4057             577     74.2148E-03     77.5804E-03
            4057             578     84.0729E-03     87.6861E-03
            4057            4318     91.5576E-03     80.9223E-03
            4057            4319     99.3690E-03     90.2049E-03
            4058             578     84.0729E-03     87.6861E-03
            4058             579     93.8559E-03     97.6919E-03
            4058            4319     99.3690E-03     90.2049E-03
            4058            4320     107.208E-03     99.4987E-03
            4059             579     93.8559E-03     97.6919E-03
            4059             580     103.622E-03     107.602E-03
            4059            4320     107.208E-03     99.4987E-03
            4059            4321     114.969E-03     108.737E-03
            4060             580     103.622E-03     107.602E-03
            4060             581     113.176E-03     117.347E-03
            4060            4321     114.969E-03     108.737E-03
            4060            4322     122.778E-03     117.956E-03
            4061             581     113.176E-03     117.347E-03
            4061             582     122.791E-03     126.907E-03
            4061            4322     122.778E-03     117.956E-03
            4061            4323     130.412E-03     127.085E-03
            4062             582     122.791E-03     126.907E-03
            4062             583     132.074E-03     136.264E-03
            4062            4323     130.412E-03     127.085E-03
            4062            4324     138.271E-03     136.244E-03
            4063             583     132.074E-03     136.264E-03
            4063             584     141.966E-03     145.782E-03
            4063            4324     138.271E-03     136.244E-03
            4063            4325     146.011E-03     145.389E-03
            4064             584     141.966E-03     145.782E-03
            4064             585     151.844E-03     155.901E-03
            4064            4325     146.011E-03     145.389E-03
            4064            4326     154.900E-03     155.931E-03
            4065             585     151.844E-03     155.901E-03
            4065             586     168.091E-03     175.874E-03
            4065            4326     154.900E-03     155.931E-03
            4065            4327     167.824E-03     168.601E-03
            4066               8     180.102E-03     190.578E-03
            4066             162     175.388E-03     175.187E-03
            4066             586     168.091E-03     175.874E-03
            4066            4327     167.824E-03     168.601E-03
            5067              26     9.30075E-03     9.10463E-03
            5067             748     10.0090E-03     10.0000E-03
            5067             791     382.495E-06     404.617E-06
            5067            5225     380.773E-06     406.420E-06
            5068             748     10.0090E-03     10.0000E-03
            5068             749     11.0247E-03     11.1200E-03
            5068            5225     380.773E-06     406.420E-06
            5068            5226     382.117E-06     406.036E-06
            5069             749     11.0247E-03     11.1200E-03
            5069             750     11.6286E-03     11.6580E-03
            5069            5226     382.117E-06     406.036E-06
            5069            5227     386.835E-06     407.068E-06
            5070             750     11.6286E-03     11.6580E-03
            5070             751     12.0864E-03     12.1050E-03
            5070            5227     386.835E-06     407.068E-06
            5070            5228     389.235E-06     414.953E-06
            5071             751     12.0864E-03     12.1050E-03
            5071             752     12.3053E-03     12.2714E-03
            5071            5228     389.235E-06     414.953E-06
            5071            5229     392.106E-06     423.583E-06
            5072             752     12.3053E-03     12.2714E-03
            5072             753     12.4340E-03     12.3410E-03
            5072            5229     392.106E-06     423.583E-06
            5072            5230     396.990E-06     432.831E-06
            5073             753     12.4340E-03     12.3410E-03
            5073             754     12.5399E-03     12.3916E-03
            5073            5230     396.990E-06     432.831E-06
            5073            5231     403.207E-06     443.226E-06
            5074             754     12.5399E-03     12.3916E-03
            5074             755     12.6300E-03     12.4204E-03
            5074            5231     403.207E-06     443.226E-06
            5074            5232     411.244E-06     454.623E-06
            5075             755     12.6300E-03     12.4204E-03
            5075             756     12.7235E-03     12.4623E-03
            5075            5232     411.244E-06     454.623E-06
            5075            5233     420.495E-06     466.834E-06
            5076             756     12.7235E-03     12.4623E-03
            5076             757     12.8157E-03     12.4911E-03
            5076            5233     420.495E-06     466.834E-06
            5076            5234     431.341E-06     480.134E-06
            5077             757     12.8157E-03     12.4911E-03
            5077             758     12.9050E-03     12.5315E-03
            5077            5234     431.341E-06     480.134E-06
            5077            5235     442.669E-06     493.513E-06
            5078             758     12.9050E-03     12.5315E-03
            5078             759     12.9677E-03     12.5267E-03
            5078            5235     442.669E-06     493.513E-06
            5078            5236     454.892E-06     507.606E-06
            5079             759     12.9677E-03     12.5267E-03
            5079             760     12.9687E-03     12.4705E-03
            5079            5236     454.892E-06     507.606E-06
            5079            5237     465.902E-06     520.540E-06
            5080             760     12.9687E-03     12.4705E-03
            5080             761     12.7797E-03     12.2397E-03
            5080            5237     465.902E-06     520.540E-06
            5080            5238     477.633E-06     535.462E-06
            5081             761     12.7797E-03     12.2397E-03
            5081             762     12.0249E-03     11.4568E-03
            5081            5238     477.633E-06     535.462E-06
            5081            5239     493.118E-06     553.844E-06
            5082             762     12.0249E-03     11.4568E-03
            5082             763     10.8704E-03     10.1217E-03
            5082            5239     493.118E-06     553.844E-06
            5082            5240     553.762E-06     615.667E-06
            5083             763     10.8704E-03     10.1217E-03
            5083             764     8.17452E-03     8.38262E-03
            5083            5240     553.762E-06     615.667E-06
            5083            5241     732.785E-06     786.443E-06
            5084              15     6.04083E-03     7.41387E-03
            5084             764     8.17452E-03     8.38262E-03
            5084             765     858.854E-06     903.700E-06
            5084            5241     732.785E-06     786.443E-06
            5085             790     429.528E-06     387.928E-06
            5085             791     382.495E-06     404.617E-06
            5085            5225     380.773E-06     406.420E-06
            5085            5242     419.333E-06     396.855E-06
            5086            5225     380.773E-06     406.420E-06
            5086            5226     382.117E-06     406.036E-06
            5086            5242     419.333E-06     396.855E-06
            5086            5243     406.296E-06     410.057E-06
            5087            5226     382.117E-06     406.036E-06
            5087            5227     386.835E-06     407.068E-06
            5087            5243     406.296E-06     410.057E-06
            5087            5244     404.368E-06     416.815E-06
            5088            5227     386.835E-06     407.068E-06
            5088            5228     389.235E-06     414.953E-06
            5088            5244     404.368E-06     416.815E-06
            5088            5245     405.979E-06     422.518E-06
            5089            5228     389.235E-06     414.953E-06
            5089            5229     392.106E-06     423.583E-06
            5089            5245     405.979E-06     422.518E-06
            5089            5246     409.557E-06     429.186E-06
            5090            5229     392.106E-06     423.583E-06
            5090            5230     396.990E-06     432.831E-06
            5090            5246     409.557E-06     429.186E-06
            5090            5247     415.219E-06     436.746E-06
            5091            5230     396.990E-06     432.831E-06
            5091            5231     403.207E-06     443.226E-06
            5091            5247     415.219E-06     436.746E-06
            5091            5248     422.167E-06     445.925E-06
            5092            5231     403.207E-06     443.226E-06
            5092            5232     411.244E-06     454.623E-06
            5092            5248     422.167E-06     445.925E-06
            5092            5249     430.583E-06     456.083E-06
            5093            5232     411.244E-06     454.623E-06
            5093            5233     420.495E-06     466.834E-06
            5093            5249     430.583E-06     456.083E-06
            5093            5250     440.713E-06     467.754E-06
            5094            5233     420.495E-06     466.834E-06
            5094            5234     431.341E-06     480.134E-06
            5094            5250     440.713E-06     467.754E-06
            5094            5251     452.087E-06     480.504E-06
            5095            5234     431.341E-06     480.134E-06
            5095            5235     442.669E-06     493.513E-06
            5095            5251     452.087E-06     480.504E-06
            5095            5252     465.800E-06     495.071E-06
            5096            5235     442.669E-06     493.513E-06
            5096            5236     454.892E-06     507.606E-06
            5096            5252     465.800E-06     495.071E-06
            5096            5253     480.072E-06     510.812E-06
            5097            5236     454.892E-06     507.606E-06
            5097            5237     465.902E-06     520.540E-06
            5097            5253     480.072E-06     510.812E-06
            5097            5254     497.258E-06     527.988E-06
            5098            5237     465.902E-06     520.540E-06
            5098            5238     477.633E-06     535.462E-06
            5098            5254     497.258E-06     527.988E-06
            5098            5255     510.620E-06     544.498E-06
            5099            5238     477.633E-06     535.462E-06
            5099            5239     493.118E-06     553.844E-06
            5099            5255     510.620E-06     544.498E-06
            5099            5256     521.868E-06     556.249E-06
            5100            5239     493.118E-06     553.844E-06
            5100            5240     553.762E-06     615.667E-06
            5100            5256     521.868E-06     556.249E-06
            5100            5257     547.951E-06     573.507E-06
            5101            5240     553.762E-06     615.667E-06
            5101            5241     732.785E-06     786.443E-06
            5101            5257     547.951E-06     573.507E-06
            5101            5258     602.476E-06     608.714E-06
            5102             765     858.854E-06     903.700E-06
            5102             766     639.943E-06     631.737E-06
            5102            5241     732.785E-06     786.443E-06
            5102            5258     602.476E-06     608.714E-06
            5103             789     440.561E-06     387.678E-06
            5103             790     429.528E-06     387.928E-06
            5103            5242     419.333E-06     396.855E-06
            5103            5259     439.862E-06     395.764E-06
            5104            5242     419.333E-06     396.855E-06
            5104            5243     406.296E-06     410.057E-06
            5104            5259     439.862E-06     395.764E-06
            5104            5260     431.378E-06     414.556E-06
            5105            5243     406.296E-06     410.057E-06
            5105            5244     404.368E-06     416.815E-06
            5105            5260     431.378E-06     414.556E-06
            5105            5261     421.835E-06     427.475E-06
            5106            5244     404.368E-06     416.815E-06
            5106            5245     405.979E-06     422.518E-06
            5106            5261     421.835E-06     427.475E-06
            5106            5262     423.275E-06     430.809E-06
            5107            5245     405.979E-06     422.518E-06
            5107            5246     409.557E-06     429.186E-06
            5107            5262     423.275E-06     430.809E-06
            5107            5263     428.457E-06     435.010E-06
            5108            5246     409.557E-06     429.186E-06
            5108            5247     415.219E-06     436.746E-06
            5108            5263     428.457E-06     435.010E-06
            5108            5264     434.306E-06     441.408E-06
            5109            5247     415.219E-06     436.746E-06
            5109            5248     422.167E-06     445.925E-06
            5109            5264     434.306E-06     441.408E-06
            5109            5265     441.777E-06     448.661E-06
            5110            5248     422.167E-06     445.925E-06
            5110            5249     430.583E-06     456.083E-06
            5110            5265     441.777E-06     448.661E-06
            5110            5266     450.414E-06     457.606E-06
            5111            5249     430.583E-06     456.083E-06
            5111            5250     440.713E-06     467.754E-06
            5111            5266     450.414E-06     457.606E-06
            5111            5267     460.349E-06     467.658E-06
            5112            5250     440.713E-06     467.754E-06
            5112            5251     452.087E-06     480.504E-06
            5112            5267     460.349E-06     467.658E-06
            5112            5268     472.281E-06     479.588E-06
            5113            5251     452.087E-06     480.504E-06
            5113            5252     465.800E-06     495.071E-06
            5113            5268     472.281E-06     479.588E-06
            5113            5269     485.642E-06     493.326E-06
            5114            5252     465.800E-06     495.071E-06
            5114            5253     480.072E-06     510.812E-06
            5114            5269     485.642E-06     493.326E-06
            5114            5270     502.334E-06     509.361E-06
            5115            5253     480.072E-06     510.812E-06
            5115            5254     497.258E-06     527.988E-06
            5115            5270     502.334E-06     509.361E-06
            5115            5271     518.503E-06     526.904E-06
            5116            5254     497.258E-06     527.988E-06
            5116            5255     510.620E-06     544.498E-06
            5116            5271     518.503E-06     526.904E-06
            5116            5272     534.192E-06     540.864E-06
            5117            5255     510.620E-06     544.498E-06
            5117            5256     521.868E-06     556.249E-06
            5117            5272     534.192E-06     540.864E-06
            5117            5273     529.949E-06     542.752E-06
            5118            5256     521.868E-06     556.249E-06
            5118            5257     547.951E-06     573.507E-06
            5118            5273     529.949E-06     542.752E-06
            5118            5274     467.916E-06     492.372E-06
            5119            5257     547.951E-06     573.507E-06
            5119            5258     602.476E-06     608.714E-06
            5119            5274     467.916E-06     492.372E-06
            5119            5275     417.907E-06     432.588E-06
            5120             766     639.943E-06     631.737E-06
            5120             767     415.806E-06     419.467E-06
            5120            5258     602.476E-06     608.714E-06
            5120            5275     417.907E-06     432.588E-06
            5121             788     457.962E-06     418.842E-06
            5121             789     440.561E-06     387.678E-06
            5121            5259     439.862E-06     395.764E-06
            5121            5276     447.573E-06     427.544E-06
            5122            5259     439.862E-06     395.764E-06
            5122            5260     431.378E-06     414.556E-06
            5122            5276     447.573E-06     427.544E-06
            5122            5277     436.333E-06     436.524E-06
            5123            5260     431.378E-06     414.556E-06
            5123            5261     421.835E-06     427.475E-06
            5123            5277     436.333E-06     436.524E-06
            5123            5278     438.266E-06     436.810E-06
            5124            5261     421.835E-06     427.475E-06
            5124            5262     423.275E-06     430.809E-06
            5124            5278     438.266E-06     436.810E-06
            5124            5279     442.819E-06     438.590E-06
            5125            5262     423.275E-06     430.809E-06
            5125            5263     428.457E-06     435.010E-06
            5125            5279     442.819E-06     438.590E-06
            5125            5280     448.164E-06     442.065E-06
            5126            5263     428.457E-06     435.010E-06
            5126            5264     434.306E-06     441.408E-06
            5126            5280     448.164E-06     442.065E-06
            5126            5281     454.905E-06     446.445E-06
            5127            5264     434.306E-06     441.408E-06
            5127            5265     441.777E-06     448.661E-06
            5127            5281     454.905E-06     446.445E-06
            5127            5282     462.326E-06     452.412E-06
            5128            5265     441.777E-06     448.661E-06
            5128            5266     450.414E-06     457.606E-06
            5128            5282     462.326E-06     452.412E-06
            5128            5283     470.726E-06     459.215E-06
            5129            5266     450.414E-06     457.606E-06
            5129            5267     460.349E-06     467.658E-06
            5129            5283     470.726E-06     459.215E-06
            5129            5284     480.163E-06     467.309E-06
            5130            5267     460.349E-06     467.658E-06
            5130            5268     472.281E-06     479.588E-06
            5130            5284     480.163E-06     467.309E-06
            5130            5285     490.543E-06     476.428E-06
            5131            5268     472.281E-06     479.588E-06
            5131            5269     485.642E-06     493.326E-06
            5131            5285     490.543E-06     476.428E-06
            5131            5286     502.386E-06     487.040E-06
            5132            5269     485.642E-06     493.326E-06
            5132            5270     502.334E-06     509.361E-06
            5132            5286     502.386E-06     487.040E-06
            5132            5287     514.905E-06     498.533E-06
            5133            5270     502.334E-06     509.361E-06
            5133            5271     518.503E-06     526.904E-06
            5133            5287     514.905E-06     498.533E-06
            5133            5288     527.202E-06     509.346E-06
            5134            5271     518.503E-06     526.904E-06
            5134            5272     534.192E-06     540.864E-06
            5134            5288     527.202E-06     509.346E-06
            5134            5289     532.332E-06     513.944E-06
            5135            5272     534.192E-06     540.864E-06
            5135            5273     529.949E-06     542.752E-06
            5135            5289     532.332E-06     513.944E-06
            5135            5290     511.618E-06     495.393E-06
            5136            5273     529.949E-06     542.752E-06
            5136            5274     467.916E-06     492.372E-06
            5136            5290     511.618E-06     495.393E-06
            5136            5291     409.248E-06     410.428E-06
            5137            5274     467.916E-06     492.372E-06
            5137            5275     417.907E-06     432.588E-06
            5137            5291     409.248E-06     410.428E-06
            5137            5292     278.635E-06     274.808E-06
            5138             767     415.806E-06     419.467E-06
            5138             768     231.083E-06     206.395E-06
            5138            5275     417.907E-06     432.588E-06
            5138            5292     278.635E-06     274.808E-06
            5139             787     435.214E-06     468.982E-06
            5139             788     457.962E-06     418.842E-06
            5139            5276     447.573E-06     427.544E-06
            5139            5293     437.348E-06     464.318E-06
            5140            5276     447.573E-06     427.544E-06
            5140            5277     436.333E-06     436.524E-06
            5140            5293     437.348E-06     464.318E-06
            5140            5294     445.597E-06     453.118E-06
            5141            5277     436.333E-06     436.524E-06
            5141            5278     438.266E-06     436.810E-06
            5141            5294     445.597E-06     453.118E-06
            5141            5295     456.154E-06     446.259E-06
            5142            5278     438.266E-06     436.810E-06
            5142            5279     442.819E-06     438.590E-06
            5142            5295     456.154E-06     446.259E-06
            5142            5296     463.271E-06     447.282E-06
            5143            5279     442.819E-06     438.590E-06
            5143            5280     448.164E-06     442.065E-06
            5143            5296     463.271E-06     447.282E-06
            5143            5297     469.454E-06     449.731E-06
            5144            5280     448.164E-06     442.065E-06
            5144            5281     454.905E-06     446.445E-06
            5144            5297     469.454E-06     449.731E-06
            5144            5298     476.596E-06     452.875E-06
            5145            5281     454.905E-06     446.445E-06
            5145            5282     462.326E-06     452.412E-06
            5145            5298     476.596E-06     452.875E-06
            5145            5299     484.042E-06     457.078E-06
            5146            5282     462.326E-06     452.412E-06
            5146            5283     470.726E-06     459.215E-06
            5146            5299     484.042E-06     457.078E-06
            5146            5300     492.096E-06     461.922E-06
            5147            5283     470.726E-06     459.215E-06
            5147            5284     480.163E-06     467.309E-06
            5147            5300     492.096E-06     461.922E-06
            5147            5301     500.398E-06     467.360E-06
            5148            5284     480.163E-06     467.309E-06
            5148            5285     490.543E-06     476.428E-06
            5148            5301     500.398E-06     467.360E-06
            5148            5302     508.747E-06     473.062E-06
            5149            5285     490.543E-06     476.428E-06
            5149            5286     502.386E-06     487.040E-06
            5149            5302     508.747E-06     473.062E-06
            5149            5303     516.661E-06     478.196E-06
            5150            5286     502.386E-06     487.040E-06
            5150            5287     514.905E-06     498.533E-06
            5150            5303     516.661E-06     478.196E-06
            5150            5304     522.246E-06     481.703E-06
            5151            5287     514.905E-06     498.533E-06
            5151            5288     527.202E-06     509.346E-06
            5151            5304     522.246E-06     481.703E-06
            5151            5305     523.578E-06     479.506E-06
            5152            5288     527.202E-06     509.346E-06
            5152            5289     532.332E-06     513.944E-06
            5152            5305     523.578E-06     479.506E-06
            5152            5306     510.617E-06     465.296E-06
            5153            5289     532.332E-06     513.944E-06
            5153            5290     511.618E-06     495.393E-06
            5153            5306     510.617E-06     465.296E-06
            5153            5307     470.192E-06     420.545E-06
            5154            5290     511.618E-06     495.393E-06
            5154            5291     409.248E-06     410.428E-06
            5154            5307     470.192E-06     420.545E-06
            5154            5308     377.142E-06     324.731E-06
            5155            5291     409.248E-06     410.428E-06
            5155            5292     278.635E-06     274.808E-06
            5155            5308     377.142E-06     324.731E-06
            5155            5309     228.289E-06     244.394E-06
            5156             768     231.083E-06     206.395E-06
            5156             769     144.394E-06     225.818E-06
            5156            5292     278.635E-06     274.808E-06
            5156            5309     228.289E-06     244.394E-06
            5157              28     402.706E-06     490.746E-06
            5157             786     426.643E-06     475.791E-06
            5157             787     435.214E-06     468.982E-06
            5157            5293     437.348E-06     464.318E-06
            5158             785     457.106E-06     455.547E-06
            5158             786     426.643E-06     475.791E-06
            5158            5293     437.348E-06     464.318E-06
            5158            5294     445.597E-06     453.118E-06
            5159             784     465.963E-06     451.206E-06
            5159             785     457.106E-06     455.547E-06
            5159            5294     445.597E-06     453.118E-06
            5159            5295     456.154E-06     446.259E-06
            5160             783     473.349E-06     452.291E-06
            5160             784     465.963E-06     451.206E-06
            5160            5295     456.154E-06     446.259E-06
            5160            5296     463.271E-06     447.282E-06
            5161             782     480.639E-06     453.508E-06
            5161             783     473.349E-06     452.291E-06
            5161            5296     463.271E-06     447.282E-06
            5161            5297     469.454E-06     449.731E-06
            5162             781     487.650E-06     456.670E-06
            5162             782     480.639E-06     453.508E-06
            5162            5297     469.454E-06     449.731E-06
            5162            5298     476.596E-06     452.875E-06
            5163             780     495.146E-06     459.498E-06
            5163             781     487.650E-06     456.670E-06
            5163            5298     476.596E-06     452.875E-06
            5163            5299     484.042E-06     457.078E-06
            5164             779     503.236E-06     463.841E-06
            5164             780     495.146E-06     459.498E-06
            5164            5299     484.042E-06     457.078E-06
            5164            5300     492.096E-06     461.922E-06
            5165             778     510.494E-06     467.410E-06
            5165             779     503.236E-06     463.841E-06
            5165            5300     492.096E-06     461.922E-06
            5165            5301     500.398E-06     467.360E-06
            5166             777     518.516E-06     471.979E-06
            5166             778     510.494E-06     467.410E-06
            5166            5301     500.398E-06     467.360E-06
            5166            5302     508.747E-06     473.062E-06
            5167             776     522.895E-06     473.425E-06
            5167             777     518.516E-06     471.979E-06
            5167            5302     508.747E-06     473.062E-06
            5167            5303     516.661E-06     478.196E-06
            5168             775     526.689E-06     472.999E-06
            5168             776     522.895E-06     473.425E-06
            5168            5303     516.661E-06     478.196E-06
            5168            5304     522.246E-06     481.703E-06
            5169             774     517.696E-06     462.730E-06
            5169             775     526.689E-06     472.999E-06
            5169            5304     522.246E-06     481.703E-06
            5169            5305     523.578E-06     479.506E-06
            5170             773     498.795E-06     436.970E-06
            5170             774     517.696E-06     462.730E-06
            5170            5305     523.578E-06     479.506E-06
            5170            5306     510.617E-06     465.296E-06
            5171             772     442.254E-06     377.919E-06
            5171             773     498.795E-06     436.970E-06
            5171            5306     510.617E-06     465.296E-06
            5171            5307     470.192E-06     420.545E-06
            5172             771     352.824E-06     277.960E-06
            5172             772     442.254E-06     377.919E-06
            5172            5307     470.192E-06     420.545E-06
            5172            5308     377.142E-06     324.731E-06
            5173             770     241.863E-06     272.674E-06
            5173             771     352.824E-06     277.960E-06
            5173            5308     377.142E-06     324.731E-06
            5173            5309     228.289E-06     244.394E-06
            5174              27     168.150E-06     321.065E-06
            5174             769     144.394E-06     225.818E-06
            5174             770     241.863E-06     272.674E-06
            5174            5309     228.289E-06     244.394E-06
            5847              24     65.8284E-03     94.5070E-03
            5847             603     48.3175E-03     69.6215E-03
            5847             692     57.4015E-03     57.8446E-03
            5847            5862     47.4282E-03     46.9157E-03
            5848             602     28.2326E-03     36.4806E-03
            5848             603     48.3175E-03     69.6215E-03
            5848            5862     47.4282E-03     46.9157E-03
            5848            5863     30.9672E-03     29.1947E-03
            5849             601     23.4404E-03     21.9161E-03
            5849             602     28.2326E-03     36.4806E-03
            5849            5863     30.9672E-03     29.1947E-03
            5849            5864     18.6710E-03     16.5850E-03
            5850             600     22.5228E-03     15.7036E-03
            5850             601     23.4404E-03     21.9161E-03
            5850            5864     18.6710E-03     16.5850E-03
            5850            5865     9.65799E-03     9.16714E-03
            5851             599     28.2267E-03     19.9213E-03
            5851             600     22.5228E-03     15.7036E-03
            5851            5865     9.65799E-03     9.16714E-03
            5851            5866     10.6472E-03     12.4494E-03
            5852             598     38.0624E-03     29.7685E-03
            5852             599     28.2267E-03     19.9213E-03
            5852            5866     10.6472E-03     12.4494E-03
            5852            5867     20.2330E-03     22.8766E-03
            5853             597     49.1212E-03     41.2973E-03
            5853             598     38.0624E-03     29.7685E-03
            5853            5867     20.2330E-03     22.8766E-03
            5853            5868     31.3755E-03     34.1704E-03
            5854             596     60.3824E-03     53.1573E-03
            5854             597     49.1212E-03     41.2973E-03
            5854            5868     31.3755E-03     34.1704E-03
            5854            5869     42.8063E-03     45.6156E-03
            5855             595     71.7365E-03     65.2131E-03
            5855             596     60.3824E-03     53.1573E-03
            5855            5869     42.8063E-03     45.6156E-03
            5855            5870     54.2960E-03     57.0687E-03
            5856             594     83.0938E-03     77.3283E-03
            5856             595     71.7365E-03     65.2131E-03
            5856            5870     54.2960E-03     57.0687E-03
            5856            5871     65.8502E-03     68.5591E-03
            5857             593     94.4340E-03     89.4135E-03
            5857             594     83.0938E-03     77.3283E-03
            5857            5871     65.8502E-03     68.5591E-03
            5857            5872     77.4927E-03     80.0803E-03
            5858             592     105.688E-03     101.443E-03
            5858             593     94.4340E-03     89.4135E-03
            5858            5872     77.4927E-03     80.0803E-03
            5858            5873     89.2430E-03     91.7218E-03
            5859             591     116.874E-03     113.330E-03
            5859             592     105.688E-03     101.443E-03
            5859            5873     89.2430E-03     91.7218E-03
            5859            5874     101.248E-03     103.545E-03
            5860             590     127.754E-03     124.928E-03
            5860             591     116.874E-03     113.330E-03
            5860            5874     101.248E-03     103.545E-03
            5860            5875     113.543E-03     115.767E-03
            5861             589     138.451E-03     136.159E-03
            5861             590     127.754E-03     124.928E-03
            5861            5875     113.543E-03     115.767E-03
            5861            5876     126.609E-03     128.763E-03
            5862             588     148.351E-03     146.750E-03
            5862             589     138.451E-03     136.159E-03
            5862            5876     126.609E-03     128.763E-03
            5862            5877     140.574E-03     143.084E-03
            5863             587     157.866E-03     157.964E-03
            5863             588     148.351E-03     146.750E-03
            5863            5877     140.574E-03     143.084E-03
            5863            5878     158.777E-03     163.262E-03
            5864              10     162.932E-03     164.045E-03
            5864             288     169.938E-03     175.864E-03
            5864             587     157.866E-03     157.964E-03
            5864            5878     158.777E-03     163.262E-03
            5865             692     57.4015E-03     57.8446E-03
            5865             693     63.2949E-03     61.3210E-03
            5865            5862     47.4282E-03     46.9157E-03
            5865            5879     53.0051E-03     51.0158E-03
            5866            5862     47.4282E-03     46.9157E-03
            5866            5863     30.9672E-03     29.1947E-03
            5866            5879     53.0051E-03     51.0158E-03
            5866            5880     34.3077E-03     32.0839E-03
            5867            5863     30.9672E-03     29.1947E-03
            5867            5864     18.6710E-03     16.5850E-03
            5867            5880     34.3077E-03     32.0839E-03
            5867            5881     20.2715E-03     17.8358E-03
            5868            5864     18.6710E-03     16.5850E-03
            5868            5865     9.65799E-03     9.16714E-03
            5868            5881     20.2715E-03     17.8358E-03
            5868            5882     11.5302E-03     10.7050E-03
            5869            5865     9.65799E-03     9.16714E-03
            5869            5866     10.6472E-03     12.4494E-03
            5869            5882     11.5302E-03     10.7050E-03
            5869            5883     11.6950E-03     13.4816E-03
            5870            5866     10.6472E-03     12.4494E-03
            5870            5867     20.2330E-03     22.8766E-03
            5870            5883     11.6950E-03     13.4816E-03
            5870            5884     20.0770E-03     23.0705E-03
            5871            5867     20.2330E-03     22.8766E-03
            5871            5868     31.3755E-03     34.1704E-03
            5871            5884     20.0770E-03     23.0705E-03
            5871            5885     30.4213E-03     33.6896E-03
            5872            5868     31.3755E-03     34.1704E-03
            5872            5869     42.8063E-03     45.6156E-03
            5872            5885     30.4213E-03     33.6896E-03
            5872            5886     41.1137E-03     44.4545E-03
            5873            5869     42.8063E-03     45.6156E-03
            5873            5870     54.2960E-03     57.0687E-03
            5873            5886     41.1137E-03     44.4545E-03
            5873            5887     51.9596E-03     55.2675E-03
            5874            5870     54.2960E-03     57.0687E-03
            5874            5871     65.8502E-03     68.5591E-03
            5874            5887     51.9596E-03     55.2675E-03
            5874            5888     62.9201E-03     66.1394E-03
            5875            5871     65.8502E-03     68.5591E-03
            5875            5872     77.4927E-03     80.0803E-03
            5875            5888     62.9201E-03     66.1394E-03
            5875            5889     74.0349E-03     77.1129E-03
            5876            5872     77.4927E-03     80.0803E-03
            5876            5873     89.2430E-03     91.7218E-03
            5876            5889     74.0349E-03     77.1129E-03
            5876            5890     85.4571E-03     88.3602E-03
            5877            5873     89.2430E-03     91.7218E-03
            5877            5874     101.248E-03     103.545E-03
            5877            5890     85.4571E-03     88.3602E-03
            5877            5891     97.2722E-03     99.9936E-03
            5878            5874     101.248E-03     103.545E-03
            5878            5875     113.543E-03     115.767E-03
            5878            5891     97.2722E-03     99.9936E-03
            5878            5892     110.034E-03     112.585E-03
            5879            5875     113.543E-03     115.767E-03
            5879            5876     126.609E-03     128.763E-03
            5879            5892     110.034E-03     112.585E-03
            5879            5893     123.921E-03     126.470E-03
            5880            5876     126.609E-03     128.763E-03
            5880            5877     140.574E-03     143.084E-03
            5880            5893     123.921E-03     126.470E-03
            5880            5894     141.307E-03     143.968E-03
            5881            5877     140.574E-03     143.084E-03
            5881            5878     158.777E-03     163.262E-03
            5881            5894     141.307E-03     143.968E-03
            5881            5895     164.846E-03     166.497E-03
            5882             287     178.063E-03     178.672E-03
            5882             288     169.938E-03     175.864E-03
            5882            5878     158.777E-03     163.262E-03
            5882            5895     164.846E-03     166.497E-03
            5883             693     63.2949E-03     61.3210E-03
            5883             694     55.9328E-03     51.4706E-03
            5883            5879     53.0051E-03     51.0158E-03
            5883            5896     50.4783E-03     46.3384E-03
            5884            5879     53.0051E-03     51.0158E-03
            5884            5880     34.3077E-03     32.0839E-03
            5884            5896     50.4783E-03     46.3384E-03
            5884            5897     37.5101E-03     34.0022E-03
            5885            5880     34.3077E-03     32.0839E-03
            5885            5881     20.2715E-03     17.8358E-03
            5885            5897     37.5101E-03     34.0022E-03
            5885            5898     24.2840E-03     21.4766E-03
            5886            5881     20.2715E-03     17.8358E-03
            5886            5882     11.5302E-03     10.7050E-03
            5886            5898     24.2840E-03     21.4766E-03
            5886            5899     16.2748E-03     14.9480E-03
            5887            5882     11.5302E-03     10.7050E-03
            5887            5883     11.6950E-03     13.4816E-03
            5887            5899     16.2748E-03     14.9480E-03
            5887            5900     16.1388E-03     16.9956E-03
            5888            5883     11.6950E-03     13.4816E-03
            5888            5884     20.0770E-03     23.0705E-03
            5888            5900     16.1388E-03     16.9956E-03
            5888            5901     22.8620E-03     25.1642E-03
            5889            5884     20.0770E-03     23.0705E-03
            5889            5885     30.4213E-03     33.6896E-03
            5889            5901     22.8620E-03     25.1642E-03
            5889            5902     32.6645E-03     35.4332E-03
            5890            5885     30.4213E-03     33.6896E-03
            5890            5886     41.1137E-03     44.4545E-03
            5890            5902     32.6645E-03     35.4332E-03
            5890            5903     43.2913E-03     46.2406E-03
            5891            5886     41.1137E-03     44.4545E-03
            5891            5887     51.9596E-03     55.2675E-03
            5891            5903     43.2913E-03     46.2406E-03
            5891            5904     54.2823E-03     57.2961E-03
            5892            5887     51.9596E-03     55.2675E-03
            5892            5888     62.9201E-03     66.1394E-03
            5892            5904     54.2823E-03     57.2961E-03
            5892            5905     65.4886E-03     68.5299E-03
            5893            5888     62.9201E-03     66.1394E-03
            5893            5889     74.0349E-03     77.1129E-03
            5893            5905     65.4886E-03     68.5299E-03
            5893            5906     76.9586E-03     79.9786E-03
            5894            5889     74.0349E-03     77.1129E-03
            5894            5890     85.4571E-03     88.3602E-03
            5894            5906     76.9586E-03     79.9786E-03
            5894            5907     88.7247E-03     91.7470E-03
            5895            5890     85.4571E-03     88.3602E-03
            5895            5891     97.2722E-03     99.9936E-03
            5895            5907     88.7247E-03     91.7470E-03
            5895            5908     101.081E-03     104.029E-03
            5896            5891     97.2722E-03     99.9936E-03
            5896            5892     110.034E-03     112.585E-03
            5896            5908     101.081E-03     104.029E-03
            5896            5909     114.266E-03     117.199E-03
            5897            5892     110.034E-03     112.585E-03
            5897            5893     123.921E-03     126.470E-03
            5897            5909     114.266E-03     117.199E-03
            5897            5910     129.003E-03     131.723E-03
            5898            5893     123.921E-03     126.470E-03
            5898            5894     141.307E-03     143.968E-03
            5898            5910     129.003E-03     131.723E-03
            5898            5911     147.330E-03     149.002E-03
            5899            5894     141.307E-03     143.968E-03
            5899            5895     164.846E-03     166.497E-03
            5899            5911     147.330E-03     149.002E-03
            5899            5912     165.546E-03     165.753E-03
            5900             286     173.445E-03     172.909E-03
            5900             287     178.063E-03     178.672E-03
            5900            5895     164.846E-03     166.497E-03
            5900            5912     165.546E-03     165.753E-03
            5901             694     55.9328E-03     51.4706E-03
            5901             695     50.6132E-03     47.3903E-03
            5901            5896     50.4783E-03     46.3384E-03
            5901            5913     45.9899E-03     42.4888E-03
            5902            5896     50.4783E-03     46.3384E-03
            5902            5897     37.5101E-03     34.0022E-03
            5902            5913     45.9899E-03     42.4888E-03
            5902            5914     36.4514E-03     32.8005E-03
            5903            5897     37.5101E-03     34.0022E-03
            5903            5898     24.2840E-03     21.4766E-03
            5903            5914     36.4514E-03     32.8005E-03
            5903            5915     26.7170E-03     23.6776E-03
            5904            5898     24.2840E-03     21.4766E-03
            5904            5899     16.2748E-03     14.9480E-03
            5904            5915     26.7170E-03     23.6776E-03
            5904            5916     19.7940E-03     18.3050E-03
            5905            5899     16.2748E-03     14.9480E-03
            5905            5900     16.1388E-03     16.9956E-03
            5905            5916     19.7940E-03     18.3050E-03
            5905            5917     19.6304E-03     20.1057E-03
            5906            5900     16.1388E-03     16.9956E-03
            5906            5901     22.8620E-03     25.1642E-03
            5906            5917     19.6304E-03     20.1057E-03
            5906            5918     25.7204E-03     27.5118E-03
            5907            5901     22.8620E-03     25.1642E-03
            5907            5902     32.6645E-03     35.4332E-03
            5907            5918     25.7204E-03     27.5118E-03
            5907            5919     34.9350E-03     37.3140E-03
            5908            5902     32.6645E-03     35.4332E-03
            5908            5903     43.2913E-03     46.2406E-03
            5908            5919     34.9350E-03     37.3140E-03
            5908            5920     45.4522E-03     48.0655E-03
            5909            5903     43.2913E-03     46.2406E-03
            5909            5904     54.2823E-03     57.2961E-03
            5909            5920     45.4522E-03     48.0655E-03
            5909            5921     56.4866E-03     59.2476E-03
            5910            5904     54.2823E-03     57.2961E-03
            5910            5905     65.4886E-03     68.5299E-03
            5910            5921     56.4866E-03     59.2476E-03
            5910            5922     67.8828E-03     70.7295E-03
            5911            5905     65.4886E-03     68.5299E-03
            5911            5906     76.9586E-03     79.9786E-03
            5911            5922     67.8828E-03     70.7295E-03
            5911            5923     79.5588E-03     82.5096E-03
            5912            5906     76.9586E-03     79.9786E-03
            5912            5907     88.7247E-03     91.7470E-03
            5912            5923     79.5588E-03     82.5096E-03
            5912            5924     91.6112E-03     94.6097E-03
            5913            5907     88.7247E-03     91.7470E-03
            5913            5908     101.081E-03     104.029E-03
            5913            5924     91.6112E-03     94.6097E-03
            5913            5925     104.187E-03     107.228E-03
            5914            5908     101.081E-03     104.029E-03
            5914            5909     114.266E-03     117.199E-03
            5914            5925     104.187E-03     107.228E-03
            5914            5926     117.450E-03     120.436E-03
            5915            5909     114.266E-03     117.199E-03
            5915            5910     129.003E-03     131.723E-03
            5915            5926     117.450E-03     120.436E-03
            5915            5927     132.297E-03     134.758E-03
            5916            5910     129.003E-03     131.723E-03
            5916            5911     147.330E-03     149.002E-03
            5916            5927     132.297E-03     134.758E-03
            5916            5928     147.516E-03     149.595E-03
            5917            5911     147.330E-03     149.002E-03
            5917            5912     165.546E-03     165.753E-03
            5917            5928     147.516E-03     149.595E-03
            5917            5929     161.043E-03     163.384E-03
            5918             285     167.321E-03     169.930E-03
            5918             286     173.445E-03     172.909E-03
            5918            5912     165.546E-03     165.753E-03
            5918            5929     161.043E-03     163.384E-03
            5919             695     50.6132E-03     47.3903E-03
            5919             696     47.9686E-03     44.1931E-03
            5919            5913     45.9899E-03     42.4888E-03
            5919            5930     43.6285E-03     40.0115E-03
            5920            5913     45.9899E-03     42.4888E-03
            5920            5914     36.4514E-03     32.8005E-03
            5920            5930     43.6285E-03     40.0115E-03
            5920            5931     34.9511E-03     31.6380E-03
            5921            5914     36.4514E-03     32.8005E-03
            5921            5915     26.7170E-03     23.6776E-03
            5921            5931     34.9511E-03     31.6380E-03
            5921            5932     27.2127E-03     24.4786E-03
            5922            5915     26.7170E-03     23.6776E-03
            5922            5916     19.7940E-03     18.3050E-03
            5922            5932     27.2127E-03     24.4786E-03
            5922            5933     22.2886E-03     20.8951E-03
            5923            5916     19.7940E-03     18.3050E-03
            5923            5917     19.6304E-03     20.1057E-03
            5923            5933     22.2886E-03     20.8951E-03
            5923            5934     22.4466E-03     22.7794E-03
            5924            5917     19.6304E-03     20.1057E-03
            5924            5918     25.7204E-03     27.5118E-03
            5924            5934     22.4466E-03     22.7794E-03
            5924            5935     28.1073E-03     29.6220E-03
            5925            5918     25.7204E-03     27.5118E-03
            5925            5919     34.9350E-03     37.3140E-03
            5925            5935     28.1073E-03     29.6220E-03
            5925            5936     37.0091E-03     39.0525E-03
            5926            5919     34.9350E-03     37.3140E-03
            5926            5920     45.4522E-03     48.0655E-03
            5926            5936     37.0091E-03     39.0525E-03
            5926            5937     47.3151E-03     49.6326E-03
            5927            5920     45.4522E-03     48.0655E-03
            5927            5921     56.4866E-03     59.2476E-03
            5927            5937     47.3151E-03     49.6326E-03
            5927            5938     58.3556E-03     60.8301E-03
            5928            5921     56.4866E-03     59.2476E-03
            5928            5922     67.8828E-03     70.7295E-03
            5928            5938     58.3556E-03     60.8301E-03
            5928            5939     69.7937E-03     72.4268E-03
            5929            5922     67.8828E-03     70.7295E-03
            5929            5923     79.5588E-03     82.5096E-03
            5929            5939     69.7937E-03     72.4268E-03
            5929            5940     81.5679E-03     84.3314E-03
            5930            5923     79.5588E-03     82.5096E-03
            5930            5924     91.6112E-03     94.6097E-03
            5930            5940     81.5679E-03     84.3314E-03
            5930            5941     93.6829E-03     96.5774E-03
            5931            5924     91.6112E-03     94.6097E-03
            5931            5925     104.187E-03     107.228E-03
            5931            5941     93.6829E-03     96.5774E-03
            5931            5942     106.118E-03     109.109E-03
            5932            5925     104.187E-03     107.228E-03
            5932            5926     117.450E-03     120.436E-03
            5932            5942     106.118E-03     109.109E-03
            5932            5943     119.186E-03     122.022E-03
            5933            5926     117.450E-03     120.436E-03
            5933            5927     132.297E-03     134.758E-03
            5933            5943     119.186E-03     122.022E-03
            5933            5944     132.375E-03     135.102E-03
            5934            5927     132.297E-03     134.758E-03
            5934            5928     147.516E-03     149.595E-03
            5934            5944     132.375E-03     135.102E-03
            5934            5945     145.118E-03     147.610E-03
            5935            5928     147.516E-03     149.595E-03
            5935            5929     161.043E-03     163.384E-03
            5935            5945     145.118E-03     147.610E-03
            5935            5946     157.117E-03     158.628E-03
            5936             284     162.805E-03     163.604E-03
            5936             285     167.321E-03     169.930E-03
            5936            5929     161.043E-03     163.384E-03
            5936            5946     157.117E-03     158.628E-03
            5937             696     47.9686E-03     44.1931E-03
            5937             697     45.6591E-03     42.1780E-03
            5937            5930     43.6285E-03     40.0115E-03
            5937            5947     41.7880E-03     38.3507E-03
            5938            5930     43.6285E-03     40.0115E-03
            5938            5931     34.9511E-03     31.6380E-03
            5938            5947     41.7880E-03     38.3507E-03
            5938            5948     34.3504E-03     31.2068E-03
            5939            5931     34.9511E-03     31.6380E-03
            5939            5932     27.2127E-03     24.4786E-03
            5939            5948     34.3504E-03     31.2068E-03
            5939            5949     27.8022E-03     25.4700E-03
            5940            5932     27.2127E-03     24.4786E-03
            5940            5933     22.2886E-03     20.8951E-03
            5940            5949     27.8022E-03     25.4700E-03
            5940            5950     23.9229E-03     22.9019E-03
            5941            5933     22.2886E-03     20.8951E-03
            5941            5934     22.4466E-03     22.7794E-03
            5941            5950     23.9229E-03     22.9019E-03
            5941            5951     24.7422E-03     25.1048E-03
            5942            5934     22.4466E-03     22.7794E-03
            5942            5935     28.1073E-03     29.6220E-03
            5942            5951     24.7422E-03     25.1048E-03
            5942            5952     30.1845E-03     31.4988E-03
            5943            5935     28.1073E-03     29.6220E-03
            5943            5936     37.0091E-03     39.0525E-03
            5943            5952     30.1845E-03     31.4988E-03
            5943            5953     38.7310E-03     40.5001E-03
            5944            5936     37.0091E-03     39.0525E-03
            5944            5937     47.3151E-03     49.6326E-03
            5944            5953     38.7310E-03     40.5001E-03
            5944            5954     48.8518E-03     50.8399E-03
            5945            5937     47.3151E-03     49.6326E-03
            5945            5938     58.3556E-03     60.8301E-03
            5945            5954     48.8518E-03     50.8399E-03
            5945            5955     59.7420E-03     61.9065E-03
            5946            5938     58.3556E-03     60.8301E-03
            5946            5939     69.7937E-03     72.4268E-03
            5946            5955     59.7420E-03     61.9065E-03
            5946            5956     71.1094E-03     73.4299E-03
            5947            5939     69.7937E-03     72.4268E-03
            5947            5940     81.5679E-03     84.3314E-03
            5947            5956     71.1094E-03     73.4299E-03
            5947            5957     82.7960E-03     85.2935E-03
            5948            5940     81.5679E-03     84.3314E-03
            5948            5941     93.6829E-03     96.5774E-03
            5948            5957     82.7960E-03     85.2935E-03
            5948            5958     94.7095E-03     97.3876E-03
            5949            5941     93.6829E-03     96.5774E-03
            5949            5942     106.118E-03     109.109E-03
            5949            5958     94.7095E-03     97.3876E-03
            5949            5959     106.877E-03     109.652E-03
            5950            5942     106.118E-03     109.109E-03
            5950            5943     119.186E-03     122.022E-03
            5950            5959     106.877E-03     109.652E-03
            5950            5960     119.020E-03     121.884E-03
            5951            5943     119.186E-03     122.022E-03
            5951            5944     132.375E-03     135.102E-03
            5951            5960     119.020E-03     121.884E-03
            5951            5961     130.902E-03     133.629E-03
            5952            5944     132.375E-03     135.102E-03
            5952            5945     145.118E-03     147.610E-03
            5952            5961     130.902E-03     133.629E-03
            5952            5962     142.192E-03     144.439E-03
            5953            5945     145.118E-03     147.610E-03
            5953            5946     157.117E-03     158.628E-03
            5953            5962     142.192E-03     144.439E-03
            5953            5963     152.472E-03     154.271E-03
            5954             283     157.366E-03     159.002E-03
            5954             284     162.805E-03     163.604E-03
            5954            5946     157.117E-03     158.628E-03
            5954            5963     152.472E-03     154.271E-03
            5955             697     45.6591E-03     42.1780E-03
            5955             698     44.0979E-03     40.6450E-03
            5955            5947     41.7880E-03     38.3507E-03
            5955            5964     40.7662E-03     37.4435E-03
            5956            5947     41.7880E-03     38.3507E-03
            5956            5948     34.3504E-03     31.2068E-03
            5956            5964     40.7662E-03     37.4435E-03
            5956            5965     34.2310E-03     31.4591E-03
            5957            5948     34.3504E-03     31.2068E-03
            5957            5949     27.8022E-03     25.4700E-03
            5957            5965     34.2310E-03     31.4591E-03
            5957            5966     28.6993E-03     26.8719E-03
            5958            5949     27.8022E-03     25.4700E-03
            5958            5950     23.9229E-03     22.9019E-03
            5958            5966     28.6993E-03     26.8719E-03
            5958            5967     25.6393E-03     25.0254E-03
            5959            5950     23.9229E-03     22.9019E-03
            5959            5951     24.7422E-03     25.1048E-03
            5959            5967     25.6393E-03     25.0254E-03
            5959            5968     26.6580E-03     27.1802E-03
            5960            5951     24.7422E-03     25.1048E-03
            5960            5952     30.1845E-03     31.4988E-03
            5960            5968     26.6580E-03     27.1802E-03
            5960            5969     32.0360E-03     33.2001E-03
            5961            5952     30.1845E-03     31.4988E-03
            5961            5953     38.7310E-03     40.5001E-03
            5961            5969     32.0360E-03     33.2001E-03
            5961            5970     40.2651E-03     41.7324E-03
            5962            5953     38.7310E-03     40.5001E-03
            5962            5954     48.8518E-03     50.8399E-03
            5962            5970     40.2651E-03     41.7324E-03
            5962            5971     50.0550E-03     51.6953E-03
            5963            5954     48.8518E-03     50.8399E-03
            5963            5955     59.7420E-03     61.9065E-03
            5963            5971     50.0550E-03     51.6953E-03
            5963            5972     60.6887E-03     62.4653E-03
            5964            5955     59.7420E-03     61.9065E-03
            5964            5956     71.1094E-03     73.4299E-03
            5964            5972     60.6887E-03     62.4653E-03
            5964            5973     71.7945E-03     73.7271E-03
            5965            5956     71.1094E-03     73.4299E-03
            5965            5957     82.7960E-03     85.2935E-03
            5965            5973     71.7945E-03     73.7271E-03
            5965            5974     83.1863E-03     85.3038E-03
            5966            5957     82.7960E-03     85.2935E-03
            5966            5958     94.7095E-03     97.3876E-03
            5966            5974     83.1863E-03     85.3038E-03
            5966            5975     94.7530E-03     97.0637E-03
            5967            5958     94.7095E-03     97.3876E-03
            5967            5959     106.877E-03     109.652E-03
            5967            5975     94.7530E-03     97.0637E-03
            5967            5976     106.323E-03     108.843E-03
            5968            5959     106.877E-03     109.652E-03
            5968            5960     119.020E-03     121.884E-03
            5968            5976     106.323E-03     108.843E-03
            5968            5977     117.674E-03     120.336E-03
            5969            5960     119.020E-03     121.884E-03
            5969            5961     130.902E-03     133.629E-03
            5969            5977     117.674E-03     120.336E-03
            5969            5978     128.531E-03     131.139E-03
            5970            5961     130.902E-03     133.629E-03
            5970            5962     142.192E-03     144.439E-03
            5970            5978     128.531E-03     131.139E-03
            5970            5979     138.541E-03     140.839E-03
            5971            5962     142.192E-03     144.439E-03
            5971            5963     152.472E-03     154.271E-03
            5971            5979     138.541E-03     140.839E-03
            5971            5980     147.790E-03     149.410E-03
            5972             282     152.271E-03     153.442E-03
            5972             283     157.366E-03     159.002E-03
            5972            5963     152.472E-03     154.271E-03
            5972            5980     147.790E-03     149.410E-03
            5973             698     44.0979E-03     40.6450E-03
            5973             699     43.2837E-03     39.7868E-03
            5973            5964     40.7662E-03     37.4435E-03
            5973            5981     40.2874E-03     37.2485E-03
            5974            5964     40.7662E-03     37.4435E-03
            5974            5965     34.2310E-03     31.4591E-03
            5974            5981     40.2874E-03     37.2485E-03
            5974            5982     34.6457E-03     32.4221E-03
            5975            5965     34.2310E-03     31.4591E-03
            5975            5966     28.6993E-03     26.8719E-03
            5975            5982     34.6457E-03     32.4221E-03
            5975            5983     29.8199E-03     28.6234E-03
            5976            5966     28.6993E-03     26.8719E-03
            5976            5967     25.6393E-03     25.0254E-03
            5976            5983     29.8199E-03     28.6234E-03
            5976            5984     27.2286E-03     27.1879E-03
            5977            5967     25.6393E-03     25.0254E-03
            5977            5968     26.6580E-03     27.1802E-03
            5977            5984     27.2286E-03     27.1879E-03
            5977            5985     28.6353E-03     29.2969E-03
            5978            5968     26.6580E-03     27.1802E-03
            5978            5969     32.0360E-03     33.2001E-03
            5978            5985     28.6353E-03     29.2969E-03
            5978            5986     33.8765E-03     34.8725E-03
            5979            5969     32.0360E-03     33.2001E-03
            5979            5970     40.2651E-03     41.7324E-03
            5979            5986     33.8765E-03     34.8725E-03
            5979            5987     41.7478E-03     42.8954E-03
            5980            5970     40.2651E-03     41.7324E-03
            5980            5971     50.0550E-03     51.6953E-03
            5980            5987     41.7478E-03     42.8954E-03
            5980            5988     51.1024E-03     52.3427E-03
            5981            5971     50.0550E-03     51.6953E-03
            5981            5972     60.6887E-03     62.4653E-03
            5981            5988     51.1024E-03     52.3427E-03
            5981            5989     61.2806E-03     62.6172E-03
            5982            5972     60.6887E-03     62.4653E-03
            5982            5973     71.7945E-03     73.7271E-03
            5982            5989     61.2806E-03     62.6172E-03
            5982            5990     71.9289E-03     73.3894E-03
            5983            5973     71.7945E-03     73.7271E-03
            5983            5974     83.1863E-03     85.3038E-03
            5983            5990     71.9289E-03     73.3894E-03
            5983            5991     82.8366E-03     84.4462E-03
            5984            5974     83.1863E-03     85.3038E-03
            5984            5975     94.7530E-03     97.0637E-03
            5984            5991     82.8366E-03     84.4462E-03
            5984            5992     93.8317E-03     95.6453E-03
            5985            5975     94.7530E-03     97.0637E-03
            5985            5976     106.323E-03     108.843E-03
            5985            5992     93.8317E-03     95.6453E-03
            5985            5993     104.716E-03     106.775E-03
            5986            5976     106.323E-03     108.843E-03
            5986            5977     117.674E-03     120.336E-03
            5986            5993     104.716E-03     106.775E-03
            5986            5994     115.350E-03     117.597E-03
            5987            5977     117.674E-03     120.336E-03
            5987            5978     128.531E-03     131.139E-03
            5987            5994     115.350E-03     117.597E-03
            5987            5995     125.296E-03     127.719E-03
            5988            5978     128.531E-03     131.139E-03
            5988            5979     138.541E-03     140.839E-03
            5988            5995     125.296E-03     127.719E-03
            5988            5996     134.401E-03     136.656E-03
            5989            5979     138.541E-03     140.839E-03
            5989            5980     147.790E-03     149.410E-03
            5989            5996     134.401E-03     136.656E-03
            5989            5997     142.643E-03     144.117E-03
            5990             281     146.512E-03     147.467E-03
            5990             282     152.271E-03     153.442E-03
            5990            5980     147.790E-03     149.410E-03
            5990            5997     142.643E-03     144.117E-03
            5991             699     43.2837E-03     39.7868E-03
            5991             700     42.1836E-03     39.6172E-03
            5991            5981     40.2874E-03     37.2485E-03
            5991            5998     40.1867E-03     37.6495E-03
            5992            5981     40.2874E-03     37.2485E-03
            5992            5982     34.6457E-03     32.4221E-03
            5992            5998     40.1867E-03     37.6495E-03
            5992            5999     35.3998E-03     33.8372E-03
            5993            5982     34.6457E-03     32.4221E-03
            5993            5983     29.8199E-03     28.6234E-03
            5993            5999     35.3998E-03     33.8372E-03
            5993            6000     30.6681E-03     30.6058E-03
            5994            5983     29.8199E-03     28.6234E-03
            5994            5984     27.2286E-03     27.1879E-03
            5994            6000     30.6681E-03     30.6058E-03
            5994            6001     28.8454E-03     29.4118E-03
            5995            5984     27.2286E-03     27.1879E-03
            5995            5985     28.6353E-03     29.2969E-03
            5995            6001     28.8454E-03     29.4118E-03
            5995            6002     30.8309E-03     31.5447E-03
            5996            5985     28.6353E-03     29.2969E-03
            5996            5986     33.8765E-03     34.8725E-03
            5996            6002     30.8309E-03     31.5447E-03
            5996            6003     36.0208E-03     36.7978E-03
            5997            5986     33.8765E-03     34.8725E-03
            5997            5987     41.7478E-03     42.8954E-03
            5997            6003     36.0208E-03     36.7978E-03
            5997            6004     43.4364E-03     44.2352E-03
            5998            5987     41.7478E-03     42.8954E-03
            5998            5988     51.1024E-03     52.3427E-03
            5998            6004     43.4364E-03     44.2352E-03
            5998            6005     52.1907E-03     53.0159E-03
            5999            5988     51.1024E-03     52.3427E-03
            5999            5989     61.2806E-03     62.6172E-03
            5999            6005     52.1907E-03     53.0159E-03
            5999            6006     61.7179E-03     62.5870E-03
            6000            5989     61.2806E-03     62.6172E-03
            6000            5990     71.9289E-03     73.3894E-03
            6000            6006     61.7179E-03     62.5870E-03
            6000            6007     71.6916E-03     72.6110E-03
            6001            5990     71.9289E-03     73.3894E-03
            6001            5991     82.8366E-03     84.4462E-03
            6001            6007     71.6916E-03     72.6110E-03
            6001            6008     81.8831E-03     82.8988E-03
            6002            5991     82.8366E-03     84.4462E-03
            6002            5992     93.8317E-03     95.6453E-03
            6002            6008     81.8831E-03     82.8988E-03
            6002            6009     92.1180E-03     93.2578E-03
            6003            5992     93.8317E-03     95.6453E-03
            6003            5993     104.716E-03     106.775E-03
            6003            6009     92.1180E-03     93.2578E-03
            6003            6010     102.234E-03     103.563E-03
            6004            5993     104.716E-03     106.775E-03
            6004            5994     115.350E-03     117.597E-03
            6004            6010     102.234E-03     103.563E-03
            6004            6011     111.945E-03     113.579E-03
            6005            5994     115.350E-03     117.597E-03
            6005            5995     125.296E-03     127.719E-03
            6005            6011     111.945E-03     113.579E-03
            6005            6012     121.256E-03     123.051E-03
            6006            5995     125.296E-03     127.719E-03
            6006            5996     134.401E-03     136.656E-03
            6006            6012     121.256E-03     123.051E-03
            6006            6013     129.546E-03     131.447E-03
            6007            5996     134.401E-03     136.656E-03
            6007            5997     142.643E-03     144.117E-03
            6007            6013     129.546E-03     131.447E-03
            6007            6014     136.702E-03     138.401E-03
            6008             280     140.131E-03     141.539E-03
            6008             281     146.512E-03     147.467E-03
            6008            5997     142.643E-03     144.117E-03
            6008            6014     136.702E-03     138.401E-03
            6009             700     42.1836E-03     39.6172E-03
            6009             701     43.4587E-03     39.7779E-03
            6009            5998     40.1867E-03     37.6495E-03
            6009            6015     40.5702E-03     38.7172E-03
            6010            5998     40.1867E-03     37.6495E-03
            6010            5999     35.3998E-03     33.8372E-03
            6010            6015     40.5702E-03     38.7172E-03
            6010            6016     34.7847E-03     35.5162E-03
            6011            5999     35.3998E-03     33.8372E-03
            6011            6000     30.6681E-03     30.6058E-03
            6011            6016     34.7847E-03     35.5162E-03
            6011            6017     31.1695E-03     32.3689E-03
            6012            6000     30.6681E-03     30.6058E-03
            6012            6001     28.8454E-03     29.4118E-03
            6012            6017     31.1695E-03     32.3689E-03
            6012            6018     31.0161E-03     31.8271E-03
            6013            6001     28.8454E-03     29.4118E-03
            6013            6002     30.8309E-03     31.5447E-03
            6013            6018     31.0161E-03     31.8271E-03
            6013            6019     33.6496E-03     34.2700E-03
            6014            6002     30.8309E-03     31.5447E-03
            6014            6003     36.0208E-03     36.7978E-03
            6014            6019     33.6496E-03     34.2700E-03
            6014            6020     38.7723E-03     39.2802E-03
            6015            6003     36.0208E-03     36.7978E-03
            6015            6004     43.4364E-03     44.2352E-03
            6015            6020     38.7723E-03     39.2802E-03
            6015            6021     45.6389E-03     46.0994E-03
            6016            6004     43.4364E-03     44.2352E-03
            6016            6005     52.1907E-03     53.0159E-03
            6016            6021     45.6389E-03     46.0994E-03
            6016            6022     53.6167E-03     54.0632E-03
            6017            6005     52.1907E-03     53.0159E-03
            6017            6006     61.7179E-03     62.5870E-03
            6017            6022     53.6167E-03     54.0632E-03
            6017            6023     62.2880E-03     62.7040E-03
            6018            6006     61.7179E-03     62.5870E-03
            6018            6007     71.6916E-03     72.6110E-03
            6018            6023     62.2880E-03     62.7040E-03
            6018            6024     71.3469E-03     71.7439E-03
            6019            6007     71.6916E-03     72.6110E-03
            6019            6008     81.8831E-03     82.8988E-03
            6019            6024     71.3469E-03     71.7439E-03
            6019            6025     80.6012E-03     80.9556E-03
            6020            6008     81.8831E-03     82.8988E-03
            6020            6009     92.1180E-03     93.2578E-03
            6020            6025     80.6012E-03     80.9556E-03
            6020            6026     89.8604E-03     90.2117E-03
            6021            6009     92.1180E-03     93.2578E-03
            6021            6010     102.234E-03     103.563E-03
            6021            6026     89.8604E-03     90.2117E-03
            6021            6027     98.9652E-03     99.3424E-03
            6022            6010     102.234E-03     103.563E-03
            6022            6011     111.945E-03     113.579E-03
            6022            6027     98.9652E-03     99.3424E-03
            6022            6028     107.748E-03     108.242E-03
            6023            6011     111.945E-03     113.579E-03
            6023            6012     121.256E-03     123.051E-03
            6023            6028     107.748E-03     108.242E-03
            6023            6029     115.928E-03     116.735E-03
            6024            6012     121.256E-03     123.051E-03
            6024            6013     129.546E-03     131.447E-03
            6024            6029     115.928E-03     116.735E-03
            6024            6030     123.678E-03     124.579E-03
            6025            6013     129.546E-03     131.447E-03
            6025            6014     136.702E-03     138.401E-03
            6025            6030     123.678E-03     124.579E-03
            6025            6031     130.088E-03     130.522E-03
            6026             279     132.691E-03     132.725E-03
            6026             280     140.131E-03     141.539E-03
            6026            6014     136.702E-03     138.401E-03
            6026            6031     130.088E-03     130.522E-03
            6027             701     43.4587E-03     39.7779E-03
            6027             702     39.3933E-03     43.4392E-03
            6027            6015     40.5702E-03     38.7172E-03
            6027            6032     36.5146E-03     40.5498E-03
            6028            6015     40.5702E-03     38.7172E-03
            6028            6016     34.7847E-03     35.5162E-03
            6028            6032     36.5146E-03     40.5498E-03
            6028            6033     33.1616E-03     36.0811E-03
            6029            6016     34.7847E-03     35.5162E-03
            6029            6017     31.1695E-03     32.3689E-03
            6029            6033     33.1616E-03     36.0811E-03
            6029            6034     32.9032E-03     34.2001E-03
            6030            6017     31.1695E-03     32.3689E-03
            6030            6018     31.0161E-03     31.8271E-03
            6030            6034     32.9032E-03     34.2001E-03
            6030            6035     34.2955E-03     34.9174E-03
            6031            6018     31.0161E-03     31.8271E-03
            6031            6019     33.6496E-03     34.2700E-03
            6031            6035     34.2955E-03     34.9174E-03
            6031            6036     37.5689E-03     37.9129E-03
            6032            6019     33.6496E-03     34.2700E-03
            6032            6020     38.7723E-03     39.2802E-03
            6032            6036     37.5689E-03     37.9129E-03
            6032            6037     42.5106E-03     42.7365E-03
            6033            6020     38.7723E-03     39.2802E-03
            6033            6021     45.6389E-03     46.0994E-03
            6033            6037     42.5106E-03     42.7365E-03
            6033            6038     48.6872E-03     48.8953E-03
            6034            6021     45.6389E-03     46.0994E-03
            6034            6022     53.6167E-03     54.0632E-03
            6034            6038     48.6872E-03     48.8953E-03
            6034            6039     55.7570E-03     55.9055E-03
            6035            6022     53.6167E-03     54.0632E-03
            6035            6023     62.2880E-03     62.7040E-03
            6035            6039     55.7570E-03     55.9055E-03
            6035            6040     63.3708E-03     63.4554E-03
            6036            6023     62.2880E-03     62.7040E-03
            6036            6024     71.3469E-03     71.7439E-03
            6036            6040     63.3708E-03     63.4554E-03
            6036            6041     71.3215E-03     71.2672E-03
            6037            6024     71.3469E-03     71.7439E-03
            6037            6025     80.6012E-03     80.9556E-03
            6037            6041     71.3215E-03     71.2672E-03
            6037            6042     79.3948E-03     79.1776E-03
            6038            6025     80.6012E-03     80.9556E-03
            6038            6026     89.8604E-03     90.2117E-03
            6038            6042     79.3948E-03     79.1776E-03
            6038            6043     87.4546E-03     87.0050E-03
            6039            6026     89.8604E-03     90.2117E-03
            6039            6027     98.9652E-03     99.3424E-03
            6039            6043     87.4546E-03     87.0050E-03
            6039            6044     95.3222E-03     94.6216E-03
            6040            6027     98.9652E-03     99.3424E-03
            6040            6028     107.748E-03     108.242E-03
            6040            6044     95.3222E-03     94.6216E-03
            6040            6045     102.885E-03     101.931E-03
            6041            6028     107.748E-03     108.242E-03
            6041            6029     115.928E-03     116.735E-03
            6041            6045     102.885E-03     101.931E-03
            6041            6046     109.888E-03     108.753E-03
            6042            6029     115.928E-03     116.735E-03
            6042            6030     123.678E-03     124.579E-03
            6042            6046     109.888E-03     108.753E-03
            6042            6047     116.250E-03     115.274E-03
            6043            6030     123.678E-03     124.579E-03
            6043            6031     130.088E-03     130.522E-03
            6043            6047     116.250E-03     115.274E-03
            6043            6048     121.832E-03     120.535E-03
            6044             278     124.297E-03     122.528E-03
            6044             279     132.691E-03     132.725E-03
            6044            6031     130.088E-03     130.522E-03
            6044            6048     121.832E-03     120.535E-03
            6045             702     39.3933E-03     43.4392E-03
            6045             703     42.3485E-03     49.6252E-03
            6045            6032     36.5146E-03     40.5498E-03
            6045            6049     36.9624E-03     41.4273E-03
            6046            6032     36.5146E-03     40.5498E-03
            6046            6033     33.1616E-03     36.0811E-03
            6046            6049     36.9624E-03     41.4273E-03
            6046            6050     29.5804E-03     30.2612E-03
            6047            6033     33.1616E-03     36.0811E-03
            6047            6034     32.9032E-03     34.2001E-03
            6047            6050     29.5804E-03     30.2612E-03
            6047            6051     26.0516E-03     25.7135E-03
            6048            6034     32.9032E-03     34.2001E-03
            6048            6035     34.2955E-03     34.9174E-03
            6048            6051     26.0516E-03     25.7135E-03
            6048            6052     24.4658E-03     24.3783E-03
            6049            6035     34.2955E-03     34.9174E-03
            6049            6036     37.5689E-03     37.9129E-03
            6049            6052     24.4658E-03     24.3783E-03
            6049            6053     26.1244E-03     26.7150E-03
            6050            6036     37.5689E-03     37.9129E-03
            6050            6037     42.5106E-03     42.7365E-03
            6050            6053     26.1244E-03     26.7150E-03
            6050            6054     30.5394E-03     31.6819E-03
            6051            6037     42.5106E-03     42.7365E-03
            6051            6038     48.6872E-03     48.8953E-03
            6051            6054     30.5394E-03     31.6819E-03
            6051            6055     36.4692E-03     37.8206E-03
            6052            6038     48.6872E-03     48.8953E-03
            6052            6039     55.7570E-03     55.9055E-03
            6052            6055     36.4692E-03     37.8206E-03
            6052            6056     43.1122E-03     44.5210E-03
            6053            6039     55.7570E-03     55.9055E-03
            6053            6040     63.3708E-03     63.4554E-03
            6053            6056     43.1122E-03     44.5210E-03
            6053            6057     50.1811E-03     51.5338E-03
            6054            6040     63.3708E-03     63.4554E-03
            6054            6041     71.3215E-03     71.2672E-03
            6054            6057     50.1811E-03     51.5338E-03
            6054            6058     57.4625E-03     58.7180E-03
            6055            6041     71.3215E-03     71.2672E-03
            6055            6042     79.3948E-03     79.1776E-03
            6055            6058     57.4625E-03     58.7180E-03
            6055            6059     64.9559E-03     66.0020E-03
            6056            6042     79.3948E-03     79.1776E-03
            6056            6043     87.4546E-03     87.0050E-03
            6056            6059     64.9559E-03     66.0020E-03
            6056            6060     72.5405E-03     73.3840E-03
            6057            6043     87.4546E-03     87.0050E-03
            6057            6044     95.3222E-03     94.6216E-03
            6057            6060     72.5405E-03     73.3840E-03
            6057            6061     80.3449E-03     80.8501E-03
            6058            6044     95.3222E-03     94.6216E-03
            6058            6045     102.885E-03     101.931E-03
            6058            6061     80.3449E-03     80.8501E-03
            6058            6062     88.2772E-03     88.5555E-03
            6059            6045     102.885E-03     101.931E-03
            6059            6046     109.888E-03     108.753E-03
            6059            6062     88.2772E-03     88.5555E-03
            6059            6063     96.7859E-03     96.7883E-03
            6060            6046     109.888E-03     108.753E-03
            6060            6047     116.250E-03     115.274E-03
            6060            6063     96.7859E-03     96.7883E-03
            6060            6064     105.757E-03     105.968E-03
            6061            6047     116.250E-03     115.274E-03
            6061            6048     121.832E-03     120.535E-03
            6061            6064     105.757E-03     105.968E-03
            6061            6065     118.065E-03     120.663E-03
            6062             277     126.062E-03     130.468E-03
            6062             278     124.297E-03     122.528E-03
            6062            6048     121.832E-03     120.535E-03
            6062            6065     118.065E-03     120.663E-03
            6063             703     42.3485E-03     49.6252E-03
            6063             704     48.5540E-03     46.6226E-03
            6063            6049     36.9624E-03     41.4273E-03
            6063            6066     41.5126E-03     39.5416E-03
            6064            6049     36.9624E-03     41.4273E-03
            6064            6050     29.5804E-03     30.2612E-03
            6064            6066     41.5126E-03     39.5416E-03
            6064            6067     28.5430E-03     26.5340E-03
            6065            6050     29.5804E-03     30.2612E-03
            6065            6051     26.0516E-03     25.7135E-03
            6065            6067     28.5430E-03     26.5340E-03
            6065            6068     19.4496E-03     17.7051E-03
            6066            6051     26.0516E-03     25.7135E-03
            6066            6052     24.4658E-03     24.3783E-03
            6066            6068     19.4496E-03     17.7051E-03
            6066            6069     14.7568E-03     14.0419E-03
            6067            6052     24.4658E-03     24.3783E-03
            6067            6053     26.1244E-03     26.7150E-03
            6067            6069     14.7568E-03     14.0419E-03
            6067            6070     14.3641E-03     15.1541E-03
            6068            6053     26.1244E-03     26.7150E-03
            6068            6054     30.5394E-03     31.6819E-03
            6068            6070     14.3641E-03     15.1541E-03
            6068            6071     18.1035E-03     19.9747E-03
            6069            6054     30.5394E-03     31.6819E-03
            6069            6055     36.4692E-03     37.8206E-03
            6069            6071     18.1035E-03     19.9747E-03
            6069            6072     23.8561E-03     26.2121E-03
            6070            6055     36.4692E-03     37.8206E-03
            6070            6056     43.1122E-03     44.5210E-03
            6070            6072     23.8561E-03     26.2121E-03
            6070            6073     30.4485E-03     33.0099E-03
            6071            6056     43.1122E-03     44.5210E-03
            6071            6057     50.1811E-03     51.5338E-03
            6071            6073     30.4485E-03     33.0099E-03
            6071            6074     37.4352E-03     40.0541E-03
            6072            6057     50.1811E-03     51.5338E-03
            6072            6058     57.4625E-03     58.7180E-03
            6072            6074     37.4352E-03     40.0541E-03
            6072            6075     44.6983E-03     47.3079E-03
            6073            6058     57.4625E-03     58.7180E-03
            6073            6059     64.9559E-03     66.0020E-03
            6073            6075     44.6983E-03     47.3079E-03
            6073            6076     52.2243E-03     54.7689E-03
            6074            6059     64.9559E-03     66.0020E-03
            6074            6060     72.5405E-03     73.3840E-03
            6074            6076     52.2243E-03     54.7689E-03
            6074            6077     60.1509E-03     62.6056E-03
            6075            6060     72.5405E-03     73.3840E-03
            6075            6061     80.3449E-03     80.8501E-03
            6075            6077     60.1509E-03     62.6056E-03
            6075            6078     68.5568E-03     70.9230E-03
            6076            6061     80.3449E-03     80.8501E-03
            6076            6062     88.2772E-03     88.5555E-03
            6076            6078     68.5568E-03     70.9230E-03
            6076            6079     77.9583E-03     80.2437E-03
            6077            6062     88.2772E-03     88.5555E-03
            6077            6063     96.7859E-03     96.7883E-03
            6077            6079     77.9583E-03     80.2437E-03
            6077            6080     88.5359E-03     90.8902E-03
            6078            6063     96.7859E-03     96.7883E-03
            6078            6064     105.757E-03     105.968E-03
            6078            6080     88.5359E-03     90.8902E-03
            6078            6081     102.415E-03     104.871E-03
            6079            6064     105.757E-03     105.968E-03
            6079            6065     118.065E-03     120.663E-03
            6079            6081     102.415E-03     104.871E-03
            6079            6082     121.923E-03     123.630E-03
            6080             276     133.012E-03     133.958E-03
            6080             277     126.062E-03     130.468E-03
            6080            6065     118.065E-03     120.663E-03
            6080            6082     121.923E-03     123.630E-03
            6081             704     48.5540E-03     46.6226E-03
            6081             705     41.6453E-03     38.7721E-03
            6081            6066     41.5126E-03     39.5416E-03
            6081            6083     38.3156E-03     35.5332E-03
            6082            6066     41.5126E-03     39.5416E-03
            6082            6067     28.5430E-03     26.5340E-03
            6082            6083     38.3156E-03     35.5332E-03
            6082            6084     30.3441E-03     27.8469E-03
            6083            6067     28.5430E-03     26.5340E-03
            6083            6068     19.4496E-03     17.7051E-03
            6083            6084     30.3441E-03     27.8469E-03
            6083            6085     22.4173E-03     20.5214E-03
            6084            6068     19.4496E-03     17.7051E-03
            6084            6069     14.7568E-03     14.0419E-03
            6084            6085     22.4173E-03     20.5214E-03
            6084            6086     18.1649E-03     17.2873E-03
            6085            6069     14.7568E-03     14.0419E-03
            6085            6070     14.3641E-03     15.1541E-03
            6085            6086     18.1649E-03     17.2873E-03
            6085            6087     18.0381E-03     18.4142E-03
            6086            6070     14.3641E-03     15.1541E-03
            6086            6071     18.1035E-03     19.9747E-03
            6086            6087     18.0381E-03     18.4142E-03
            6086            6088     21.2279E-03     22.6009E-03
            6087            6071     18.1035E-03     19.9747E-03
            6087            6072     23.8561E-03     26.2121E-03
            6087            6088     21.2279E-03     22.6009E-03
            6087            6089     26.5776E-03     28.4918E-03
            6088            6072     23.8561E-03     26.2121E-03
            6088            6073     30.4485E-03     33.0099E-03
            6088            6089     26.5776E-03     28.4918E-03
            6088            6090     32.9035E-03     35.0951E-03
            6089            6073     30.4485E-03     33.0099E-03
            6089            6074     37.4352E-03     40.0541E-03
            6089            6090     32.9035E-03     35.0951E-03
            6089            6091     39.7944E-03     42.1232E-03
            6090            6074     37.4352E-03     40.0541E-03
            6090            6075     44.6983E-03     47.3079E-03
            6090            6091     39.7944E-03     42.1232E-03
            6090            6092     47.0362E-03     49.4353E-03
            6091            6075     44.6983E-03     47.3079E-03
            6091            6076     52.2243E-03     54.7689E-03
            6091            6092     47.0362E-03     49.4353E-03
            6091            6093     54.6506E-03     57.0606E-03
            6092            6076     52.2243E-03     54.7689E-03
            6092            6077     60.1509E-03     62.6056E-03
            6092            6093     54.6506E-03     57.0606E-03
            6092            6094     62.6486E-03     65.0723E-03
            6093            6077     60.1509E-03     62.6056E-03
            6093            6078     68.5568E-03     70.9230E-03
            6093            6094     62.6486E-03     65.0723E-03
            6093            6095     71.3136E-03     73.6666E-03
            6094            6078     68.5568E-03     70.9230E-03
            6094            6079     77.9583E-03     80.2437E-03
            6094            6095     71.3136E-03     73.6666E-03
            6094            6096     80.8466E-03     83.1818E-03
            6095            6079     77.9583E-03     80.2437E-03
            6095            6080     88.5359E-03     90.8902E-03
            6095            6096     80.8466E-03     83.1818E-03
            6095            6097     91.9595E-03     94.0606E-03
            6096            6080     88.5359E-03     90.8902E-03
            6096            6081     102.415E-03     104.871E-03
            6096            6097     91.9595E-03     94.0606E-03
            6096            6098     106.344E-03     107.586E-03
            6097            6081     102.415E-03     104.871E-03
            6097            6082     121.923E-03     123.630E-03
            6097            6098     106.344E-03     107.586E-03
            6097            6099     121.008E-03     121.128E-03
            6098             275     127.472E-03     127.016E-03
            6098             276     133.012E-03     133.958E-03
            6098            6082     121.923E-03     123.630E-03
            6098            6099     121.008E-03     121.128E-03
            6099             705     41.6453E-03     38.7721E-03
            6099             706     37.3478E-03     35.0336E-03
            6099            6083     38.3156E-03     35.5332E-03
            6099            6100     34.5023E-03     32.0705E-03
            6100            6083     38.3156E-03     35.5332E-03
            6100            6084     30.3441E-03     27.8469E-03
            6100            6100     34.5023E-03     32.0705E-03
            6100            6101     28.9444E-03     26.5194E-03
            6101            6084     30.3441E-03     27.8469E-03
            6101            6085     22.4173E-03     20.5214E-03
            6101            6101     28.9444E-03     26.5194E-03
            6101            6102     23.8506E-03     21.9174E-03
            6102            6085     22.4173E-03     20.5214E-03
            6102            6086     18.1649E-03     17.2873E-03
            6102            6102     23.8506E-03     21.9174E-03
            6102            6103     20.6042E-03     19.6540E-03
            6103            6086     18.1649E-03     17.2873E-03
            6103            6087     18.0381E-03     18.4142E-03
            6103            6103     20.6042E-03     19.6540E-03
            6103            6104     20.7715E-03     20.9443E-03
            6104            6087     18.0381E-03     18.4142E-03
            6104            6088     21.2279E-03     22.6009E-03
            6104            6104     20.7715E-03     20.9443E-03
            6104            6105     23.9376E-03     24.9781E-03
            6105            6088     21.2279E-03     22.6009E-03
            6105            6089     26.5776E-03     28.4918E-03
            6105            6105     23.9376E-03     24.9781E-03
            6105            6106     28.9783E-03     30.5668E-03
            6106            6089     26.5776E-03     28.4918E-03
            6106            6090     32.9035E-03     35.0951E-03
            6106            6106     28.9783E-03     30.5668E-03
            6106            6107     35.1645E-03     37.0518E-03
            6107            6090     32.9035E-03     35.0951E-03
            6107            6091     39.7944E-03     42.1232E-03
            6107            6107     35.1645E-03     37.0518E-03
            6107            6108     41.9530E-03     44.0284E-03
            6108            6091     39.7944E-03     42.1232E-03
            6108            6092     47.0362E-03     49.4353E-03
            6108            6108     41.9530E-03     44.0284E-03
            6108            6109     49.2030E-03     51.3842E-03
            6109            6092     47.0362E-03     49.4353E-03
            6109            6093     54.6506E-03     57.0606E-03
            6109            6109     49.2030E-03     51.3842E-03
            6109            6110     56.8147E-03     59.0848E-03
            6110            6093     54.6506E-03     57.0606E-03
            6110            6094     62.6486E-03     65.0723E-03
            6110            6110     56.8147E-03     59.0848E-03
            6110            6111     64.8766E-03     67.1625E-03
            6111            6094     62.6486E-03     65.0723E-03
            6111            6095     71.3136E-03     73.6666E-03
            6111            6111     64.8766E-03     67.1625E-03
            6111            6112     73.5059E-03     75.7948E-03
            6112            6095     71.3136E-03     73.6666E-03
            6112            6096     80.8466E-03     83.1818E-03
            6112            6112     73.5059E-03     75.7948E-03
            6112            6113     82.9071E-03     85.0802E-03
            6113            6096     80.8466E-03     83.1818E-03
            6113            6097     91.9595E-03     94.0606E-03
            6113            6113     82.9071E-03     85.0802E-03
            6113            6114     93.8210E-03     95.5487E-03
            6114            6097     91.9595E-03     94.0606E-03
            6114            6098     106.344E-03     107.586E-03
            6114            6114     93.8210E-03     95.5487E-03
            6114            6115     105.329E-03     106.763E-03
            6115            6098     106.344E-03     107.586E-03
            6115            6099     121.008E-03     121.128E-03
            6115            6115     105.329E-03     106.763E-03
            6115            6116     115.816E-03     117.583E-03
            6116             274     120.748E-03     122.858E-03
            6116             275     127.472E-03     127.016E-03
            6116            6099     121.008E-03     121.128E-03
            6116            6116     115.816E-03     117.583E-03
            6117             706     37.3478E-03     35.0336E-03
            6117             707     34.9417E-03     32.3872E-03
            6117            6100     34.5023E-03     32.0705E-03
            6117            6117     32.3910E-03     29.9244E-03
            6118            6100     34.5023E-03     32.0705E-03
            6118            6101     28.9444E-03     26.5194E-03
            6118            6117     32.3910E-03     29.9244E-03
            6118            6118     27.5914E-03     25.3633E-03
            6119            6101     28.9444E-03     26.5194E-03
            6119            6102     23.8506E-03     21.9174E-03
            6119            6118     27.5914E-03     25.3633E-03
            6119            6119     23.9470E-03     22.2186E-03
            6120            6102     23.8506E-03     21.9174E-03
            6120            6103     20.6042E-03     19.6540E-03
            6120            6119     23.9470E-03     22.2186E-03
            6120            6120     22.2151E-03     21.3304E-03
            6121            6103     20.6042E-03     19.6540E-03
            6121            6104     20.7715E-03     20.9443E-03
            6121            6120     22.2151E-03     21.3304E-03
            6121            6121     22.8749E-03     22.9620E-03
            6122            6104     20.7715E-03     20.9443E-03
            6122            6105     23.9376E-03     24.9781E-03
            6122            6121     22.8749E-03     22.9620E-03
            6122            6122     26.0458E-03     26.8978E-03
            6123            6105     23.9376E-03     24.9781E-03
            6123            6106     28.9783E-03     30.5668E-03
            6123            6122     26.0458E-03     26.8978E-03
            6123            6123     31.0097E-03     32.3373E-03
            6124            6106     28.9783E-03     30.5668E-03
            6124            6107     35.1645E-03     37.0518E-03
            6124            6123     31.0097E-03     32.3373E-03
            6124            6124     37.0358E-03     38.6662E-03
            6125            6107     35.1645E-03     37.0518E-03
            6125            6108     41.9530E-03     44.0284E-03
            6125            6124     37.0358E-03     38.6662E-03
            6125            6125     43.7720E-03     45.5881E-03
            6126            6108     41.9530E-03     44.0284E-03
            6126            6109     49.2030E-03     51.3842E-03
            6126            6125     43.7720E-03     45.5881E-03
            6126            6126     50.9576E-03     52.9215E-03
            6127            6109     49.2030E-03     51.3842E-03
            6127            6110     56.8147E-03     59.0848E-03
            6127            6126     50.9576E-03     52.9215E-03
            6127            6127     58.5277E-03     60.5912E-03
            6128            6110     56.8147E-03     59.0848E-03
            6128            6111     64.8766E-03     67.1625E-03
            6128            6127     58.5277E-03     60.5912E-03
            6128            6128     66.4800E-03     68.6134E-03
            6129            6111     64.8766E-03     67.1625E-03
            6129            6112     73.5059E-03     75.7948E-03
            6129            6128     66.4800E-03     68.6134E-03
            6129            6129     74.8109E-03     76.9620E-03
            6130            6112     73.5059E-03     75.7948E-03
            6130            6113     82.9071E-03     85.0802E-03
            6130            6129     74.8109E-03     76.9620E-03
            6130            6130     83.7995E-03     85.7772E-03
            6131            6113     82.9071E-03     85.0802E-03
            6131            6114     93.8210E-03     95.5487E-03
            6131            6130     83.7995E-03     85.7772E-03
            6131            6131     93.0938E-03     94.9452E-03
            6132            6114     93.8210E-03     95.5487E-03
            6132            6115     105.329E-03     106.763E-03
            6132            6131     93.0938E-03     94.9452E-03
            6132            6132     102.284E-03     104.014E-03
            6133            6115     105.329E-03     106.763E-03
            6133            6116     115.816E-03     117.583E-03
            6133            6132     102.284E-03     104.014E-03
            6133            6133     111.314E-03     112.362E-03
            6134             273     115.721E-03     116.226E-03
            6134             274     120.748E-03     122.858E-03
            6134            6116     115.816E-03     117.583E-03
            6134            6133     111.314E-03     112.362E-03
            6135             707     34.9417E-03     32.3872E-03
            6135             708     32.8675E-03     30.4830E-03
            6135            6117     32.3910E-03     29.9244E-03
            6135            6134     30.7514E-03     28.3946E-03
            6136            6117     32.3910E-03     29.9244E-03
            6136            6118     27.5914E-03     25.3633E-03
            6136            6134     30.7514E-03     28.3946E-03
            6136            6135     26.9548E-03     24.8585E-03
            6137            6118     27.5914E-03     25.3633E-03
            6137            6119     23.9470E-03     22.2186E-03
            6137            6135     26.9548E-03     24.8585E-03
            6137            6136     24.2507E-03     22.7493E-03
            6138            6119     23.9470E-03     22.2186E-03
            6138            6120     22.2151E-03     21.3304E-03
            6138            6136     24.2507E-03     22.7493E-03
            6138            6137     23.2899E-03     22.5920E-03
            6139            6120     22.2151E-03     21.3304E-03
            6139            6121     22.8749E-03     22.9620E-03
            6139            6137     23.2899E-03     22.5920E-03
            6139            6138     24.5123E-03     24.6165E-03
            6140            6121     22.8749E-03     22.9620E-03
            6140            6122     26.0458E-03     26.8978E-03
            6140            6138     24.5123E-03     24.6165E-03
            6140            6139     27.7415E-03     28.4643E-03
            6141            6122     26.0458E-03     26.8978E-03
            6141            6123     31.0097E-03     32.3373E-03
            6141            6139     27.7415E-03     28.4643E-03
            6141            6140     32.5848E-03     33.7106E-03
            6142            6123     31.0097E-03     32.3373E-03
            6142            6124     37.0358E-03     38.6662E-03
            6142            6140     32.5848E-03     33.7106E-03
            6142            6141     38.5169E-03     39.8884E-03
            6143            6124     37.0358E-03     38.6662E-03
            6143            6125     43.7720E-03     45.5881E-03
            6143            6141     38.5169E-03     39.8884E-03
            6143            6142     45.1307E-03     46.6856E-03
            6144            6125     43.7720E-03     45.5881E-03
            6144            6126     50.9576E-03     52.9215E-03
            6144            6142     45.1307E-03     46.6856E-03
            6144            6143     52.2164E-03     53.9164E-03
            6145            6126     50.9576E-03     52.9215E-03
            6145            6127     58.5277E-03     60.5912E-03
            6145            6143     52.2164E-03     53.9164E-03
            6145            6144     59.6479E-03     61.4726E-03
            6146            6127     58.5277E-03     60.5912E-03
            6146            6128     66.4800E-03     68.6134E-03
            6146            6144     59.6479E-03     61.4726E-03
            6146            6145     67.3120E-03     69.2525E-03
            6147            6128     66.4800E-03     68.6134E-03
            6147            6129     74.8109E-03     76.9620E-03
            6147            6145     67.3120E-03     69.2525E-03
            6147            6146     75.2563E-03     77.2111E-03
            6148            6129     74.8109E-03     76.9620E-03
            6148            6130     83.7995E-03     85.7772E-03
            6148            6146     75.2563E-03     77.2111E-03
            6148            6147     83.2609E-03     85.2254E-03
            6149            6130     83.7995E-03     85.7772E-03
            6149            6131     93.0938E-03     94.9452E-03
            6149            6147     83.2609E-03     85.2254E-03
            6149            6148     91.2144E-03     93.0554E-03
            6150            6131     93.0938E-03     94.9452E-03
            6150            6132     102.284E-03     104.014E-03
            6150            6148     91.2144E-03     93.0554E-03
            6150            6149     99.0259E-03     100.476E-03
            6151            6132     102.284E-03     104.014E-03
            6151            6133     111.314E-03     112.362E-03
            6151            6149     99.0259E-03     100.476E-03
            6151            6150     106.354E-03     107.640E-03
            6152             272     109.900E-03     111.243E-03
            6152             273     115.721E-03     116.226E-03
            6152            6133     111.314E-03     112.362E-03
            6152            6150     106.354E-03     107.640E-03
            6153             708     32.8675E-03     30.4830E-03
            6153             709     31.5365E-03     29.1140E-03
            6153            6134     30.7514E-03     28.3946E-03
            6153            6151     29.7347E-03     27.4767E-03
            6154            6134     30.7514E-03     28.3946E-03
            6154            6135     26.9548E-03     24.8585E-03
            6154            6151     29.7347E-03     27.4767E-03
            6154            6152     26.7006E-03     24.8450E-03
            6155            6135     26.9548E-03     24.8585E-03
            6155            6136     24.2507E-03     22.7493E-03
            6155            6152     26.7006E-03     24.8450E-03
            6155            6153     24.8550E-03     23.6227E-03
            6156            6136     24.2507E-03     22.7493E-03
            6156            6137     23.2899E-03     22.5920E-03
            6156            6153     24.8550E-03     23.6227E-03
            6156            6154     24.4411E-03     23.9657E-03
            6157            6137     23.2899E-03     22.5920E-03
            6157            6138     24.5123E-03     24.6165E-03
            6157            6154     24.4411E-03     23.9657E-03
            6157            6155     25.8469E-03     26.0308E-03
            6158            6138     24.5123E-03     24.6165E-03
            6158            6139     27.7415E-03     28.4643E-03
            6158            6155     25.8469E-03     26.0308E-03
            6158            6156     29.1102E-03     29.7534E-03
            6159            6139     27.7415E-03     28.4643E-03
            6159            6140     32.5848E-03     33.7106E-03
            6159            6156     29.1102E-03     29.7534E-03
            6159            6157     33.8281E-03     34.7524E-03
            6160            6140     32.5848E-03     33.7106E-03
            6160            6141     38.5169E-03     39.8884E-03
            6160            6157     33.8281E-03     34.7524E-03
            6160            6158     39.5953E-03     40.7056E-03
            6161            6141     38.5169E-03     39.8884E-03
            6161            6142     45.1307E-03     46.6856E-03
            6161            6158     39.5953E-03     40.7056E-03
            6161            6159     46.0494E-03     47.3060E-03
            6162            6142     45.1307E-03     46.6856E-03
            6162            6143     52.2164E-03     53.9164E-03
            6162            6159     46.0494E-03     47.3060E-03
            6162            6160     52.9581E-03     54.3480E-03
            6163            6143     52.2164E-03     53.9164E-03
            6163            6144     59.6479E-03     61.4726E-03
            6163            6160     52.9581E-03     54.3480E-03
            6163            6161     60.1262E-03     61.6682E-03
            6164            6144     59.6479E-03     61.4726E-03
            6164            6145     67.3120E-03     69.2525E-03
            6164            6161     60.1262E-03     61.6682E-03
            6164            6162     67.4737E-03     69.1309E-03
            6165            6145     67.3120E-03     69.2525E-03
            6165            6146     75.2563E-03     77.2111E-03
            6165            6162     67.4737E-03     69.1309E-03
            6165            6163     74.7807E-03     76.5809E-03
            6166            6146     75.2563E-03     77.2111E-03
            6166            6147     83.2609E-03     85.2254E-03
            6166            6163     74.7807E-03     76.5809E-03
            6166            6164     81.9506E-03     83.7848E-03
            6167            6147     83.2609E-03     85.2254E-03
            6167            6148     91.2144E-03     93.0554E-03
            6167            6164     81.9506E-03     83.7848E-03
            6167            6165     88.8280E-03     90.5396E-03
            6168            6148     91.2144E-03     93.0554E-03
            6168            6149     99.0259E-03     100.476E-03
            6168            6165     88.8280E-03     90.5396E-03
            6168            6166     95.2527E-03     96.7935E-03
            6169            6149     99.0259E-03     100.476E-03
            6169            6150     106.354E-03     107.640E-03
            6169            6166     95.2527E-03     96.7935E-03
            6169            6167     101.617E-03     102.631E-03
            6170             271     104.832E-03     105.449E-03
            6170             272     109.900E-03     111.243E-03
            6170            6150     106.354E-03     107.640E-03
            6170            6167     101.617E-03     102.631E-03
            6171             709     31.5365E-03     29.1140E-03
            6171             710     30.3180E-03     28.0818E-03
            6171            6151     29.7347E-03     27.4767E-03
            6171            6168     29.1170E-03     27.0236E-03
            6172            6151     29.7347E-03     27.4767E-03
            6172            6152     26.7006E-03     24.8450E-03
            6172            6168     29.1170E-03     27.0236E-03
            6172            6169     26.9918E-03     25.4248E-03
            6173            6152     26.7006E-03     24.8450E-03
            6173            6153     24.8550E-03     23.6227E-03
            6173            6169     26.9918E-03     25.4248E-03
            6173            6170     25.6704E-03     24.8222E-03
            6174            6153     24.8550E-03     23.6227E-03
            6174            6154     24.4411E-03     23.9657E-03
            6174            6170     25.6704E-03     24.8222E-03
            6174            6171     25.6109E-03     25.4120E-03
            6175            6154     24.4411E-03     23.9657E-03
            6175            6155     25.8469E-03     26.0308E-03
            6175            6171     25.6109E-03     25.4120E-03
            6175            6172     27.1157E-03     27.4142E-03
            6176            6155     25.8469E-03     26.0308E-03
            6176            6156     29.1102E-03     29.7534E-03
            6176            6172     27.1157E-03     27.4142E-03
            6176            6173     30.2736E-03     30.8418E-03
            6177            6156     29.1102E-03     29.7534E-03
            6177            6157     33.8281E-03     34.7524E-03
            6177            6173     30.2736E-03     30.8418E-03
            6177            6174     34.8387E-03     35.5522E-03
            6178            6157     33.8281E-03     34.7524E-03
            6178            6158     39.5953E-03     40.7056E-03
            6178            6174     34.8387E-03     35.5522E-03
            6178            6175     40.3752E-03     41.1956E-03
            6179            6158     39.5953E-03     40.7056E-03
            6179            6159     46.0494E-03     47.3060E-03
            6179            6175     40.3752E-03     41.1956E-03
            6179            6176     46.5911E-03     47.5063E-03
            6180            6159     46.0494E-03     47.3060E-03
            6180            6160     52.9581E-03     54.3480E-03
            6180            6176     46.5911E-03     47.5063E-03
            6180            6177     53.2092E-03     54.2458E-03
            6181            6160     52.9581E-03     54.3480E-03
            6181            6161     60.1262E-03     61.6682E-03
            6181            6177     53.2092E-03     54.2458E-03
            6181            6178     60.0715E-03     61.2317E-03
            6182            6161     60.1262E-03     61.6682E-03
            6182            6162     67.4737E-03     69.1309E-03
            6182            6178     60.0715E-03     61.2317E-03
            6182            6179     66.9507E-03     68.2914E-03
            6183            6162     67.4737E-03     69.1309E-03
            6183            6163     74.7807E-03     76.5809E-03
            6183            6179     66.9507E-03     68.2914E-03
            6183            6180     73.7063E-03     75.2013E-03
            6184            6163     74.7807E-03     76.5809E-03
            6184            6164     81.9506E-03     83.7848E-03
            6184            6180     73.7063E-03     75.2013E-03
            6184            6181     80.0954E-03     81.7323E-03
            6185            6164     81.9506E-03     83.7848E-03
            6185            6165     88.8280E-03     90.5396E-03
            6185            6181     80.0954E-03     81.7323E-03
            6185            6182     85.9529E-03     87.6360E-03
            6186            6165     88.8280E-03     90.5396E-03
            6186            6166     95.2527E-03     96.7935E-03
            6186            6182     85.9529E-03     87.6360E-03
            6186            6183     91.3804E-03     92.7678E-03
            6187            6166     95.2527E-03     96.7935E-03
            6187            6167     101.617E-03     102.631E-03
            6187            6183     91.3804E-03     92.7678E-03
            6187            6184     96.4499E-03     97.5085E-03
            6188             270     98.9343E-03     99.8868E-03
            6188             271     104.832E-03     105.449E-03
            6188            6167     101.617E-03     102.631E-03
            6188            6184     96.4499E-03     97.5085E-03
            6189             710     30.3180E-03     28.0818E-03
            6189             711     29.8064E-03     27.6145E-03
            6189            6168     29.1170E-03     27.0236E-03
            6189            6185     28.9318E-03     27.1436E-03
            6190            6168     29.1170E-03     27.0236E-03
            6190            6169     26.9918E-03     25.4248E-03
            6190            6185     28.9318E-03     27.1436E-03
            6190            6186     27.5378E-03     26.4430E-03
            6191            6169     26.9918E-03     25.4248E-03
            6191            6170     25.6704E-03     24.8222E-03
            6191            6186     27.5378E-03     26.4430E-03
            6191            6187     26.7229E-03     26.3282E-03
            6192            6170     25.6704E-03     24.8222E-03
            6192            6171     25.6109E-03     25.4120E-03
            6192            6187     26.7229E-03     26.3282E-03
            6192            6188     26.7650E-03     26.9684E-03
            6193            6171     25.6109E-03     25.4120E-03
            6193            6172     27.1157E-03     27.4142E-03
            6193            6188     26.7650E-03     26.9684E-03
            6193            6189     28.3317E-03     28.7437E-03
            6194            6172     27.1157E-03     27.4142E-03
            6194            6173     30.2736E-03     30.8418E-03
            6194            6189     28.3317E-03     28.7437E-03
            6194            6190     31.4353E-03     31.8933E-03
            6195            6173     30.2736E-03     30.8418E-03
            6195            6174     34.8387E-03     35.5522E-03
            6195            6190     31.4353E-03     31.8933E-03
            6195            6191     35.7481E-03     36.2308E-03
            6196            6174     34.8387E-03     35.5522E-03
            6196            6175     40.3752E-03     41.1956E-03
            6196            6191     35.7481E-03     36.2308E-03
            6196            6192     41.0022E-03     41.4999E-03
            6197            6175     40.3752E-03     41.1956E-03
            6197            6176     46.5911E-03     47.5063E-03
            6197            6192     41.0022E-03     41.4999E-03
            6197            6193     46.8540E-03     47.4017E-03
            6198            6176     46.5911E-03     47.5063E-03
            6198            6177     53.2092E-03     54.2458E-03
            6198            6193     46.8540E-03     47.4017E-03
            6198            6194     53.1035E-03     53.7153E-03
            6199            6177     53.2092E-03     54.2458E-03
            6199            6178     60.0715E-03     61.2317E-03
            6199            6194     53.1035E-03     53.7153E-03
            6199            6195     59.5138E-03     60.2445E-03
            6200            6178     60.0715E-03     61.2317E-03
            6200            6179     66.9507E-03     68.2914E-03
            6200            6195     59.5138E-03     60.2445E-03
            6200            6196     65.9239E-03     66.7929E-03
            6201            6179     66.9507E-03     68.2914E-03
            6201            6180     73.7063E-03     75.2013E-03
            6201            6196     65.9239E-03     66.7929E-03
            6201            6197     72.0862E-03     73.1664E-03
            6202            6180     73.7063E-03     75.2013E-03
            6202            6181     80.0954E-03     81.7323E-03
            6202            6197     72.0862E-03     73.1664E-03
            6202            6198     77.7834E-03     79.0840E-03
            6203            6181     80.0954E-03     81.7323E-03
            6203            6182     85.9529E-03     87.6360E-03
            6203            6198     77.7834E-03     79.0840E-03
            6203            6199     82.7956E-03     84.2516E-03
            6204            6182     85.9529E-03     87.6360E-03
            6204            6183     91.3804E-03     92.7678E-03
            6204            6199     82.7956E-03     84.2516E-03
            6204            6200     87.0796E-03     88.5251E-03
            6205            6183     91.3804E-03     92.7678E-03
            6205            6184     96.4499E-03     97.5085E-03
            6205            6200     87.0796E-03     88.5251E-03
            6205            6201     91.1434E-03     92.0211E-03
            6206             269     93.1869E-03     93.6045E-03
            6206             270     98.9343E-03     99.8868E-03
            6206            6184     96.4499E-03     97.5085E-03
            6206            6201     91.1434E-03     92.0211E-03
            6207             711     29.8064E-03     27.6145E-03
            6207             712     29.0254E-03     27.5149E-03
            6207            6185     28.9318E-03     27.1436E-03
            6207            6202     29.0097E-03     27.6539E-03
            6208            6185     28.9318E-03     27.1436E-03
            6208            6186     27.5378E-03     26.4430E-03
            6208            6202     29.0097E-03     27.6539E-03
            6208            6203     28.3968E-03     27.9159E-03
            6209            6186     27.5378E-03     26.4430E-03
            6209            6187     26.7229E-03     26.3282E-03
            6209            6203     28.3968E-03     27.9159E-03
            6209            6204     27.5635E-03     28.0305E-03
            6210            6187     26.7229E-03     26.3282E-03
            6210            6188     26.7650E-03     26.9684E-03
            6210            6204     27.5635E-03     28.0305E-03
            6210            6205     27.9387E-03     28.5213E-03
            6211            6188     26.7650E-03     26.9684E-03
            6211            6189     28.3317E-03     28.7437E-03
            6211            6205     27.9387E-03     28.5213E-03
            6211            6206     29.7186E-03     30.1496E-03
            6212            6189     28.3317E-03     28.7437E-03
            6212            6190     31.4353E-03     31.8933E-03
            6212            6206     29.7186E-03     30.1496E-03
            6212            6207     32.7118E-03     33.0293E-03
            6213            6190     31.4353E-03     31.8933E-03
            6213            6191     35.7481E-03     36.2308E-03
            6213            6207     32.7118E-03     33.0293E-03
            6213            6208     36.7901E-03     37.0074E-03
            6214            6191     35.7481E-03     36.2308E-03
            6214            6192     41.0022E-03     41.4999E-03
            6214            6208     36.7901E-03     37.0074E-03
            6214            6209     41.6295E-03     41.8058E-03
            6215            6192     41.0022E-03     41.4999E-03
            6215            6193     46.8540E-03     47.4017E-03
            6215            6209     41.6295E-03     41.8058E-03
            6215            6210     47.0311E-03     47.1863E-03
            6216            6193     46.8540E-03     47.4017E-03
            6216            6194     53.1035E-03     53.7153E-03
            6216            6210     47.0311E-03     47.1863E-03
            6216            6211     52.7497E-03     52.9232E-03
            6217            6194     53.1035E-03     53.7153E-03
            6217            6195     59.5138E-03     60.2445E-03
            6217            6211     52.7497E-03     52.9232E-03
            6217            6212     58.6202E-03     58.8330E-03
            6218            6195     59.5138E-03     60.2445E-03
            6218            6196     65.9239E-03     66.7929E-03
            6218            6212     58.6202E-03     58.8330E-03
            6218            6213     64.4360E-03     64.7424E-03
            6219            6196     65.9239E-03     66.7929E-03
            6219            6197     72.0862E-03     73.1664E-03
            6219            6213     64.4360E-03     64.7424E-03
            6219            6214     69.9935E-03     70.4513E-03
            6220            6197     72.0862E-03     73.1664E-03
            6220            6198     77.7834E-03     79.0840E-03
            6220            6214     69.9935E-03     70.4513E-03
            6220            6215     75.0359E-03     75.7374E-03
            6221            6198     77.7834E-03     79.0840E-03
            6221            6199     82.7956E-03     84.2516E-03
            6221            6215     75.0359E-03     75.7374E-03
            6221            6216     79.2693E-03     80.2716E-03
            6222            6199     82.7956E-03     84.2516E-03
            6222            6200     87.0796E-03     88.5251E-03
            6222            6216     79.2693E-03     80.2716E-03
            6222            6217     82.5038E-03     83.6715E-03
            6223            6200     87.0796E-03     88.5251E-03
            6223            6201     91.1434E-03     92.0211E-03
            6223            6217     82.5038E-03     83.6715E-03
            6223            6218     85.2404E-03     86.2335E-03
            6224             268     86.6432E-03     87.4255E-03
            6224             269     93.1869E-03     93.6045E-03
            6224            6201     91.1434E-03     92.0211E-03
            6224            6218     85.2404E-03     86.2335E-03
            6225             712     29.0254E-03     27.5149E-03
            6225             713     29.9049E-03     28.0875E-03
            6225            6202     29.0097E-03     27.6539E-03
            6225            6219     29.3721E-03     28.9742E-03
            6226            6202     29.0097E-03     27.6539E-03
            6226            6203     28.3968E-03     27.9159E-03
            6226            6219     29.3721E-03     28.9742E-03
            6226            6220     28.3673E-03     29.6976E-03
            6227            6203     28.3968E-03     27.9159E-03
            6227            6204     27.5635E-03     28.0305E-03
            6227            6220     28.3673E-03     29.6976E-03
            6227            6221     28.3042E-03     29.5418E-03
            6228            6204     27.5635E-03     28.0305E-03
            6228            6205     27.9387E-03     28.5213E-03
            6228            6221     28.3042E-03     29.5418E-03
            6228            6222     29.4350E-03     30.1060E-03
            6229            6205     27.9387E-03     28.5213E-03
            6229            6206     29.7186E-03     30.1496E-03
            6229            6222     29.4350E-03     30.1060E-03
            6229            6223     31.4420E-03     31.7881E-03
            6230            6206     29.7186E-03     30.1496E-03
            6230            6207     32.7118E-03     33.0293E-03
            6230            6223     31.4420E-03     31.7881E-03
            6230            6224     34.4102E-03     34.5166E-03
            6231            6207     32.7118E-03     33.0293E-03
            6231            6208     36.7901E-03     37.0074E-03
            6231            6224     34.4102E-03     34.5166E-03
            6231            6225     38.1508E-03     38.1213E-03
            6232            6208     36.7901E-03     37.0074E-03
            6232            6209     41.6295E-03     41.8058E-03
            6232            6225     38.1508E-03     38.1213E-03
            6232            6226     42.5253E-03     42.3983E-03
            6233            6209     41.6295E-03     41.8058E-03
            6233            6210     47.0311E-03     47.1863E-03
            6233            6226     42.5253E-03     42.3983E-03
            6233            6227     47.3210E-03     47.1256E-03
            6234            6210     47.0311E-03     47.1863E-03
            6234            6211     52.7497E-03     52.9232E-03
            6234            6227     47.3210E-03     47.1256E-03
            6234            6228     52.3864E-03     52.1275E-03
            6235            6211     52.7497E-03     52.9232E-03
            6235            6212     58.6202E-03     58.8330E-03
            6235            6228     52.3864E-03     52.1275E-03
            6235            6229     57.5466E-03     57.2375E-03
            6236            6212     58.6202E-03     58.8330E-03
            6236            6213     64.4360E-03     64.7424E-03
            6236            6229     57.5466E-03     57.2375E-03
            6236            6230     62.6352E-03     62.2961E-03
            6237            6213     64.4360E-03     64.7424E-03
            6237            6214     69.9935E-03     70.4513E-03
            6237            6230     62.6352E-03     62.2961E-03
            6237            6231     67.4741E-03     67.1410E-03
            6238            6214     69.9935E-03     70.4513E-03
            6238            6215     75.0359E-03     75.7374E-03
            6238            6231     67.4741E-03     67.1410E-03
            6238            6232     71.8056E-03     71.5764E-03
            6239            6215     75.0359E-03     75.7374E-03
            6239            6216     79.2693E-03     80.2716E-03
            6239            6232     71.8056E-03     71.5764E-03
            6239            6233     75.3312E-03     75.3503E-03
            6240            6216     79.2693E-03     80.2716E-03
            6240            6217     82.5038E-03     83.6715E-03
            6240            6233     75.3312E-03     75.3503E-03
            6240            6234     77.6137E-03     77.9838E-03
            6241            6217     82.5038E-03     83.6715E-03
            6241            6218     85.2404E-03     86.2335E-03
            6241            6234     77.6137E-03     77.9838E-03
            6241            6235     78.7566E-03     79.0623E-03
            6242             267     79.1353E-03     79.1920E-03
            6242             268     86.6432E-03     87.4255E-03
            6242            6218     85.2404E-03     86.2335E-03
            6242            6235     78.7566E-03     79.0623E-03
            6243             713     29.9049E-03     28.0875E-03
            6243             714     26.6543E-03     30.7607E-03
            6243            6219     29.3721E-03     28.9742E-03
            6243            6236     26.9487E-03     30.7371E-03
            6244            6219     29.3721E-03     28.9742E-03
            6244            6220     28.3673E-03     29.6976E-03
            6244            6236     26.9487E-03     30.7371E-03
            6244            6237     28.1048E-03     30.5940E-03
            6245            6220     28.3673E-03     29.6976E-03
            6245            6221     28.3042E-03     29.5418E-03
            6245            6237     28.1048E-03     30.5940E-03
            6245            6238     29.7735E-03     30.8449E-03
            6246            6221     28.3042E-03     29.5418E-03
            6246            6222     29.4350E-03     30.1060E-03
            6246            6238     29.7735E-03     30.8449E-03
            6246            6239     31.5814E-03     32.0213E-03
            6247            6222     29.4350E-03     30.1060E-03
            6247            6223     31.4420E-03     31.7881E-03
            6247            6239     31.5814E-03     32.0213E-03
            6247            6240     33.8807E-03     33.9787E-03
            6248            6223     31.4420E-03     31.7881E-03
            6248            6224     34.4102E-03     34.5166E-03
            6248            6240     33.8807E-03     33.9787E-03
            6248            6241     36.7495E-03     36.6420E-03
            6249            6224     34.4102E-03     34.5166E-03
            6249            6225     38.1508E-03     38.1213E-03
            6249            6241     36.7495E-03     36.6420E-03
            6249            6242     40.1372E-03     39.9047E-03
            6250            6225     38.1508E-03     38.1213E-03
            6250            6226     42.5253E-03     42.3983E-03
            6250            6242     40.1372E-03     39.9047E-03
            6250            6243     43.9432E-03     43.5968E-03
            6251            6226     42.5253E-03     42.3983E-03
            6251            6227     47.3210E-03     47.1256E-03
            6251            6243     43.9432E-03     43.5968E-03
            6251            6244     48.0449E-03     47.5838E-03
            6252            6227     47.3210E-03     47.1256E-03
            6252            6228     52.3864E-03     52.1275E-03
            6252            6244     48.0449E-03     47.5838E-03
            6252            6245     52.3099E-03     51.7129E-03
            6253            6228     52.3864E-03     52.1275E-03
            6253            6229     57.5466E-03     57.2375E-03
            6253            6245     52.3099E-03     51.7129E-03
            6253            6246     56.6015E-03     55.8439E-03
            6254            6229     57.5466E-03     57.2375E-03
            6254            6230     62.6352E-03     62.2961E-03
            6254            6246     56.6015E-03     55.8439E-03
            6254            6247     60.7936E-03     59.8409E-03
            6255            6230     62.6352E-03     62.2961E-03
            6255            6231     67.4741E-03     67.1410E-03
            6255            6247     60.7936E-03     59.8409E-03
            6255            6248     64.7074E-03     63.5465E-03
            6256            6231     67.4741E-03     67.1410E-03
            6256            6232     71.8056E-03     71.5764E-03
            6256            6248     64.7074E-03     63.5465E-03
            6256            6249     68.1886E-03     66.7959E-03
            6257            6232     71.8056E-03     71.5764E-03
            6257            6233     75.3312E-03     75.3503E-03
            6257            6249     68.1886E-03     66.7959E-03
            6257            6250     70.9209E-03     69.3614E-03
            6258            6233     75.3312E-03     75.3503E-03
            6258            6234     77.6137E-03     77.9838E-03
            6258            6250     70.9209E-03     69.3614E-03
            6258            6251     72.4513E-03     70.9271E-03
            6259            6234     77.6137E-03     77.9838E-03
            6259            6235     78.7566E-03     79.0623E-03
            6259            6251     72.4513E-03     70.9271E-03
            6259            6252     71.9476E-03     70.3970E-03
            6260             266     71.0252E-03     69.3737E-03
            6260             267     79.1353E-03     79.1920E-03
            6260            6235     78.7566E-03     79.0623E-03
            6260            6252     71.9476E-03     70.3970E-03
            6261             714     26.6543E-03     30.7607E-03
            6261             715     29.4610E-03     33.8613E-03
            6261            6236     26.9487E-03     30.7371E-03
            6261            6253     27.9086E-03     30.5575E-03
            6262            6236     26.9487E-03     30.7371E-03
            6262            6237     28.1048E-03     30.5940E-03
            6262            6253     27.9086E-03     30.5575E-03
            6262            6254     25.7255E-03     26.1140E-03
            6263            6237     28.1048E-03     30.5940E-03
            6263            6238     29.7735E-03     30.8449E-03
            6263            6254     25.7255E-03     26.1140E-03
            6263            6255     25.1717E-03     25.0690E-03
            6264            6238     29.7735E-03     30.8449E-03
            6264            6239     31.5814E-03     32.0213E-03
            6264            6255     25.1717E-03     25.0690E-03
            6264            6256     25.5236E-03     25.4794E-03
            6265            6239     31.5814E-03     32.0213E-03
            6265            6240     33.8807E-03     33.9787E-03
            6265            6256     25.5236E-03     25.4794E-03
            6265            6257     26.6607E-03     26.7735E-03
            6266            6240     33.8807E-03     33.9787E-03
            6266            6241     36.7495E-03     36.6420E-03
            6266            6257     26.6607E-03     26.7735E-03
            6266            6258     28.5309E-03     28.8542E-03
            6267            6241     36.7495E-03     36.6420E-03
            6267            6242     40.1372E-03     39.9047E-03
            6267            6258     28.5309E-03     28.8542E-03
            6267            6259     30.8866E-03     31.3653E-03
            6268            6242     40.1372E-03     39.9047E-03
            6268            6243     43.9432E-03     43.5968E-03
            6268            6259     30.8866E-03     31.3653E-03
            6268            6260     33.6900E-03     34.2672E-03
            6269            6243     43.9432E-03     43.5968E-03
            6269            6244     48.0449E-03     47.5838E-03
            6269            6260     33.6900E-03     34.2672E-03
            6269            6261     36.7485E-03     37.3644E-03
            6270            6244     48.0449E-03     47.5838E-03
            6270            6245     52.3099E-03     51.7129E-03
            6270            6261     36.7485E-03     37.3644E-03
            6270            6262     40.0395E-03     40.6395E-03
            6271            6245     52.3099E-03     51.7129E-03
            6271            6246     56.6015E-03     55.8439E-03
            6271            6262     40.0395E-03     40.6395E-03
            6271            6263     43.4609E-03     43.9858E-03
            6272            6246     56.6015E-03     55.8439E-03
            6272            6247     60.7936E-03     59.8409E-03
            6272            6263     43.4609E-03     43.9858E-03
            6272            6264     46.9992E-03     47.4150E-03
            6273            6247     60.7936E-03     59.8409E-03
            6273            6248     64.7074E-03     63.5465E-03
            6273            6264     46.9992E-03     47.4150E-03
            6273            6265     50.6616E-03     50.8979E-03
            6274            6248     64.7074E-03     63.5465E-03
            6274            6249     68.1886E-03     66.7959E-03
            6274            6265     50.6616E-03     50.8979E-03
            6274            6266     54.4568E-03     54.5414E-03
            6275            6249     68.1886E-03     66.7959E-03
            6275            6250     70.9209E-03     69.3614E-03
            6275            6266     54.4568E-03     54.5414E-03
            6275            6267     58.6012E-03     58.5094E-03
            6276            6250     70.9209E-03     69.3614E-03
            6276            6251     72.4513E-03     70.9271E-03
            6276            6267     58.6012E-03     58.5094E-03
            6276            6268     63.1474E-03     63.1482E-03
            6277            6251     72.4513E-03     70.9271E-03
            6277            6252     71.9476E-03     70.3970E-03
            6277            6268     63.1474E-03     63.1482E-03
            6277            6269     69.7409E-03     71.1582E-03
            6278             265     73.9950E-03     76.5832E-03
            6278             266     71.0252E-03     69.3737E-03
            6278            6252     71.9476E-03     70.3970E-03
            6278            6269     69.7409E-03     71.1582E-03
            6279             715     29.4610E-03     33.8613E-03
            6279             716     32.9350E-03     31.4365E-03
            6279            6253     27.9086E-03     30.5575E-03
            6279            6270     29.9068E-03     28.3935E-03
            6280            6253     27.9086E-03     30.5575E-03
            6280            6254     25.7255E-03     26.1140E-03
            6280            6270     29.9068E-03     28.3935E-03
            6280            6271     24.1390E-03     22.8066E-03
            6281            6254     25.7255E-03     26.1140E-03
            6281            6255     25.1717E-03     25.0690E-03
            6281            6271     24.1390E-03     22.8066E-03
            6281            6272     20.5679E-03     19.6775E-03
            6282            6255     25.1717E-03     25.0690E-03
            6282            6256     25.5236E-03     25.4794E-03
            6282            6272     20.5679E-03     19.6775E-03
            6282            6273     19.3448E-03     19.0019E-03
            6283            6256     25.5236E-03     25.4794E-03
            6283            6257     26.6607E-03     26.7735E-03
            6283            6273     19.3448E-03     19.0019E-03
            6283            6274     19.2202E-03     19.4511E-03
            6284            6257     26.6607E-03     26.7735E-03
            6284            6258     28.5309E-03     28.8542E-03
            6284            6274     19.2202E-03     19.4511E-03
            6284            6275     20.0931E-03     20.8279E-03
            6285            6258     28.5309E-03     28.8542E-03
            6285            6259     30.8866E-03     31.3653E-03
            6285            6275     20.0931E-03     20.8279E-03
            6285            6276     21.5934E-03     22.7236E-03
            6286            6259     30.8866E-03     31.3653E-03
            6286            6260     33.6900E-03     34.2672E-03
            6286            6276     21.5934E-03     22.7236E-03
            6286            6277     23.5938E-03     25.0245E-03
            6287            6260     33.6900E-03     34.2672E-03
            6287            6261     36.7485E-03     37.3644E-03
            6287            6277     23.5938E-03     25.0245E-03
            6287            6278     25.9596E-03     27.5938E-03
            6288            6261     36.7485E-03     37.3644E-03
            6288            6262     40.0395E-03     40.6395E-03
            6288            6278     25.9596E-03     27.5938E-03
            6288            6279     28.6497E-03     30.4330E-03
            6289            6262     40.0395E-03     40.6395E-03
            6289            6263     43.4609E-03     43.9858E-03
            6289            6279     28.6497E-03     30.4330E-03
            6289            6280     31.6421E-03     33.5079E-03
            6290            6263     43.4609E-03     43.9858E-03
            6290            6264     46.9992E-03     47.4150E-03
            6290            6280     31.6421E-03     33.5079E-03
            6290            6281     35.0311E-03     36.9530E-03
            6291            6264     46.9992E-03     47.4150E-03
            6291            6265     50.6616E-03     50.8979E-03
            6291            6281     35.0311E-03     36.9530E-03
            6291            6282     38.8900E-03     40.8355E-03
            6292            6265     50.6616E-03     50.8979E-03
            6292            6266     54.4568E-03     54.5414E-03
            6292            6282     38.8900E-03     40.8355E-03
            6292            6283     43.6456E-03     45.6044E-03
            6293            6266     54.4568E-03     54.5414E-03
            6293            6267     58.6012E-03     58.5094E-03
            6293            6283     43.6456E-03     45.6044E-03
            6293            6284     49.4991E-03     51.5508E-03
            6294            6267     58.6012E-03     58.5094E-03
            6294            6268     63.1474E-03     63.1482E-03
            6294            6284     49.4991E-03     51.5508E-03
            6294            6285     58.2899E-03     60.3795E-03
            6295            6268     63.1474E-03     63.1482E-03
            6295            6269     69.7409E-03     71.1582E-03
            6295            6285     58.2899E-03     60.3795E-03
            6295            6286     71.9023E-03     73.5595E-03
            6296             264     79.8538E-03     81.0889E-03
            6296             265     73.9950E-03     76.5832E-03
            6296            6269     69.7409E-03     71.1582E-03
            6296            6286     71.9023E-03     73.5595E-03
            6297             716     32.9350E-03     31.4365E-03
            6297             717     26.7833E-03     25.5024E-03
            6297            6270     29.9068E-03     28.3935E-03
            6297            6287     26.2911E-03     25.0180E-03
            6298            6270     29.9068E-03     28.3935E-03
            6298            6271     24.1390E-03     22.8066E-03
            6298            6287     26.2911E-03     25.0180E-03
            6298            6288     24.4861E-03     23.3239E-03
            6299            6271     24.1390E-03     22.8066E-03
            6299            6272     20.5679E-03     19.6775E-03
            6299            6288     24.4861E-03     23.3239E-03
            6299            6289     22.2646E-03     21.4347E-03
            6300            6272     20.5679E-03     19.6775E-03
            6300            6273     19.3448E-03     19.0019E-03
            6300            6289     22.2646E-03     21.4347E-03
            6300            6290     21.2900E-03     20.9269E-03
            6301            6273     19.3448E-03     19.0019E-03
            6301            6274     19.2202E-03     19.4511E-03
            6301            6290     21.2900E-03     20.9269E-03
            6301            6291     21.4270E-03     21.5345E-03
            6302            6274     19.2202E-03     19.4511E-03
            6302            6275     20.0931E-03     20.8279E-03
            6302            6291     21.4270E-03     21.5345E-03
            6302            6292     22.2471E-03     22.7763E-03
            6303            6275     20.0931E-03     20.8279E-03
            6303            6276     21.5934E-03     22.7236E-03
            6303            6292     22.2471E-03     22.7763E-03
            6303            6293     23.7053E-03     24.5775E-03
            6304            6276     21.5934E-03     22.7236E-03
            6304            6277     23.5938E-03     25.0245E-03
            6304            6293     23.7053E-03     24.5775E-03
            6304            6294     25.6030E-03     26.7404E-03
            6305            6277     23.5938E-03     25.0245E-03
            6305            6278     25.9596E-03     27.5938E-03
            6305            6294     25.6030E-03     26.7404E-03
            6305            6295     27.9032E-03     29.2413E-03
            6306            6278     25.9596E-03     27.5938E-03
            6306            6279     28.6497E-03     30.4330E-03
            6306            6295     27.9032E-03     29.2413E-03
            6306            6296     30.5165E-03     32.0055E-03
            6307            6279     28.6497E-03     30.4330E-03
            6307            6280     31.6421E-03     33.5079E-03
            6307            6296     30.5165E-03     32.0055E-03
            6307            6297     33.4792E-03     35.0684E-03
            6308            6280     31.6421E-03     33.5079E-03
            6308            6281     35.0311E-03     36.9530E-03
            6308            6297     33.4792E-03     35.0684E-03
            6308            6298     36.7801E-03     38.4505E-03
            6309            6281     35.0311E-03     36.9530E-03
            6309            6282     38.8900E-03     40.8355E-03
            6309            6298     36.7801E-03     38.4505E-03
            6309            6299     40.6494E-03     42.3116E-03
            6310            6282     38.8900E-03     40.8355E-03
            6310            6283     43.6456E-03     45.6044E-03
            6310            6299     40.6494E-03     42.3116E-03
            6310            6300     45.2238E-03     46.8897E-03
            6311            6283     43.6456E-03     45.6044E-03
            6311            6284     49.4991E-03     51.5508E-03
            6311            6300     45.2238E-03     46.8897E-03
            6311            6301     51.1735E-03     52.5989E-03
            6312            6284     49.4991E-03     51.5508E-03
            6312            6285     58.2899E-03     60.3795E-03
            6312            6301     51.1735E-03     52.5989E-03
            6312            6302     59.7699E-03     60.5377E-03
            6313            6285     58.2899E-03     60.3795E-03
            6313            6286     71.9023E-03     73.5595E-03
            6313            6302     59.7699E-03     60.5377E-03
            6313            6303     68.9828E-03     69.0173E-03
            6314             263     73.1358E-03     72.7997E-03
            6314             264     79.8538E-03     81.0889E-03
            6314            6286     71.9023E-03     73.5595E-03
            6314            6303     68.9828E-03     69.0173E-03
            6315             717     26.7833E-03     25.5024E-03
            6315             718     23.6456E-03     22.1863E-03
            6315            6287     26.2911E-03     25.0180E-03
            6315            6304     23.3925E-03     22.0043E-03
            6316            6287     26.2911E-03     25.0180E-03
            6316            6288     24.4861E-03     23.3239E-03
            6316            6304     23.3925E-03     22.0043E-03
            6316            6305     23.1056E-03     21.9557E-03
            6317            6288     24.4861E-03     23.3239E-03
            6317            6289     22.2646E-03     21.4347E-03
            6317            6305     23.1056E-03     21.9557E-03
            6317            6306     22.8732E-03     22.0755E-03
            6318            6289     22.2646E-03     21.4347E-03
            6318            6290     21.2900E-03     20.9269E-03
            6318            6306     22.8732E-03     22.0755E-03
            6318            6307     22.6847E-03     22.2942E-03
            6319            6290     21.2900E-03     20.9269E-03
            6319            6291     21.4270E-03     21.5345E-03
            6319            6307     22.6847E-03     22.2942E-03
            6319            6308     23.0924E-03     23.1115E-03
            6320            6291     21.4270E-03     21.5345E-03
            6320            6292     22.2471E-03     22.7763E-03
            6320            6308     23.0924E-03     23.1115E-03
            6320            6309     24.0660E-03     24.4350E-03
            6321            6292     22.2471E-03     22.7763E-03
            6321            6293     23.7053E-03     24.5775E-03
            6321            6309     24.0660E-03     24.4350E-03
            6321            6310     25.4924E-03     26.1510E-03
            6322            6293     23.7053E-03     24.5775E-03
            6322            6294     25.6030E-03     26.7404E-03
            6322            6310     25.4924E-03     26.1510E-03
            6322            6311     27.3788E-03     28.2622E-03
            6323            6294     25.6030E-03     26.7404E-03
            6323            6295     27.9032E-03     29.2413E-03
            6323            6311     27.3788E-03     28.2622E-03
            6323            6312     29.6166E-03     30.6845E-03
            6324            6295     27.9032E-03     29.2413E-03
            6324            6296     30.5165E-03     32.0055E-03
            6324            6312     29.6166E-03     30.6845E-03
            6324            6313     32.2086E-03     33.4114E-03
            6325            6296     30.5165E-03     32.0055E-03
            6325            6297     33.4792E-03     35.0684E-03
            6325            6313     32.2086E-03     33.4114E-03
            6325            6314     35.0828E-03     36.4111E-03
            6326            6297     33.4792E-03     35.0684E-03
            6326            6298     36.7801E-03     38.4505E-03
            6326            6314     35.0828E-03     36.4111E-03
            6326            6315     38.3127E-03     39.6959E-03
            6327            6298     36.7801E-03     38.4505E-03
            6327            6299     40.6494E-03     42.3116E-03
            6327            6315     38.3127E-03     39.6959E-03
            6327            6316     41.9272E-03     43.3591E-03
            6328            6299     40.6494E-03     42.3116E-03
            6328            6300     45.2238E-03     46.8897E-03
            6328            6316     41.9272E-03     43.3591E-03
            6328            6317     46.1245E-03     47.4641E-03
            6329            6300     45.2238E-03     46.8897E-03
            6329            6301     51.1735E-03     52.5989E-03
            6329            6317     46.1245E-03     47.4641E-03
            6329            6318     51.4385E-03     52.4654E-03
            6330            6301     51.1735E-03     52.5989E-03
            6330            6302     59.7699E-03     60.5377E-03
            6330            6318     51.4385E-03     52.4654E-03
            6330            6319     57.2892E-03     58.1349E-03
            6331            6302     59.7699E-03     60.5377E-03
            6331            6303     68.9828E-03     69.0173E-03
            6331            6319     57.2892E-03     58.1349E-03
            6331            6320     62.9382E-03     64.0308E-03
            6332             262     65.7214E-03     67.0931E-03
            6332             263     73.1358E-03     72.7997E-03
            6332            6303     68.9828E-03     69.0173E-03
            6332            6320     62.9382E-03     64.0308E-03
            6333             718     23.6456E-03     22.1863E-03
            6333             719     21.5724E-03     20.1076E-03
            6333            6304     23.3925E-03     22.0043E-03
            6333            6321     21.7590E-03     20.3613E-03
            6334            6304     23.3925E-03     22.0043E-03
            6334            6305     23.1056E-03     21.9557E-03
            6334            6321     21.7590E-03     20.3613E-03
            6334            6322     22.1960E-03     21.0431E-03
            6335            6305     23.1056E-03     21.9557E-03
            6335            6306     22.8732E-03     22.0755E-03
            6335            6322     22.1960E-03     21.0431E-03
            6335            6323     22.8447E-03     22.0724E-03
            6336            6306     22.8732E-03     22.0755E-03
            6336            6307     22.6847E-03     22.2942E-03
            6336            6323     22.8447E-03     22.0724E-03
            6336            6324     23.5754E-03     23.1938E-03
            6337            6307     22.6847E-03     22.2942E-03
            6337            6308     23.0924E-03     23.1115E-03
            6337            6324     23.5754E-03     23.1938E-03
            6337            6325     24.3492E-03     24.3157E-03
            6338            6308     23.0924E-03     23.1115E-03
            6338            6309     24.0660E-03     24.4350E-03
            6338            6325     24.3492E-03     24.3157E-03
            6338            6326     25.4543E-03     25.7073E-03
            6339            6309     24.0660E-03     24.4350E-03
            6339            6310     25.4924E-03     26.1510E-03
            6339            6326     25.4543E-03     25.7073E-03
            6339            6327     26.9417E-03     27.4181E-03
            6340            6310     25.4924E-03     26.1510E-03
            6340            6311     27.3788E-03     28.2622E-03
            6340            6327     26.9417E-03     27.4181E-03
            6340            6328     28.7948E-03     29.4532E-03
            6341            6311     27.3788E-03     28.2622E-03
            6341            6312     29.6166E-03     30.6845E-03
            6341            6328     28.7948E-03     29.4532E-03
            6341            6329     31.0223E-03     31.8224E-03
            6342            6312     29.6166E-03     30.6845E-03
            6342            6313     32.2086E-03     33.4114E-03
            6342            6329     31.0223E-03     31.8224E-03
            6342            6330     33.5415E-03     34.4766E-03
            6343            6313     32.2086E-03     33.4114E-03
            6343            6314     35.0828E-03     36.4111E-03
            6343            6330     33.5415E-03     34.4766E-03
            6343            6331     36.3369E-03     37.3735E-03
            6344            6314     35.0828E-03     36.4111E-03
            6344            6315     38.3127E-03     39.6959E-03
            6344            6331     36.3369E-03     37.3735E-03
            6344            6332     39.3510E-03     40.4890E-03
            6345            6315     38.3127E-03     39.6959E-03
            6345            6316     41.9272E-03     43.3591E-03
            6345            6332     39.3510E-03     40.4890E-03
            6345            6333     42.5625E-03     43.7530E-03
            6346            6316     41.9272E-03     43.3591E-03
            6346            6317     46.1245E-03     47.4641E-03
            6346            6333     42.5625E-03     43.7530E-03
            6346            6334     46.1132E-03     47.2420E-03
            6347            6317     46.1245E-03     47.4641E-03
            6347            6318     51.4385E-03     52.4654E-03
            6347            6334     46.1132E-03     47.2420E-03
            6347            6335     49.7643E-03     50.8679E-03
            6348            6318     51.4385E-03     52.4654E-03
            6348            6319     57.2892E-03     58.1349E-03
            6348            6335     49.7643E-03     50.8679E-03
            6348            6336     53.4974E-03     54.5089E-03
            6349            6319     57.2892E-03     58.1349E-03
            6349            6320     62.9382E-03     64.0308E-03
            6349            6336     53.4974E-03     54.5089E-03
            6349            6337     57.6799E-03     58.2410E-03
            6350             261     59.9009E-03     60.1150E-03
            6350             262     65.7214E-03     67.0931E-03
            6350            6320     62.9382E-03     64.0308E-03
            6350            6337     57.6799E-03     58.2410E-03
            6351             719     21.5724E-03     20.1076E-03
            6351             720     20.1257E-03     18.6874E-03
            6351            6321     21.7590E-03     20.3613E-03
            6351            6338     20.6459E-03     19.3088E-03
            6352            6321     21.7590E-03     20.3613E-03
            6352            6322     22.1960E-03     21.0431E-03
            6352            6338     20.6459E-03     19.3088E-03
            6352            6339     21.8503E-03     20.7879E-03
            6353            6322     22.1960E-03     21.0431E-03
            6353            6323     22.8447E-03     22.0724E-03
            6353            6339     21.8503E-03     20.7879E-03
            6353            6340     23.0787E-03     22.3940E-03
            6354            6323     22.8447E-03     22.0724E-03
            6354            6324     23.5754E-03     23.1938E-03
            6354            6340     23.0787E-03     22.3940E-03
            6354            6341     24.1797E-03     23.8589E-03
            6355            6324     23.5754E-03     23.1938E-03
            6355            6325     24.3492E-03     24.3157E-03
            6355            6341     24.1797E-03     23.8589E-03
            6355            6342     25.2890E-03     25.2506E-03
            6356            6325     24.3492E-03     24.3157E-03
            6356            6326     25.4543E-03     25.7073E-03
            6356            6342     25.2890E-03     25.2506E-03
            6356            6343     26.5005E-03     26.6714E-03
            6357            6326     25.4543E-03     25.7073E-03
            6357            6327     26.9417E-03     27.4181E-03
            6357            6343     26.5005E-03     26.6714E-03
            6357            6344     28.0074E-03     28.3297E-03
            6358            6327     26.9417E-03     27.4181E-03
            6358            6328     28.7948E-03     29.4532E-03
            6358            6344     28.0074E-03     28.3297E-03
            6358            6345     29.8583E-03     30.2947E-03
            6359            6328     28.7948E-03     29.4532E-03
            6359            6329     31.0223E-03     31.8224E-03
            6359            6345     29.8583E-03     30.2947E-03
            6359            6346     32.0259E-03     32.5712E-03
            6360            6329     31.0223E-03     31.8224E-03
            6360            6330     33.5415E-03     34.4766E-03
            6360            6346     32.0259E-03     32.5712E-03
            6360            6347     34.4761E-03     35.1170E-03
            6361            6330     33.5415E-03     34.4766E-03
            6361            6331     36.3369E-03     37.3735E-03
            6361            6347     34.4761E-03     35.1170E-03
            6361            6348     37.1225E-03     37.8712E-03
            6362            6331     36.3369E-03     37.3735E-03
            6362            6332     39.3510E-03     40.4890E-03
            6362            6348     37.1225E-03     37.8712E-03
            6362            6349     39.8536E-03     40.7153E-03
            6363            6332     39.3510E-03     40.4890E-03
            6363            6333     42.5625E-03     43.7530E-03
            6363            6349     39.8536E-03     40.7153E-03
            6363            6350     42.6025E-03     43.5517E-03
            6364            6333     42.5625E-03     43.7530E-03
            6364            6334     46.1132E-03     47.2420E-03
            6364            6350     42.6025E-03     43.5517E-03
            6364            6351     45.1465E-03     46.2067E-03
            6365            6334     46.1132E-03     47.2420E-03
            6365            6335     49.7643E-03     50.8679E-03
            6365            6351     45.1465E-03     46.2067E-03
            6365            6352     47.4581E-03     48.5148E-03
            6366            6335     49.7643E-03     50.8679E-03
            6366            6336     53.4974E-03     54.5089E-03
            6366            6352     47.4581E-03     48.5148E-03
            6366            6353     49.7251E-03     50.5604E-03
            6367            6336     53.4974E-03     54.5089E-03
            6367            6337     57.6799E-03     58.2410E-03
            6367            6353     49.7251E-03     50.5604E-03
            6367            6354     52.2444E-03     52.9498E-03
            6368             260     53.6427E-03     54.3715E-03
            6368             261     59.9009E-03     60.1150E-03
            6368            6337     57.6799E-03     58.2410E-03
            6368            6354     52.2444E-03     52.9498E-03
            6369             720     20.1257E-03     18.6874E-03
            6369             721     19.1671E-03     17.7501E-03
            6369            6338     20.6459E-03     19.3088E-03
            6369            6355     20.1093E-03     18.8503E-03
            6370            6338     20.6459E-03     19.3088E-03
            6370            6339     21.8503E-03     20.7879E-03
            6370            6355     20.1093E-03     18.8503E-03
            6370            6356     21.9052E-03     21.0312E-03
            6371            6339     21.8503E-03     20.7879E-03
            6371            6340     23.0787E-03     22.3940E-03
            6371            6356     21.9052E-03     21.0312E-03
            6371            6357     23.5115E-03     23.0174E-03
            6372            6340     23.0787E-03     22.3940E-03
            6372            6341     24.1797E-03     23.8589E-03
            6372            6357     23.5115E-03     23.0174E-03
            6372            6358     24.8358E-03     24.6377E-03
            6373            6341     24.1797E-03     23.8589E-03
            6373            6342     25.2890E-03     25.2506E-03
            6373            6358     24.8358E-03     24.6377E-03
            6373            6359     25.9993E-03     26.0131E-03
            6374            6342     25.2890E-03     25.2506E-03
            6374            6343     26.5005E-03     26.6714E-03
            6374            6359     25.9993E-03     26.0131E-03
            6374            6360     27.2739E-03     27.3873E-03
            6375            6343     26.5005E-03     26.6714E-03
            6375            6344     28.0074E-03     28.3297E-03
            6375            6360     27.2739E-03     27.3873E-03
            6375            6361     28.7711E-03     28.9434E-03
            6376            6344     28.0074E-03     28.3297E-03
            6376            6345     29.8583E-03     30.2947E-03
            6376            6361     28.7711E-03     28.9434E-03
            6376            6362     30.5705E-03     30.7952E-03
            6377            6345     29.8583E-03     30.2947E-03
            6377            6346     32.0259E-03     32.5712E-03
            6377            6362     30.5705E-03     30.7952E-03
            6377            6363     32.6626E-03     32.9358E-03
            6378            6346     32.0259E-03     32.5712E-03
            6378            6347     34.4761E-03     35.1170E-03
            6378            6363     32.6626E-03     32.9358E-03
            6378            6364     34.9908E-03     35.3282E-03
            6379            6347     34.4761E-03     35.1170E-03
            6379            6348     37.1225E-03     37.8712E-03
            6379            6364     34.9908E-03     35.3282E-03
            6379            6365     37.4391E-03     37.8647E-03
            6380            6348     37.1225E-03     37.8712E-03
            6380            6349     39.8536E-03     40.7153E-03
            6380            6365     37.4391E-03     37.8647E-03
            6380            6366     39.8936E-03     40.4199E-03
            6381            6349     39.8536E-03     40.7153E-03
            6381            6350     42.6025E-03     43.5517E-03
            6381            6366     39.8936E-03     40.4199E-03
            6381            6367     42.0863E-03     42.7869E-03
            6382            6350     42.6025E-03     43.5517E-03
            6382            6351     45.1465E-03     46.2067E-03
            6382            6367     42.0863E-03     42.7869E-03
            6382            6368     43.8222E-03     44.6753E-03
            6383            6351     45.1465E-03     46.2067E-03
            6383            6352     47.4581E-03     48.5148E-03
            6383            6368     43.8222E-03     44.6753E-03
            6383            6369     44.9921E-03     45.9206E-03
            6384            6352     47.4581E-03     48.5148E-03
            6384            6353     49.7251E-03     50.5604E-03
            6384            6369     44.9921E-03     45.9206E-03
            6384            6370     45.7487E-03     46.6422E-03
            6385            6353     49.7251E-03     50.5604E-03
            6385            6354     52.2444E-03     52.9498E-03
            6385            6370     45.7487E-03     46.6422E-03
            6385            6371     47.0065E-03     47.5103E-03
            6386             259     47.9068E-03     48.1009E-03
            6386             260     53.6427E-03     54.3715E-03
            6386            6354     52.2444E-03     52.9498E-03
            6386            6371     47.0065E-03     47.5103E-03
            6387             721     19.1671E-03     17.7501E-03
            6387             722     18.6888E-03     17.5435E-03
            6387            6355     20.1093E-03     18.8503E-03
            6387            6372     19.9718E-03     19.0205E-03
            6388            6355     20.1093E-03     18.8503E-03
            6388            6356     21.9052E-03     21.0312E-03
            6388            6372     19.9718E-03     19.0205E-03
            6388            6373     22.3433E-03     21.7530E-03
            6389            6356     21.9052E-03     21.0312E-03
            6389            6357     23.5115E-03     23.0174E-03
            6389            6373     22.3433E-03     21.7530E-03
            6389            6374     24.1481E-03     23.9341E-03
            6390            6357     23.5115E-03     23.0174E-03
            6390            6358     24.8358E-03     24.6377E-03
            6390            6374     24.1481E-03     23.9341E-03
            6390            6375     25.4528E-03     25.4993E-03
            6391            6358     24.8358E-03     24.6377E-03
            6391            6359     25.9993E-03     26.0131E-03
            6391            6375     25.4528E-03     25.4993E-03
            6391            6376     26.6218E-03     26.7006E-03
            6392            6359     25.9993E-03     26.0131E-03
            6392            6360     27.2739E-03     27.3873E-03
            6392            6376     26.6218E-03     26.7006E-03
            6392            6377     27.8656E-03     27.9196E-03
            6393            6360     27.2739E-03     27.3873E-03
            6393            6361     28.7711E-03     28.9434E-03
            6393            6377     27.8656E-03     27.9196E-03
            6393            6378     29.3221E-03     29.3501E-03
            6394            6361     28.7711E-03     28.9434E-03
            6394            6362     30.5705E-03     30.7952E-03
            6394            6378     29.3221E-03     29.3501E-03
            6394            6379     31.0320E-03     31.0349E-03
            6395            6362     30.5705E-03     30.7952E-03
            6395            6363     32.6626E-03     32.9358E-03
            6395            6379     31.0320E-03     31.0349E-03
            6395            6380     32.9966E-03     32.9950E-03
            6396            6363     32.6626E-03     32.9358E-03
            6396            6364     34.9908E-03     35.3282E-03
            6396            6380     32.9966E-03     32.9950E-03
            6396            6381     35.1378E-03     35.1527E-03
            6397            6364     34.9908E-03     35.3282E-03
            6397            6365     37.4391E-03     37.8647E-03
            6397            6381     35.1378E-03     35.1527E-03
            6397            6382     37.3674E-03     37.4196E-03
            6398            6365     37.4391E-03     37.8647E-03
            6398            6366     39.8936E-03     40.4199E-03
            6398            6382     37.3674E-03     37.4196E-03
            6398            6383     39.4753E-03     39.6263E-03
            6399            6366     39.8936E-03     40.4199E-03
            6399            6367     42.0863E-03     42.7869E-03
            6399            6383     39.4753E-03     39.6263E-03
            6399            6384     41.2612E-03     41.5453E-03
            6400            6367     42.0863E-03     42.7869E-03
            6400            6368     43.8222E-03     44.6753E-03
            6400            6384     41.2612E-03     41.5453E-03
            6400            6385     42.3491E-03     42.8677E-03
            6401            6368     43.8222E-03     44.6753E-03
            6401            6369     44.9921E-03     45.9206E-03
            6401            6385     42.3491E-03     42.8677E-03
            6401            6386     42.4352E-03     43.2140E-03
            6402            6369     44.9921E-03     45.9206E-03
            6402            6370     45.7487E-03     46.6422E-03
            6402            6386     42.4352E-03     43.2140E-03
            6402            6387     41.8610E-03     42.6122E-03
            6403            6370     45.7487E-03     46.6422E-03
            6403            6371     47.0065E-03     47.5103E-03
            6403            6387     41.8610E-03     42.6122E-03
            6403            6388     41.5093E-03     42.0176E-03
            6404             258     41.5446E-03     41.9191E-03
            6404             259     47.9068E-03     48.1009E-03
            6404            6371     47.0065E-03     47.5103E-03
            6404            6388     41.5093E-03     42.0176E-03
            6405             722     18.6888E-03     17.5435E-03
            6405             723     18.5454E-03     17.6460E-03
            6405            6372     19.9718E-03     19.0205E-03
            6405            6389     20.3041E-03     19.6132E-03
            6406            6372     19.9718E-03     19.0205E-03
            6406            6373     22.3433E-03     21.7530E-03
            6406            6389     20.3041E-03     19.6132E-03
            6406            6390     23.0844E-03     22.9959E-03
            6407            6373     22.3433E-03     21.7530E-03
            6407            6374     24.1481E-03     23.9341E-03
            6407            6390     23.0844E-03     22.9959E-03
            6407            6391     24.7844E-03     25.1239E-03
            6408            6374     24.1481E-03     23.9341E-03
            6408            6375     25.4528E-03     25.4993E-03
            6408            6391     24.7844E-03     25.1239E-03
            6408            6392     26.0406E-03     26.3073E-03
            6409            6375     25.4528E-03     25.4993E-03
            6409            6376     26.6218E-03     26.7006E-03
            6409            6392     26.0406E-03     26.3073E-03
            6409            6393     27.1979E-03     27.3034E-03
            6410            6376     26.6218E-03     26.7006E-03
            6410            6377     27.8656E-03     27.9196E-03
            6410            6393     27.1979E-03     27.3034E-03
            6410            6394     28.4159E-03     28.3961E-03
            6411            6377     27.8656E-03     27.9196E-03
            6411            6378     29.3221E-03     29.3501E-03
            6411            6394     28.4159E-03     28.3961E-03
            6411            6395     29.7956E-03     29.6634E-03
            6412            6378     29.3221E-03     29.3501E-03
            6412            6379     31.0320E-03     31.0349E-03
            6412            6395     29.7956E-03     29.6634E-03
            6412            6396     31.3854E-03     31.1724E-03
            6413            6379     31.0320E-03     31.0349E-03
            6413            6380     32.9966E-03     32.9950E-03
            6413            6396     31.3854E-03     31.1724E-03
            6413            6397     33.1500E-03     32.8761E-03
            6414            6380     32.9966E-03     32.9950E-03
            6414            6381     35.1378E-03     35.1527E-03
            6414            6397     33.1500E-03     32.8761E-03
            6414            6398     35.0509E-03     34.7319E-03
            6415            6381     35.1378E-03     35.1527E-03
            6415            6382     37.3674E-03     37.4196E-03
            6415            6398     35.0509E-03     34.7319E-03
            6415            6399     36.9550E-03     36.6251E-03
            6416            6382     37.3674E-03     37.4196E-03
            6416            6383     39.4753E-03     39.6263E-03
            6416            6399     36.9550E-03     36.6251E-03
            6416            6400     38.7320E-03     38.4120E-03
            6417            6383     39.4753E-03     39.6263E-03
            6417            6384     41.2612E-03     41.5453E-03
            6417            6400     38.7320E-03     38.4120E-03
            6417            6401     40.0989E-03     39.8697E-03
            6418            6384     41.2612E-03     41.5453E-03
            6418            6385     42.3491E-03     42.8677E-03
            6418            6401     40.0989E-03     39.8697E-03
            6418            6402     40.7531E-03     40.6938E-03
            6419            6385     42.3491E-03     42.8677E-03
            6419            6386     42.4352E-03     43.2140E-03
            6419            6402     40.7531E-03     40.6938E-03
            6419            6403     40.1169E-03     40.4047E-03
            6420            6386     42.4352E-03     43.2140E-03
            6420            6387     41.8610E-03     42.6122E-03
            6420            6403     40.1169E-03     40.4047E-03
            6420            6404     37.9238E-03     38.5825E-03
            6421            6387     41.8610E-03     42.6122E-03
            6421            6388     41.5093E-03     42.0176E-03
            6421            6404     37.9238E-03     38.5825E-03
            6421            6405     35.8118E-03     36.1816E-03
            6422             257     35.1117E-03     35.0925E-03
            6422             258     41.5446E-03     41.9191E-03
            6422            6388     41.5093E-03     42.0176E-03
            6422            6405     35.8118E-03     36.1816E-03
            6423             723     18.5454E-03     17.6460E-03
            6423             724     19.2722E-03     19.0121E-03
            6423            6389     20.3041E-03     19.6132E-03
            6423            6406     20.9741E-03     21.3663E-03
            6424            6389     20.3041E-03     19.6132E-03
            6424            6390     23.0844E-03     22.9959E-03
            6424            6406     20.9741E-03     21.3663E-03
            6424            6407     23.6447E-03     24.6853E-03
            6425            6390     23.0844E-03     22.9959E-03
            6425            6391     24.7844E-03     25.1239E-03
            6425            6407     23.6447E-03     24.6853E-03
            6425            6408     25.3281E-03     26.0653E-03
            6426            6391     24.7844E-03     25.1239E-03
            6426            6392     26.0406E-03     26.3073E-03
            6426            6408     25.3281E-03     26.0653E-03
            6426            6409     26.6624E-03     26.9723E-03
            6427            6392     26.0406E-03     26.3073E-03
            6427            6393     27.1979E-03     27.3034E-03
            6427            6409     26.6624E-03     26.9723E-03
            6427            6410     27.8584E-03     27.9202E-03
            6428            6393     27.1979E-03     27.3034E-03
            6428            6394     28.4159E-03     28.3961E-03
            6428            6410     27.8584E-03     27.9202E-03
            6428            6411     29.0725E-03     28.9312E-03
            6429            6394     28.4159E-03     28.3961E-03
            6429            6395     29.7956E-03     29.6634E-03
            6429            6411     29.0725E-03     28.9312E-03
            6429            6412     30.3893E-03     30.0987E-03
            6430            6395     29.7956E-03     29.6634E-03
            6430            6396     31.3854E-03     31.1724E-03
            6430            6412     30.3893E-03     30.0987E-03
            6430            6413     31.8072E-03     31.3939E-03
            6431            6396     31.3854E-03     31.1724E-03
            6431            6397     33.1500E-03     32.8761E-03
            6431            6413     31.8072E-03     31.3939E-03
            6431            6414     33.3296E-03     32.8061E-03
            6432            6397     33.1500E-03     32.8761E-03
            6432            6398     35.0509E-03     34.7319E-03
            6432            6414     33.3296E-03     32.8061E-03
            6432            6415     34.8805E-03     34.2621E-03
            6433            6398     35.0509E-03     34.7319E-03
            6433            6399     36.9550E-03     36.6251E-03
            6433            6415     34.8805E-03     34.2621E-03
            6433            6416     36.3897E-03     35.6767E-03
            6434            6399     36.9550E-03     36.6251E-03
            6434            6400     38.7320E-03     38.4120E-03
            6434            6416     36.3897E-03     35.6767E-03
            6434            6417     37.7027E-03     36.9148E-03
            6435            6400     38.7320E-03     38.4120E-03
            6435            6401     40.0989E-03     39.8697E-03
            6435            6417     37.7027E-03     36.9148E-03
            6435            6418     38.6317E-03     37.7924E-03
            6436            6401     40.0989E-03     39.8697E-03
            6436            6402     40.7531E-03     40.6938E-03
            6436            6418     38.6317E-03     37.7924E-03
            6436            6419     38.8446E-03     38.0149E-03
            6437            6402     40.7531E-03     40.6938E-03
            6437            6403     40.1169E-03     40.4047E-03
            6437            6419     38.8446E-03     38.0149E-03
            6437            6420     37.8904E-03     37.2159E-03
            6438            6403     40.1169E-03     40.4047E-03
            6438            6404     37.9238E-03     38.5825E-03
            6438            6420     37.8904E-03     37.2159E-03
            6438            6421     34.6261E-03     34.4636E-03
            6439            6404     37.9238E-03     38.5825E-03
            6439            6405     35.8118E-03     36.1816E-03
            6439            6421     34.6261E-03     34.4636E-03
            6439            6422     29.7205E-03     30.0249E-03
            6440             256     27.2702E-03     27.6446E-03
            6440             257     35.1117E-03     35.0925E-03
            6440            6405     35.8118E-03     36.1816E-03
            6440            6422     29.7205E-03     30.0249E-03
            6441             724     19.2722E-03     19.0121E-03
            6441             725     19.4456E-03     21.5881E-03
            6441            6406     20.9741E-03     21.3663E-03
            6441            6423     21.2852E-03     23.3005E-03
            6442            6406     20.9741E-03     21.3663E-03
            6442            6407     23.6447E-03     24.6853E-03
            6442            6423     21.2852E-03     23.3005E-03
            6442            6424     24.1213E-03     25.4594E-03
            6443            6407     23.6447E-03     24.6853E-03
            6443            6408     25.3281E-03     26.0653E-03
            6443            6424     24.1213E-03     25.4594E-03
            6443            6425     25.9840E-03     26.5128E-03
            6444            6408     25.3281E-03     26.0653E-03
            6444            6409     26.6624E-03     26.9723E-03
            6444            6425     25.9840E-03     26.5128E-03
            6444            6426     27.4906E-03     27.6423E-03
            6445            6409     26.6624E-03     26.9723E-03
            6445            6410     27.8584E-03     27.9202E-03
            6445            6426     27.4906E-03     27.6423E-03
            6445            6427     28.7930E-03     28.6989E-03
            6446            6410     27.8584E-03     27.9202E-03
            6446            6411     29.0725E-03     28.9312E-03
            6446            6427     28.7930E-03     28.6989E-03
            6446            6428     30.0593E-03     29.7740E-03
            6447            6411     29.0725E-03     28.9312E-03
            6447            6412     30.3893E-03     30.0987E-03
            6447            6428     30.0593E-03     29.7740E-03
            6447            6429     31.2956E-03     30.8640E-03
            6448            6412     30.3893E-03     30.0987E-03
            6448            6413     31.8072E-03     31.3939E-03
            6448            6429     31.2956E-03     30.8640E-03
            6448            6430     32.5439E-03     31.9666E-03
            6449            6413     31.8072E-03     31.3939E-03
            6449            6414     33.3296E-03     32.8061E-03
            6449            6430     32.5439E-03     31.9666E-03
            6449            6431     33.7566E-03     33.0472E-03
            6450            6414     33.3296E-03     32.8061E-03
            6450            6415     34.8805E-03     34.2621E-03
            6450            6431     33.7566E-03     33.0472E-03
            6450            6432     34.9049E-03     34.0471E-03
            6451            6415     34.8805E-03     34.2621E-03
            6451            6416     36.3897E-03     35.6767E-03
            6451            6432     34.9049E-03     34.0471E-03
            6451            6433     35.8965E-03     34.8879E-03
            6452            6416     36.3897E-03     35.6767E-03
            6452            6417     37.7027E-03     36.9148E-03
            6452            6433     35.8965E-03     34.8879E-03
            6452            6434     36.6246E-03     35.4377E-03
            6453            6417     37.7027E-03     36.9148E-03
            6453            6418     38.6317E-03     37.7924E-03
            6453            6434     36.6246E-03     35.4377E-03
            6453            6435     36.9346E-03     35.5430E-03
            6454            6418     38.6317E-03     37.7924E-03
            6454            6419     38.8446E-03     38.0149E-03
            6454            6435     36.9346E-03     35.5430E-03
            6454            6436     36.5658E-03     34.9474E-03
            6455            6419     38.8446E-03     38.0149E-03
            6455            6420     37.8904E-03     37.2159E-03
            6455            6436     36.5658E-03     34.9474E-03
            6455            6437     35.1658E-03     33.2782E-03
            6456            6420     37.8904E-03     37.2159E-03
            6456            6421     34.6261E-03     34.4636E-03
            6456            6437     35.1658E-03     33.2782E-03
            6456            6438     31.8738E-03     29.8237E-03
            6457            6421     34.6261E-03     34.4636E-03
            6457            6422     29.7205E-03     30.0249E-03
            6457            6438     31.8738E-03     29.8237E-03
            6457            6439     24.5442E-03     22.7663E-03
            6458             255     19.4967E-03     18.0134E-03
            6458             256     27.2702E-03     27.6446E-03
            6458            6422     29.7205E-03     30.0249E-03
            6458            6439     24.5442E-03     22.7663E-03
            6459             725     19.4456E-03     21.5881E-03
            6459             726     20.8097E-03     21.5827E-03
            6459            6423     21.2852E-03     23.3005E-03
            6459            6440     21.8140E-03     22.4127E-03
            6460            6423     21.2852E-03     23.3005E-03
            6460            6424     24.1213E-03     25.4594E-03
            6460            6440     21.8140E-03     22.4127E-03
            6460            6441     23.2011E-03     23.4034E-03
            6461            6424     24.1213E-03     25.4594E-03
            6461            6425     25.9840E-03     26.5128E-03
            6461            6441     23.2011E-03     23.4034E-03
            6461            6442     24.2432E-03     24.2522E-03
            6462            6425     25.9840E-03     26.5128E-03
            6462            6426     27.4906E-03     27.6423E-03
            6462            6442     24.2432E-03     24.2522E-03
            6462            6443     25.2530E-03     25.2528E-03
            6463            6426     27.4906E-03     27.6423E-03
            6463            6427     28.7930E-03     28.6989E-03
            6463            6443     25.2530E-03     25.2528E-03
            6463            6444     25.9422E-03     25.9138E-03
            6464            6427     28.7930E-03     28.6989E-03
            6464            6428     30.0593E-03     29.7740E-03
            6464            6444     25.9422E-03     25.9138E-03
            6464            6445     26.5846E-03     26.5468E-03
            6465            6428     30.0593E-03     29.7740E-03
            6465            6429     31.2956E-03     30.8640E-03
            6465            6445     26.5846E-03     26.5468E-03
            6465            6446     27.1792E-03     27.1358E-03
            6466            6429     31.2956E-03     30.8640E-03
            6466            6430     32.5439E-03     31.9666E-03
            6466            6446     27.1792E-03     27.1358E-03
            6466            6447     27.7665E-03     27.7199E-03
            6467            6430     32.5439E-03     31.9666E-03
            6467            6431     33.7566E-03     33.0472E-03
            6467            6447     27.7665E-03     27.7199E-03
            6467            6448     28.3347E-03     28.2824E-03
            6468            6431     33.7566E-03     33.0472E-03
            6468            6432     34.9049E-03     34.0471E-03
            6468            6448     28.3347E-03     28.2824E-03
            6468            6449     28.8668E-03     28.7976E-03
            6469            6432     34.9049E-03     34.0471E-03
            6469            6433     35.8965E-03     34.8879E-03
            6469            6449     28.8668E-03     28.7976E-03
            6469            6450     29.3118E-03     29.2161E-03
            6470            6433     35.8965E-03     34.8879E-03
            6470            6434     36.6246E-03     35.4377E-03
            6470            6450     29.3118E-03     29.2161E-03
            6470            6451     29.6346E-03     29.4813E-03
            6471            6434     36.6246E-03     35.4377E-03
            6471            6435     36.9346E-03     35.5430E-03
            6471            6451     29.6346E-03     29.4813E-03
            6471            6452     29.6833E-03     29.4603E-03
            6472            6435     36.9346E-03     35.5430E-03
            6472            6436     36.5658E-03     34.9474E-03
            6472            6452     29.6833E-03     29.4603E-03
            6472            6453     29.3966E-03     29.0453E-03
            6473            6436     36.5658E-03     34.9474E-03
            6473            6437     35.1658E-03     33.2782E-03
            6473            6453     29.3966E-03     29.0453E-03
            6473            6454     28.3171E-03     27.8657E-03
            6474            6437     35.1658E-03     33.2782E-03
            6474            6438     31.8738E-03     29.8237E-03
            6474            6454     28.3171E-03     27.8657E-03
            6474            6455     26.9304E-03     26.2015E-03
            6475            6438     31.8738E-03     29.8237E-03
            6475            6439     24.5442E-03     22.7663E-03
            6475            6455     26.9304E-03     26.2015E-03
            6475            6456     24.8039E-03     24.5403E-03
            6476             254     23.1818E-03     23.6788E-03
            6476             255     19.4967E-03     18.0134E-03
            6476            6439     24.5442E-03     22.7663E-03
            6476            6456     24.8039E-03     24.5403E-03
            6477             726     20.8097E-03     21.5827E-03
            6477             727     19.7527E-03     18.8337E-03
            6477            6440     21.8140E-03     22.4127E-03
            6477            6457     21.0668E-03     20.3485E-03
            6478            6440     21.8140E-03     22.4127E-03
            6478            6441     23.2011E-03     23.4034E-03
            6478            6457     21.0668E-03     20.3485E-03
            6478            6458     22.3954E-03     21.9838E-03
            6479            6441     23.2011E-03     23.4034E-03
            6479            6442     24.2432E-03     24.2522E-03
            6479            6458     22.3954E-03     21.9838E-03
            6479            6459     22.6902E-03     22.4991E-03
            6480            6442     24.2432E-03     24.2522E-03
            6480            6443     25.2530E-03     25.2528E-03
            6480            6459     22.6902E-03     22.4991E-03
            6480            6460     22.9044E-03     22.8979E-03
            6481            6443     25.2530E-03     25.2528E-03
            6481            6444     25.9422E-03     25.9138E-03
            6481            6460     22.9044E-03     22.8979E-03
            6481            6461     22.8282E-03     22.9341E-03
            6482            6444     25.9422E-03     25.9138E-03
            6482            6445     26.5846E-03     26.5468E-03
            6482            6461     22.8282E-03     22.9341E-03
            6482            6462     22.7876E-03     22.9991E-03
            6483            6445     26.5846E-03     26.5468E-03
            6483            6446     27.1792E-03     27.1358E-03
            6483            6462     22.7876E-03     22.9991E-03
            6483            6463     22.7718E-03     23.0804E-03
            6484            6446     27.1792E-03     27.1358E-03
            6484            6447     27.7665E-03     27.7199E-03
            6484            6463     22.7718E-03     23.0804E-03
            6484            6464     22.8066E-03     23.2248E-03
            6485            6447     27.7665E-03     27.7199E-03
            6485            6448     28.3347E-03     28.2824E-03
            6485            6464     22.8066E-03     23.2248E-03
            6485            6465     22.9011E-03     23.4130E-03
            6486            6448     28.3347E-03     28.2824E-03
            6486            6449     28.8668E-03     28.7976E-03
            6486            6465     22.9011E-03     23.4130E-03
            6486            6466     23.0435E-03     23.6641E-03
            6487            6449     28.8668E-03     28.7976E-03
            6487            6450     29.3118E-03     29.2161E-03
            6487            6466     23.0435E-03     23.6641E-03
            6487            6467     23.2502E-03     23.9559E-03
            6488            6450     29.3118E-03     29.2161E-03
            6488            6451     29.6346E-03     29.4813E-03
            6488            6467     23.2502E-03     23.9559E-03
            6488            6468     23.5085E-03     24.3105E-03
            6489            6451     29.6346E-03     29.4813E-03
            6489            6452     29.6833E-03     29.4603E-03
            6489            6468     23.5085E-03     24.3105E-03
            6489            6469     23.7761E-03     24.6641E-03
            6490            6452     29.6833E-03     29.4603E-03
            6490            6453     29.3966E-03     29.0453E-03
            6490            6469     23.7761E-03     24.6641E-03
            6490            6470     24.0765E-03     25.0578E-03
            6491            6453     29.3966E-03     29.0453E-03
            6491            6454     28.3171E-03     27.8657E-03
            6491            6470     24.0765E-03     25.0578E-03
            6491            6471     23.8931E-03     25.0996E-03
            6492            6454     28.3171E-03     27.8657E-03
            6492            6455     26.9304E-03     26.2015E-03
            6492            6471     23.8931E-03     25.0996E-03
            6492            6472     24.2849E-03     25.4237E-03
            6493            6455     26.9304E-03     26.2015E-03
            6493            6456     24.8039E-03     24.5403E-03
            6493            6472     24.2849E-03     25.4237E-03
            6493            6473     25.8064E-03     27.1208E-03
            6494             253     26.6004E-03     28.2741E-03
            6494             254     23.1818E-03     23.6788E-03
            6494            6456     24.8039E-03     24.5403E-03
            6494            6473     25.8064E-03     27.1208E-03
            6495             727     19.7527E-03     18.8337E-03
            6495             728     16.2120E-03     14.9444E-03
            6495            6457     21.0668E-03     20.3485E-03
            6495            6474     19.0599E-03     18.1164E-03
            6496            6457     21.0668E-03     20.3485E-03
            6496            6458     22.3954E-03     21.9838E-03
            6496            6474     19.0599E-03     18.1164E-03
            6496            6475     22.7854E-03     22.4715E-03
            6497            6458     22.3954E-03     21.9838E-03
            6497            6459     22.6902E-03     22.4991E-03
            6497            6475     22.7854E-03     22.4715E-03
            6497            6476     23.6052E-03     23.6000E-03
            6498            6459     22.6902E-03     22.4991E-03
            6498            6460     22.9044E-03     22.8979E-03
            6498            6476     23.6052E-03     23.6000E-03
            6498            6477     23.5137E-03     23.5185E-03
            6499            6460     22.9044E-03     22.8979E-03
            6499            6461     22.8282E-03     22.9341E-03
            6499            6477     23.5137E-03     23.5185E-03
            6499            6478     23.3977E-03     23.4329E-03
            6500            6461     22.8282E-03     22.9341E-03
            6500            6462     22.7876E-03     22.9991E-03
            6500            6478     23.3977E-03     23.4329E-03
            6500            6479     23.3064E-03     23.3809E-03
            6501            6462     22.7876E-03     22.9991E-03
            6501            6463     22.7718E-03     23.0804E-03
            6501            6479     23.3064E-03     23.3809E-03
            6501            6480     23.3108E-03     23.4248E-03
            6502            6463     22.7718E-03     23.0804E-03
            6502            6464     22.8066E-03     23.2248E-03
            6502            6480     23.3108E-03     23.4248E-03
            6502            6481     23.3748E-03     23.5240E-03
            6503            6464     22.8066E-03     23.2248E-03
            6503            6465     22.9011E-03     23.4130E-03
            6503            6481     23.3748E-03     23.5240E-03
            6503            6482     23.4911E-03     23.6810E-03
            6504            6465     22.9011E-03     23.4130E-03
            6504            6466     23.0435E-03     23.6641E-03
            6504            6482     23.4911E-03     23.6810E-03
            6504            6483     23.6568E-03     23.8795E-03
            6505            6466     23.0435E-03     23.6641E-03
            6505            6467     23.2502E-03     23.9559E-03
            6505            6483     23.6568E-03     23.8795E-03
            6505            6484     23.8816E-03     24.1431E-03
            6506            6467     23.2502E-03     23.9559E-03
            6506            6468     23.5085E-03     24.3105E-03
            6506            6484     23.8816E-03     24.1431E-03
            6506            6485     24.1807E-03     24.4761E-03
            6507            6468     23.5085E-03     24.3105E-03
            6507            6469     23.7761E-03     24.6641E-03
            6507            6485     24.1807E-03     24.4761E-03
            6507            6486     24.6062E-03     24.9295E-03
            6508            6469     23.7761E-03     24.6641E-03
            6508            6470     24.0765E-03     25.0578E-03
            6508            6486     24.6062E-03     24.9295E-03
            6508            6487     25.0805E-03     25.4368E-03
            6509            6470     24.0765E-03     25.0578E-03
            6509            6471     23.8931E-03     25.0996E-03
            6509            6487     25.0805E-03     25.4368E-03
            6509            6488     25.4939E-03     25.8499E-03
            6510            6471     23.8931E-03     25.0996E-03
            6510            6472     24.2849E-03     25.4237E-03
            6510            6488     25.4939E-03     25.8499E-03
            6510            6489     24.4152E-03     25.1489E-03
            6511            6472     24.2849E-03     25.4237E-03
            6511            6473     25.8064E-03     27.1208E-03
            6511            6489     24.4152E-03     25.1489E-03
            6511            6490     20.5644E-03     20.9591E-03
            6512             252     17.9822E-03     17.6566E-03
            6512             253     26.6004E-03     28.2741E-03
            6512            6473     25.8064E-03     27.1208E-03
            6512            6490     20.5644E-03     20.9591E-03
            6513             728     16.2120E-03     14.9444E-03
            6513             729     15.5764E-03     14.2644E-03
            6513            6474     19.0599E-03     18.1164E-03
            6513            6491     18.4970E-03     17.6861E-03
            6514            6474     19.0599E-03     18.1164E-03
            6514            6475     22.7854E-03     22.4715E-03
            6514            6491     18.4970E-03     17.6861E-03
            6514            6492     22.5235E-03     22.4603E-03
            6515            6475     22.7854E-03     22.4715E-03
            6515            6476     23.6052E-03     23.6000E-03
            6515            6492     22.5235E-03     22.4603E-03
            6515            6493     23.7246E-03     23.8311E-03
            6516            6476     23.6052E-03     23.6000E-03
            6516            6477     23.5137E-03     23.5185E-03
            6516            6493     23.7246E-03     23.8311E-03
            6516            6494     23.8108E-03     23.8229E-03
            6517            6477     23.5137E-03     23.5185E-03
            6517            6478     23.3977E-03     23.4329E-03
            6517            6494     23.8108E-03     23.8229E-03
            6517            6495     23.7867E-03     23.7660E-03
            6518            6478     23.3977E-03     23.4329E-03
            6518            6479     23.3064E-03     23.3809E-03
            6518            6495     23.7867E-03     23.7660E-03
            6518            6496     23.7833E-03     23.7319E-03
            6519            6479     23.3064E-03     23.3809E-03
            6519            6480     23.3108E-03     23.4248E-03
            6519            6496     23.7833E-03     23.7319E-03
            6519            6497     23.8395E-03     23.7641E-03
            6520            6480     23.3108E-03     23.4248E-03
            6520            6481     23.3748E-03     23.5240E-03
            6520            6497     23.8395E-03     23.7641E-03
            6520            6498     23.9481E-03     23.8438E-03
            6521            6481     23.3748E-03     23.5240E-03
            6521            6482     23.4911E-03     23.6810E-03
            6521            6498     23.9481E-03     23.8438E-03
            6521            6499     24.0854E-03     23.9567E-03
            6522            6482     23.4911E-03     23.6810E-03
            6522            6483     23.6568E-03     23.8795E-03
            6522            6499     24.0854E-03     23.9567E-03
            6522            6500     24.2627E-03     24.1054E-03
            6523            6483     23.6568E-03     23.8795E-03
            6523            6484     23.8816E-03     24.1431E-03
            6523            6500     24.2627E-03     24.1054E-03
            6523            6501     24.4743E-03     24.2927E-03
            6524            6484     23.8816E-03     24.1431E-03
            6524            6485     24.1807E-03     24.4761E-03
            6524            6501     24.4743E-03     24.2927E-03
            6524            6502     24.7538E-03     24.5435E-03
            6525            6485     24.1807E-03     24.4761E-03
            6525            6486     24.6062E-03     24.9295E-03
            6525            6502     24.7538E-03     24.5435E-03
            6525            6503     25.1241E-03     24.8943E-03
            6526            6486     24.6062E-03     24.9295E-03
            6526            6487     25.0805E-03     25.4368E-03
            6526            6503     25.1241E-03     24.8943E-03
            6526            6504     25.5192E-03     25.2251E-03
            6527            6487     25.0805E-03     25.4368E-03
            6527            6488     25.4939E-03     25.8499E-03
            6527            6504     25.5192E-03     25.2251E-03
            6527            6505     25.7797E-03     25.4203E-03
            6528            6488     25.4939E-03     25.8499E-03
            6528            6489     24.4152E-03     25.1489E-03
            6528            6505     25.7797E-03     25.4203E-03
            6528            6506     23.2969E-03     23.5294E-03
            6529            6489     24.4152E-03     25.1489E-03
            6529            6490     20.5644E-03     20.9591E-03
            6529            6506     23.2969E-03     23.5294E-03
            6529            6507     15.3057E-03     16.3526E-03
            6530             251     9.86053E-03     11.1392E-03
            6530             252     17.9822E-03     17.6566E-03
            6530            6490     20.5644E-03     20.9591E-03
            6530            6507     15.3057E-03     16.3526E-03
            6531             729     15.5764E-03     14.2644E-03
            6531             730     16.8846E-03     16.7485E-03
            6531            6491     18.4970E-03     17.6861E-03
            6531            6508     19.1367E-03     19.1828E-03
            6532            6491     18.4970E-03     17.6861E-03
            6532            6492     22.5235E-03     22.4603E-03
            6532            6508     19.1367E-03     19.1828E-03
            6532            6509     22.0189E-03     22.1834E-03
            6533            6492     22.5235E-03     22.4603E-03
            6533            6493     23.7246E-03     23.8311E-03
            6533            6509     22.0189E-03     22.1834E-03
            6533            6510     23.1810E-03     23.2543E-03
            6534            6493     23.7246E-03     23.8311E-03
            6534            6494     23.8108E-03     23.8229E-03
            6534            6510     23.1810E-03     23.2543E-03
            6534            6511     23.8407E-03     23.8533E-03
            6535            6494     23.8108E-03     23.8229E-03
            6535            6495     23.7867E-03     23.7660E-03
            6535            6511     23.8407E-03     23.8533E-03
            6535            6512     24.0707E-03     23.9940E-03
            6536            6495     23.7867E-03     23.7660E-03
            6536            6496     23.7833E-03     23.7319E-03
            6536            6512     24.0707E-03     23.9940E-03
            6536            6513     24.2461E-03     24.0796E-03
            6537            6496     23.7833E-03     23.7319E-03
            6537            6497     23.8395E-03     23.7641E-03
            6537            6513     24.2461E-03     24.0796E-03
            6537            6514     24.3977E-03     24.1366E-03
            6538            6497     23.8395E-03     23.7641E-03
            6538            6498     23.9481E-03     23.8438E-03
            6538            6514     24.3977E-03     24.1366E-03
            6538            6515     24.5470E-03     24.2029E-03
            6539            6498     23.9481E-03     23.8438E-03
            6539            6499     24.0854E-03     23.9567E-03
            6539            6515     24.5470E-03     24.2029E-03
            6539            6516     24.7165E-03     24.2778E-03
            6540            6499     24.0854E-03     23.9567E-03
            6540            6500     24.2627E-03     24.1054E-03
            6540            6516     24.7165E-03     24.2778E-03
            6540            6517     24.8863E-03     24.3678E-03
            6541            6500     24.2627E-03     24.1054E-03
            6541            6501     24.4743E-03     24.2927E-03
            6541            6517     24.8863E-03     24.3678E-03
            6541            6518     25.0742E-03     24.4623E-03
            6542            6501     24.4743E-03     24.2927E-03
            6542            6502     24.7538E-03     24.5435E-03
            6542            6518     25.0742E-03     24.4623E-03
            6542            6519     25.2542E-03     24.5535E-03
            6543            6502     24.7538E-03     24.5435E-03
            6543            6503     25.1241E-03     24.8943E-03
            6543            6519     25.2542E-03     24.5535E-03
            6543            6520     25.3712E-03     24.5876E-03
            6544            6503     25.1241E-03     24.8943E-03
            6544            6504     25.5192E-03     25.2251E-03
            6544            6520     25.3712E-03     24.5876E-03
            6544            6521     25.3544E-03     24.4566E-03
            6545            6504     25.5192E-03     25.2251E-03
            6545            6505     25.7797E-03     25.4203E-03
            6545            6521     25.3544E-03     24.4566E-03
            6545            6522     24.4318E-03     23.5368E-03
            6546            6505     25.7797E-03     25.4203E-03
            6546            6506     23.2969E-03     23.5294E-03
            6546            6522     24.4318E-03     23.5368E-03
            6546            6523     22.0904E-03     21.0504E-03
            6547            6506     23.2969E-03     23.5294E-03
            6547            6507     15.3057E-03     16.3526E-03
            6547            6523     22.0904E-03     21.0504E-03
            6547            6524     14.8025E-03     15.2429E-03
            6548             250     9.00458E-03     11.1066E-03
            6548             251     9.86053E-03     11.1392E-03
            6548            6507     15.3057E-03     16.3526E-03
            6548            6524     14.8025E-03     15.2429E-03
            6549              26     9.30075E-03     9.10463E-03
            6549             730     16.8846E-03     16.7485E-03
            6549             748     10.0090E-03     10.0000E-03
            6549            6508     19.1367E-03     19.1828E-03
            6550             748     10.0090E-03     10.0000E-03
            6550             749     11.0247E-03     11.1200E-03
            6550            6508     19.1367E-03     19.1828E-03
            6550            6509     22.0189E-03     22.1834E-03
            6551             749     11.0247E-03     11.1200E-03
            6551             750     11.6286E-03     11.6580E-03
            6551            6509     22.0189E-03     22.1834E-03
            6551            6510     23.1810E-03     23.2543E-03
            6552             750     11.6286E-03     11.6580E-03
            6552             751     12.0864E-03     12.1050E-03
            6552            6510     23.1810E-03     23.2543E-03
            6552            6511     23.8407E-03     23.8533E-03
            6553             751     12.0864E-03     12.1050E-03
            6553             752     12.3053E-03     12.2714E-03
            6553            6511     23.8407E-03     23.8533E-03
            6553            6512     24.0707E-03     23.9940E-03
            6554             752     12.3053E-03     12.2714E-03
            6554             753     12.4340E-03     12.3410E-03
            6554            6512     24.0707E-03     23.9940E-03
            6554            6513     24.2461E-03     24.0796E-03
            6555             753     12.4340E-03     12.3410E-03
            6555             754     12.5399E-03     12.3916E-03
            6555            6513     24.2461E-03     24.0796E-03
            6555            6514     24.3977E-03     24.1366E-03
            6556             754     12.5399E-03     12.3916E-03
            6556             755     12.6300E-03     12.4204E-03
            6556            6514     24.3977E-03     24.1366E-03
            6556            6515     24.5470E-03     24.2029E-03
            6557             755     12.6300E-03     12.4204E-03
            6557             756     12.7235E-03     12.4623E-03
            6557            6515     24.5470E-03     24.2029E-03
            6557            6516     24.7165E-03     24.2778E-03
            6558             756     12.7235E-03     12.4623E-03
            6558             757     12.8157E-03     12.4911E-03
            6558            6516     24.7165E-03     24.2778E-03
            6558            6517     24.8863E-03     24.3678E-03
            6559             757     12.8157E-03     12.4911E-03
            6559             758     12.9050E-03     12.5315E-03
            6559            6517     24.8863E-03     24.3678E-03
            6559            6518     25.0742E-03     24.4623E-03
            6560             758     12.9050E-03     12.5315E-03
            6560             759     12.9677E-03     12.5267E-03
            6560            6518     25.0742E-03     24.4623E-03
            6560            6519     25.2542E-03     24.5535E-03
            6561             759     12.9677E-03     12.5267E-03
            6561             760     12.9687E-03     12.4705E-03
            6561            6519     25.2542E-03     24.5535E-03
            6561            6520     25.3712E-03     24.5876E-03
            6562             760     12.9687E-03     12.4705E-03
            6562             761     12.7797E-03     12.2397E-03
            6562            6520     25.3712E-03     24.5876E-03
            6562            6521     25.3544E-03     24.4566E-03
            6563             761     12.7797E-03     12.2397E-03
            6563             762     12.0249E-03     11.4568E-03
            6563            6521     25.3544E-03     24.4566E-03
            6563            6522     24.4318E-03     23.5368E-03
            6564             762     12.0249E-03     11.4568E-03
            6564             763     10.8704E-03     10.1217E-03
            6564            6522     24.4318E-03     23.5368E-03
            6564            6523     22.0904E-03     21.0504E-03
            6565             763     10.8704E-03     10.1217E-03
            6565             764     8.17452E-03     8.38262E-03
            6565            6523     22.0904E-03     21.0504E-03
            6565            6524     14.8025E-03     15.2429E-03
            6566              15     6.04083E-03     7.41387E-03
            6566             250     9.00458E-03     11.1066E-03
            6566             764     8.17452E-03     8.38262E-03
            6566            6524     14.8025E-03     15.2429E-03


  Minimum                            89.9879E-06     206.395E-06
      At Element                            2325            5156
            Node                              40             768

  Maximum                            188.239E-03     190.967E-03
      At Element                            3428            3428
            Node                             182             182

           Total                         416.002         425.073


Field Output reported at element nodes for region: A320-1.Region_2
   Computation algorithm: EXTRAPOLATE_COMPUTE_AVERAGE
   Averaged at nodes
   Averaging regions: ODB_REGIONS

   Element Label      Node Label         S.Mises         S.Mises
                                          @Loc 1          @Loc 2
-----------------------------------------------------------------
            1785              17     12.4317E-03     12.4658E-03
            1785             424     13.8993E-03     13.9660E-03
            1785             488     22.1614E-03     22.3965E-03
            1785            2369     26.1601E-03     26.3387E-03
            1786             424     13.8993E-03     13.9660E-03
            1786             425     15.8817E-03     15.9003E-03
            1786            2369     26.1601E-03     26.3387E-03
            1786            2370     31.4435E-03     31.4298E-03
            1787             425     15.8817E-03     15.9003E-03
            1787             426     16.9598E-03     16.9059E-03
            1787            2370     31.4435E-03     31.4298E-03
            1787            2371     33.6635E-03     33.4937E-03
            1788             426     16.9598E-03     16.9059E-03
            1788             427     17.6231E-03     17.5688E-03
            1788            2371     33.6635E-03     33.4937E-03
            1788            2372     34.7691E-03     34.5430E-03
            1789             427     17.6231E-03     17.5688E-03
            1789             428     17.6704E-03     17.5765E-03
            1789            2372     34.7691E-03     34.5430E-03
            1789            2373     34.8306E-03     34.5434E-03
            1790             428     17.6704E-03     17.5765E-03
            1790             429     17.0848E-03     16.9679E-03
            1790            2373     34.8306E-03     34.5434E-03
            1790            2374     33.8594E-03     33.5101E-03
            1791             429     17.0848E-03     16.9679E-03
            1791             430     16.1873E-03     16.0256E-03
            1791            2374     33.8594E-03     33.5101E-03
            1791            2375     31.9658E-03     31.5143E-03
            1792             430     16.1873E-03     16.0256E-03
            1792             431     14.4597E-03     14.4786E-03
            1792            2375     31.9658E-03     31.5143E-03
            1792            2376     26.9566E-03     27.0267E-03
            1793               3     13.0966E-03     13.3488E-03
            1793             150     22.9786E-03     23.6355E-03
            1793             431     14.4597E-03     14.4786E-03
            1793            2376     26.9566E-03     27.0267E-03
            1794             487     20.4361E-03     20.7015E-03
            1794             488     22.1614E-03     22.3965E-03
            1794            2369     26.1601E-03     26.3387E-03
            1794            2377     25.3068E-03     25.3815E-03
            1795            2369     26.1601E-03     26.3387E-03
            1795            2370     31.4435E-03     31.4298E-03
            1795            2377     25.3068E-03     25.3815E-03
            1795            2378     32.3283E-03     32.1852E-03
            1796            2370     31.4435E-03     31.4298E-03
            1796            2371     33.6635E-03     33.4937E-03
            1796            2378     32.3283E-03     32.1852E-03
            1796            2379     35.1238E-03     34.8879E-03
            1797            2371     33.6635E-03     33.4937E-03
            1797            2372     34.7691E-03     34.5430E-03
            1797            2379     35.1238E-03     34.8879E-03
            1797            2380     36.1116E-03     35.7951E-03
            1798            2372     34.7691E-03     34.5430E-03
            1798            2373     34.8306E-03     34.5434E-03
            1798            2380     36.1116E-03     35.7951E-03
            1798            2381     36.0973E-03     35.7666E-03
            1799            2373     34.8306E-03     34.5434E-03
            1799            2374     33.8594E-03     33.5101E-03
            1799            2381     36.0973E-03     35.7666E-03
            1799            2382     35.1490E-03     34.7768E-03
            1800            2374     33.8594E-03     33.5101E-03
            1800            2375     31.9658E-03     31.5143E-03
            1800            2382     35.1490E-03     34.7768E-03
            1800            2383     32.3673E-03     32.1481E-03
            1801            2375     31.9658E-03     31.5143E-03
            1801            2376     26.9566E-03     27.0267E-03
            1801            2383     32.3673E-03     32.1481E-03
            1801            2384     25.1959E-03     25.5937E-03
            1802             149     20.2152E-03     21.0349E-03
            1802             150     22.9786E-03     23.6355E-03
            1802            2376     26.9566E-03     27.0267E-03
            1802            2384     25.1959E-03     25.5937E-03
            1803             486     22.2140E-03     22.1238E-03
            1803             487     20.4361E-03     20.7015E-03
            1803            2377     25.3068E-03     25.3815E-03
            1803            2385     26.1646E-03     26.0246E-03
            1804            2377     25.3068E-03     25.3815E-03
            1804            2378     32.3283E-03     32.1852E-03
            1804            2385     26.1646E-03     26.0246E-03
            1804            2386     32.5893E-03     32.3545E-03
            1805            2378     32.3283E-03     32.1852E-03
            1805            2379     35.1238E-03     34.8879E-03
            1805            2386     32.5893E-03     32.3545E-03
            1805            2387     36.0541E-03     35.8391E-03
            1806            2379     35.1238E-03     34.8879E-03
            1806            2380     36.1116E-03     35.7951E-03
            1806            2387     36.0541E-03     35.8391E-03
            1806            2388     37.1763E-03     37.0360E-03
            1807            2380     36.1116E-03     35.7951E-03
            1807            2381     36.0973E-03     35.7666E-03
            1807            2388     37.1763E-03     37.0360E-03
            1807            2389     37.1081E-03     36.9571E-03
            1808            2381     36.0973E-03     35.7666E-03
            1808            2382     35.1490E-03     34.7768E-03
            1808            2389     37.1081E-03     36.9571E-03
            1808            2390     35.7842E-03     35.7078E-03
            1809            2382     35.1490E-03     34.7768E-03
            1809            2383     32.3673E-03     32.1481E-03
            1809            2390     35.7842E-03     35.7078E-03
            1809            2391     31.9948E-03     32.2627E-03
            1810            2383     32.3673E-03     32.1481E-03
            1810            2384     25.1959E-03     25.5937E-03
            1810            2391     31.9948E-03     32.2627E-03
            1810            2392     25.2725E-03     25.7966E-03
            1811             148     21.2156E-03     21.7466E-03
            1811             149     20.2152E-03     21.0349E-03
            1811            2384     25.1959E-03     25.5937E-03
            1811            2392     25.2725E-03     25.7966E-03
            1812             485     25.8302E-03     25.4386E-03
            1812             486     22.2140E-03     22.1238E-03
            1812            2385     26.1646E-03     26.0246E-03
            1812            2393     28.7026E-03     28.3605E-03
            1813            2385     26.1646E-03     26.0246E-03
            1813            2386     32.5893E-03     32.3545E-03
            1813            2393     28.7026E-03     28.3605E-03
            1813            2394     33.5924E-03     33.4193E-03
            1814            2386     32.5893E-03     32.3545E-03
            1814            2387     36.0541E-03     35.8391E-03
            1814            2394     33.5924E-03     33.4193E-03
            1814            2395     36.3600E-03     36.4018E-03
            1815            2387     36.0541E-03     35.8391E-03
            1815            2388     37.1763E-03     37.0360E-03
            1815            2395     36.3600E-03     36.4018E-03
            1815            2396     37.1456E-03     37.2713E-03
            1816            2388     37.1763E-03     37.0360E-03
            1816            2389     37.1081E-03     36.9571E-03
            1816            2396     37.1456E-03     37.2713E-03
            1816            2397     37.0185E-03     37.1675E-03
            1817            2389     37.1081E-03     36.9571E-03
            1817            2390     35.7842E-03     35.7078E-03
            1817            2397     37.0185E-03     37.1675E-03
            1817            2398     35.8809E-03     36.1283E-03
            1818            2390     35.7842E-03     35.7078E-03
            1818            2391     31.9948E-03     32.2627E-03
            1818            2398     35.8809E-03     36.1283E-03
            1818            2399     32.6665E-03     33.0059E-03
            1819            2391     31.9948E-03     32.2627E-03
            1819            2392     25.2725E-03     25.7966E-03
            1819            2399     32.6665E-03     33.0059E-03
            1819            2400     27.2935E-03     27.6976E-03
            1820             147     24.1598E-03     24.6003E-03
            1820             148     21.2156E-03     21.7466E-03
            1820            2392     25.2725E-03     25.7966E-03
            1820            2400     27.2935E-03     27.6976E-03
            1821             484     31.2358E-03     30.9920E-03
            1821             485     25.8302E-03     25.4386E-03
            1821            2393     28.7026E-03     28.3605E-03
            1821            2401     32.9889E-03     32.8314E-03
            1822            2393     28.7026E-03     28.3605E-03
            1822            2394     33.5924E-03     33.4193E-03
            1822            2401     32.9889E-03     32.8314E-03
            1822            2402     35.2178E-03     35.3546E-03
            1823            2394     33.5924E-03     33.4193E-03
            1823            2395     36.3600E-03     36.4018E-03
            1823            2402     35.2178E-03     35.3546E-03
            1823            2403     35.6878E-03     35.9867E-03
            1824            2395     36.3600E-03     36.4018E-03
            1824            2396     37.1456E-03     37.2713E-03
            1824            2403     35.6878E-03     35.9867E-03
            1824            2404     35.8457E-03     36.1315E-03
            1825            2396     37.1456E-03     37.2713E-03
            1825            2397     37.0185E-03     37.1675E-03
            1825            2404     35.8457E-03     36.1315E-03
            1825            2405     35.6425E-03     36.0123E-03
            1826            2397     37.0185E-03     37.1675E-03
            1826            2398     35.8809E-03     36.1283E-03
            1826            2405     35.6425E-03     36.0123E-03
            1826            2406     35.1091E-03     35.5414E-03
            1827            2398     35.8809E-03     36.1283E-03
            1827            2399     32.6665E-03     33.0059E-03
            1827            2406     35.1091E-03     35.5414E-03
            1827            2407     34.1550E-03     34.5066E-03
            1828            2399     32.6665E-03     33.0059E-03
            1828            2400     27.2935E-03     27.6976E-03
            1828            2407     34.1550E-03     34.5066E-03
            1828            2408     31.3573E-03     31.5116E-03
            1829             146     29.3473E-03     29.3963E-03
            1829             147     24.1598E-03     24.6003E-03
            1829            2400     27.2935E-03     27.6976E-03
            1829            2408     31.3573E-03     31.5116E-03
            1830             483     39.9884E-03     38.7271E-03
            1830             484     31.2358E-03     30.9920E-03
            1830            2401     32.9889E-03     32.8314E-03
            1830            2409     38.3004E-03     37.6310E-03
            1831            2401     32.9889E-03     32.8314E-03
            1831            2402     35.2178E-03     35.3546E-03
            1831            2409     38.3004E-03     37.6310E-03
            1831            2410     35.2586E-03     35.2183E-03
            1832            2402     35.2178E-03     35.3546E-03
            1832            2403     35.6878E-03     35.9867E-03
            1832            2410     35.2586E-03     35.2183E-03
            1832            2411     33.8874E-03     33.9598E-03
            1833            2403     35.6878E-03     35.9867E-03
            1833            2404     35.8457E-03     36.1315E-03
            1833            2411     33.8874E-03     33.9598E-03
            1833            2412     33.6120E-03     33.8205E-03
            1834            2404     35.8457E-03     36.1315E-03
            1834            2405     35.6425E-03     36.0123E-03
            1834            2412     33.6120E-03     33.8205E-03
            1834            2413     33.3589E-03     33.6715E-03
            1835            2405     35.6425E-03     36.0123E-03
            1835            2406     35.1091E-03     35.5414E-03
            1835            2413     33.3589E-03     33.6715E-03
            1835            2414     33.1026E-03     33.5102E-03
            1836            2406     35.1091E-03     35.5414E-03
            1836            2407     34.1550E-03     34.5066E-03
            1836            2414     33.1026E-03     33.5102E-03
            1836            2415     33.9046E-03     34.2852E-03
            1837            2407     34.1550E-03     34.5066E-03
            1837            2408     31.3573E-03     31.5116E-03
            1837            2415     33.9046E-03     34.2852E-03
            1837            2416     36.1544E-03     36.1697E-03
            1838             145     37.3411E-03     37.0696E-03
            1838             146     29.3473E-03     29.3963E-03
            1838            2408     31.3573E-03     31.5116E-03
            1838            2416     36.1544E-03     36.1697E-03
            1839             482     34.1427E-03     32.4328E-03
            1839             483     39.9884E-03     38.7271E-03
            1839            2409     38.3004E-03     37.6310E-03
            1839            2417     34.1952E-03     32.7541E-03
            1840            2409     38.3004E-03     37.6310E-03
            1840            2410     35.2586E-03     35.2183E-03
            1840            2417     34.1952E-03     32.7541E-03
            1840            2418     33.6632E-03     32.6821E-03
            1841            2410     35.2586E-03     35.2183E-03
            1841            2411     33.8874E-03     33.9598E-03
            1841            2418     33.6632E-03     32.6821E-03
            1841            2419     33.2492E-03     32.6492E-03
            1842            2411     33.8874E-03     33.9598E-03
            1842            2412     33.6120E-03     33.8205E-03
            1842            2419     33.2492E-03     32.6492E-03
            1842            2420     33.1204E-03     32.7849E-03
            1843            2412     33.6120E-03     33.8205E-03
            1843            2413     33.3589E-03     33.6715E-03
            1843            2420     33.1204E-03     32.7849E-03
            1843            2421     32.8719E-03     32.5239E-03
            1844            2413     33.3589E-03     33.6715E-03
            1844            2414     33.1026E-03     33.5102E-03
            1844            2421     32.8719E-03     32.5239E-03
            1844            2422     32.4215E-03     31.8877E-03
            1845            2414     33.1026E-03     33.5102E-03
            1845            2415     33.9046E-03     34.2852E-03
            1845            2422     32.4215E-03     31.8877E-03
            1845            2423     32.4214E-03     31.3647E-03
            1846            2415     33.9046E-03     34.2852E-03
            1846            2416     36.1544E-03     36.1697E-03
            1846            2423     32.4214E-03     31.3647E-03
            1846            2424     32.3787E-03     30.7676E-03
            1847             144     31.8349E-03     30.0937E-03
            1847             145     37.3411E-03     37.0696E-03
            1847            2416     36.1544E-03     36.1697E-03
            1847            2424     32.3787E-03     30.7676E-03
            1848             481     27.0939E-03     27.3987E-03
            1848             482     34.1427E-03     32.4328E-03
            1848            2417     34.1952E-03     32.7541E-03
            1848            2425     30.3345E-03     30.0558E-03
            1849            2417     34.1952E-03     32.7541E-03
            1849            2418     33.6632E-03     32.6821E-03
            1849            2425     30.3345E-03     30.0558E-03
            1849            2426     33.9699E-03     32.9501E-03
            1850            2418     33.6632E-03     32.6821E-03
            1850            2419     33.2492E-03     32.6492E-03
            1850            2426     33.9699E-03     32.9501E-03
            1850            2427     34.2928E-03     33.1425E-03
            1851            2419     33.2492E-03     32.6492E-03
            1851            2420     33.1204E-03     32.7849E-03
            1851            2427     34.2928E-03     33.1425E-03
            1851            2428     33.9939E-03     32.7961E-03
            1852            2420     33.1204E-03     32.7849E-03
            1852            2421     32.8719E-03     32.5239E-03
            1852            2428     33.9939E-03     32.7961E-03
            1852            2429     33.6425E-03     32.2669E-03
            1853            2421     32.8719E-03     32.5239E-03
            1853            2422     32.4215E-03     31.8877E-03
            1853            2429     33.6425E-03     32.2669E-03
            1853            2430     33.2627E-03     31.5568E-03
            1854            2422     32.4215E-03     31.8877E-03
            1854            2423     32.4214E-03     31.3647E-03
            1854            2430     33.2627E-03     31.5568E-03
            1854            2431     32.4809E-03     30.3801E-03
            1855            2423     32.4214E-03     31.3647E-03
            1855            2424     32.3787E-03     30.7676E-03
            1855            2431     32.4809E-03     30.3801E-03
            1855            2432     27.8624E-03     26.6471E-03
            1856             143     23.7703E-03     23.6084E-03
            1856             144     31.8349E-03     30.0937E-03
            1856            2424     32.3787E-03     30.7676E-03
            1856            2432     27.8624E-03     26.6471E-03
            1857             480     33.8300E-03     34.7281E-03
            1857             481     27.0939E-03     27.3987E-03
            1857            2425     30.3345E-03     30.0558E-03
            1857            2433     34.8728E-03     35.5585E-03
            1858            2425     30.3345E-03     30.0558E-03
            1858            2426     33.9699E-03     32.9501E-03
            1858            2433     34.8728E-03     35.5585E-03
            1858            2434     36.0500E-03     35.8800E-03
            1859            2426     33.9699E-03     32.9501E-03
            1859            2427     34.2928E-03     33.1425E-03
            1859            2434     36.0500E-03     35.8800E-03
            1859            2435     35.5764E-03     34.4538E-03
            1860            2427     34.2928E-03     33.1425E-03
            1860            2428     33.9939E-03     32.7961E-03
            1860            2435     35.5764E-03     34.4538E-03
            1860            2436     34.5841E-03     32.9534E-03
            1861            2428     33.9939E-03     32.7961E-03
            1861            2429     33.6425E-03     32.2669E-03
            1861            2436     34.5841E-03     32.9534E-03
            1861            2437     33.9892E-03     32.1515E-03
            1862            2429     33.6425E-03     32.2669E-03
            1862            2430     33.2627E-03     31.5568E-03
            1862            2437     33.9892E-03     32.1515E-03
            1862            2438     33.8849E-03     32.1416E-03
            1863            2430     33.2627E-03     31.5568E-03
            1863            2431     32.4809E-03     30.3801E-03
            1863            2438     33.8849E-03     32.1416E-03
            1863            2439     33.1464E-03     32.3711E-03
            1864            2431     32.4809E-03     30.3801E-03
            1864            2432     27.8624E-03     26.6471E-03
            1864            2439     33.1464E-03     32.3711E-03
            1864            2440     30.2581E-03     31.1490E-03
            1865             142     28.2147E-03     29.9065E-03
            1865             143     23.7703E-03     23.6084E-03
            1865            2432     27.8624E-03     26.6471E-03
            1865            2440     30.2581E-03     31.1490E-03
            1866             479     39.2925E-03     39.3935E-03
            1866             480     33.8300E-03     34.7281E-03
            1866            2433     34.8728E-03     35.5585E-03
            1866            2441     38.6998E-03     39.0062E-03
            1867            2433     34.8728E-03     35.5585E-03
            1867            2434     36.0500E-03     35.8800E-03
            1867            2441     38.6998E-03     39.0062E-03
            1867            2442     37.8216E-03     37.9273E-03
            1868            2434     36.0500E-03     35.8800E-03
            1868            2435     35.5764E-03     34.4538E-03
            1868            2442     37.8216E-03     37.9273E-03
            1868            2443     36.8715E-03     36.1141E-03
            1869            2435     35.5764E-03     34.4538E-03
            1869            2436     34.5841E-03     32.9534E-03
            1869            2443     36.8715E-03     36.1141E-03
            1869            2444     35.5811E-03     34.1824E-03
            1870            2436     34.5841E-03     32.9534E-03
            1870            2437     33.9892E-03     32.1515E-03
            1870            2444     35.5811E-03     34.1824E-03
            1870            2445     34.7734E-03     33.2341E-03
            1871            2437     33.9892E-03     32.1515E-03
            1871            2438     33.8849E-03     32.1416E-03
            1871            2445     34.7734E-03     33.2341E-03
            1871            2446     34.4262E-03     33.4596E-03
            1872            2438     33.8849E-03     32.1416E-03
            1872            2439     33.1464E-03     32.3711E-03
            1872            2446     34.4262E-03     33.4596E-03
            1872            2447     33.6912E-03     33.9396E-03
            1873            2439     33.1464E-03     32.3711E-03
            1873            2440     30.2581E-03     31.1490E-03
            1873            2447     33.6912E-03     33.9396E-03
            1873            2448     33.1815E-03     33.8500E-03
            1874             141     33.2416E-03     33.6444E-03
            1874             142     28.2147E-03     29.9065E-03
            1874            2440     30.2581E-03     31.1490E-03
            1874            2448     33.1815E-03     33.8500E-03
            1875             478     44.4139E-03     44.0476E-03
            1875             479     39.2925E-03     39.3935E-03
            1875            2441     38.6998E-03     39.0062E-03
            1875            2449     42.6639E-03     42.5170E-03
            1876            2441     38.6998E-03     39.0062E-03
            1876            2442     37.8216E-03     37.9273E-03
            1876            2449     42.6639E-03     42.5170E-03
            1876            2450     39.8527E-03     39.7973E-03
            1877            2442     37.8216E-03     37.9273E-03
            1877            2443     36.8715E-03     36.1141E-03
            1877            2450     39.8527E-03     39.7973E-03
            1877            2451     37.9326E-03     37.4737E-03
            1878            2443     36.8715E-03     36.1141E-03
            1878            2444     35.5811E-03     34.1824E-03
            1878            2451     37.9326E-03     37.4737E-03
            1878            2452     36.4215E-03     35.5252E-03
            1879            2444     35.5811E-03     34.1824E-03
            1879            2445     34.7734E-03     33.2341E-03
            1879            2452     36.4215E-03     35.5252E-03
            1879            2453     35.3797E-03     34.5009E-03
            1880            2445     34.7734E-03     33.2341E-03
            1880            2446     34.4262E-03     33.4596E-03
            1880            2453     35.3797E-03     34.5009E-03
            1880            2454     34.8532E-03     34.5754E-03
            1881            2446     34.4262E-03     33.4596E-03
            1881            2447     33.6912E-03     33.9396E-03
            1881            2454     34.8532E-03     34.5754E-03
            1881            2455     35.0012E-03     35.3264E-03
            1882            2447     33.6912E-03     33.9396E-03
            1882            2448     33.1815E-03     33.8500E-03
            1882            2455     35.0012E-03     35.3264E-03
            1882            2456     36.5141E-03     36.8234E-03
            1883             140     37.7420E-03     37.8539E-03
            1883             141     33.2416E-03     33.6444E-03
            1883            2448     33.1815E-03     33.8500E-03
            1883            2456     36.5141E-03     36.8234E-03
            1884             477     49.3230E-03     48.7110E-03
            1884             478     44.4139E-03     44.0476E-03
            1884            2449     42.6639E-03     42.5170E-03
            1884            2457     46.6380E-03     46.2263E-03
            1885            2449     42.6639E-03     42.5170E-03
            1885            2450     39.8527E-03     39.7973E-03
            1885            2457     46.6380E-03     46.2263E-03
            1885            2458     42.1608E-03     41.9741E-03
            1886            2450     39.8527E-03     39.7973E-03
            1886            2451     37.9326E-03     37.4737E-03
            1886            2458     42.1608E-03     41.9741E-03
            1886            2459     39.1054E-03     38.8655E-03
            1887            2451     37.9326E-03     37.4737E-03
            1887            2452     36.4215E-03     35.5252E-03
            1887            2459     39.1054E-03     38.8655E-03
            1887            2460     36.9593E-03     36.6090E-03
            1888            2452     36.4215E-03     35.5252E-03
            1888            2453     35.3797E-03     34.5009E-03
            1888            2460     36.9593E-03     36.6090E-03
            1888            2461     35.7298E-03     35.4959E-03
            1889            2453     35.3797E-03     34.5009E-03
            1889            2454     34.8532E-03     34.5754E-03
            1889            2461     35.7298E-03     35.4959E-03
            1889            2462     35.5679E-03     35.6726E-03
            1890            2454     34.8532E-03     34.5754E-03
            1890            2455     35.0012E-03     35.3264E-03
            1890            2462     35.5679E-03     35.6726E-03
            1890            2463     36.7509E-03     37.0772E-03
            1891            2455     35.0012E-03     35.3264E-03
            1891            2456     36.5141E-03     36.8234E-03
            1891            2463     36.7509E-03     37.0772E-03
            1891            2464     40.0261E-03     40.0498E-03
            1892             139     42.3031E-03     41.9924E-03
            1892             140     37.7420E-03     37.8539E-03
            1892            2456     36.5141E-03     36.8234E-03
            1892            2464     40.0261E-03     40.0498E-03
            1893             476     54.1553E-03     53.3572E-03
            1893             477     49.3230E-03     48.7110E-03
            1893            2457     46.6380E-03     46.2263E-03
            1893            2465     50.7255E-03     50.1620E-03
            1894            2457     46.6380E-03     46.2263E-03
            1894            2458     42.1608E-03     41.9741E-03
            1894            2465     50.7255E-03     50.1620E-03
            1894            2466     44.7163E-03     44.5302E-03
            1895            2458     42.1608E-03     41.9741E-03
            1895            2459     39.1054E-03     38.8655E-03
            1895            2466     44.7163E-03     44.5302E-03
            1895            2467     40.2829E-03     40.3095E-03
            1896            2459     39.1054E-03     38.8655E-03
            1896            2460     36.9593E-03     36.6090E-03
            1896            2467     40.2829E-03     40.3095E-03
            1896            2468     37.3737E-03     37.5556E-03
            1897            2460     36.9593E-03     36.6090E-03
            1897            2461     35.7298E-03     35.4959E-03
            1897            2468     37.3737E-03     37.5556E-03
            1897            2469     35.9876E-03     36.3247E-03
            1898            2461     35.7298E-03     35.4959E-03
            1898            2462     35.5679E-03     35.6726E-03
            1898            2469     35.9876E-03     36.3247E-03
            1898            2470     36.3563E-03     36.7985E-03
            1899            2462     35.5679E-03     35.6726E-03
            1899            2463     36.7509E-03     37.0772E-03
            1899            2470     36.3563E-03     36.7985E-03
            1899            2471     38.8809E-03     39.1893E-03
            1900            2463     36.7509E-03     37.0772E-03
            1900            2464     40.0261E-03     40.0498E-03
            1900            2471     38.8809E-03     39.1893E-03
            1900            2472     43.7036E-03     43.5869E-03
            1901             138     46.7010E-03     46.3286E-03
            1901             139     42.3031E-03     41.9924E-03
            1901            2464     40.0261E-03     40.0498E-03
            1901            2472     43.7036E-03     43.5869E-03
            1902             475     59.1912E-03     58.3212E-03
            1902             476     54.1553E-03     53.3572E-03
            1902            2465     50.7255E-03     50.1620E-03
            1902            2473     54.9476E-03     54.3380E-03
            1903            2465     50.7255E-03     50.1620E-03
            1903            2466     44.7163E-03     44.5302E-03
            1903            2473     54.9476E-03     54.3380E-03
            1903            2474     47.2865E-03     47.1886E-03
            1904            2466     44.7163E-03     44.5302E-03
            1904            2467     40.2829E-03     40.3095E-03
            1904            2474     47.2865E-03     47.1886E-03
            1904            2475     41.4482E-03     41.8726E-03
            1905            2467     40.2829E-03     40.3095E-03
            1905            2468     37.3737E-03     37.5556E-03
            1905            2475     41.4482E-03     41.8726E-03
            1905            2476     37.6024E-03     38.4382E-03
            1906            2468     37.3737E-03     37.5556E-03
            1906            2469     35.9876E-03     36.3247E-03
            1906            2476     37.6024E-03     38.4382E-03
            1906            2477     36.0716E-03     37.0333E-03
            1907            2469     35.9876E-03     36.3247E-03
            1907            2470     36.3563E-03     36.7985E-03
            1907            2477     36.0716E-03     37.0333E-03
            1907            2478     37.1896E-03     37.9784E-03
            1908            2470     36.3563E-03     36.7985E-03
            1908            2471     38.8809E-03     39.1893E-03
            1908            2478     37.1896E-03     37.9784E-03
            1908            2479     41.0642E-03     41.4509E-03
            1909            2471     38.8809E-03     39.1893E-03
            1909            2472     43.7036E-03     43.5869E-03
            1909            2479     41.0642E-03     41.4509E-03
            1909            2480     47.5889E-03     47.3756E-03
            1910             137     51.4629E-03     50.8932E-03
            1910             138     46.7010E-03     46.3286E-03
            1910            2472     43.7036E-03     43.5869E-03
            1910            2480     47.5889E-03     47.3756E-03
            1911             474     64.1155E-03     63.1858E-03
            1911             475     59.1912E-03     58.3212E-03
            1911            2473     54.9476E-03     54.3380E-03
            1911            2481     59.1625E-03     58.6245E-03
            1912            2473     54.9476E-03     54.3380E-03
            1912            2474     47.2865E-03     47.1886E-03
            1912            2481     59.1625E-03     58.6245E-03
            1912            2482     50.0564E-03     50.3872E-03
            1913            2474     47.2865E-03     47.1886E-03
            1913            2475     41.4482E-03     41.8726E-03
            1913            2482     50.0564E-03     50.3872E-03
            1913            2483     42.4207E-03     43.4897E-03
            1914            2475     41.4482E-03     41.8726E-03
            1914            2476     37.6024E-03     38.4382E-03
            1914            2483     42.4207E-03     43.4897E-03
            1914            2484     37.0188E-03     38.4501E-03
            1915            2476     37.6024E-03     38.4382E-03
            1915            2477     36.0716E-03     37.0333E-03
            1915            2484     37.0188E-03     38.4501E-03
            1915            2485     35.3980E-03     36.9502E-03
            1916            2477     36.0716E-03     37.0333E-03
            1916            2478     37.1896E-03     37.9784E-03
            1916            2485     35.3980E-03     36.9502E-03
            1916            2486     37.8953E-03     39.2318E-03
            1917            2478     37.1896E-03     37.9784E-03
            1917            2479     41.0642E-03     41.4509E-03
            1917            2486     37.8953E-03     39.2318E-03
            1917            2487     43.5158E-03     44.1522E-03
            1918            2479     41.0642E-03     41.4509E-03
            1918            2480     47.5889E-03     47.3756E-03
            1918            2487     43.5158E-03     44.1522E-03
            1918            2488     51.4493E-03     51.3548E-03
            1919             136     55.9613E-03     55.6004E-03
            1919             137     51.4629E-03     50.8932E-03
            1919            2480     47.5889E-03     47.3756E-03
            1919            2488     51.4493E-03     51.3548E-03
            1920             473     70.3648E-03     69.9649E-03
            1920             474     64.1155E-03     63.1858E-03
            1920            2481     59.1625E-03     58.6245E-03
            1920            2489     64.6040E-03     64.6632E-03
            1921            2481     59.1625E-03     58.6245E-03
            1921            2482     50.0564E-03     50.3872E-03
            1921            2489     64.6040E-03     64.6632E-03
            1921            2490     52.5801E-03     53.3425E-03
            1922            2482     50.0564E-03     50.3872E-03
            1922            2483     42.4207E-03     43.4897E-03
            1922            2490     52.5801E-03     53.3425E-03
            1922            2491     41.7561E-03     42.9141E-03
            1923            2483     42.4207E-03     43.4897E-03
            1923            2484     37.0188E-03     38.4501E-03
            1923            2491     41.7561E-03     42.9141E-03
            1923            2492     35.1742E-03     36.7298E-03
            1924            2484     37.0188E-03     38.4501E-03
            1924            2485     35.3980E-03     36.9502E-03
            1924            2492     35.1742E-03     36.7298E-03
            1924            2493     33.3827E-03     35.1822E-03
            1925            2485     35.3980E-03     36.9502E-03
            1925            2486     37.8953E-03     39.2318E-03
            1925            2493     33.3827E-03     35.1822E-03
            1925            2494     36.9572E-03     38.5850E-03
            1926            2486     37.8953E-03     39.2318E-03
            1926            2487     43.5158E-03     44.1522E-03
            1926            2494     36.9572E-03     38.5850E-03
            1926            2495     45.7586E-03     46.8270E-03
            1927            2487     43.5158E-03     44.1522E-03
            1927            2488     51.4493E-03     51.3548E-03
            1927            2495     45.7586E-03     46.8270E-03
            1927            2496     56.6265E-03     56.8130E-03
            1928             135     62.0377E-03     61.7325E-03
            1928             136     55.9613E-03     55.6004E-03
            1928            2488     51.4493E-03     51.3548E-03
            1928            2496     56.6265E-03     56.8130E-03
            1929             472     79.8503E-03     76.9767E-03
            1929             473     70.3648E-03     69.9649E-03
            1929            2489     64.6040E-03     64.6632E-03
            1929            2497     69.9625E-03     67.8840E-03
            1930            2489     64.6040E-03     64.6632E-03
            1930            2490     52.5801E-03     53.3425E-03
            1930            2497     69.9625E-03     67.8840E-03
            1930            2498     51.9940E-03     50.9714E-03
            1931            2490     52.5801E-03     53.3425E-03
            1931            2491     41.7561E-03     42.9141E-03
            1931            2498     51.9940E-03     50.9714E-03
            1931            2499     39.0865E-03     38.8858E-03
            1932            2491     41.7561E-03     42.9141E-03
            1932            2492     35.1742E-03     36.7298E-03
            1932            2499     39.0865E-03     38.8858E-03
            1932            2500     31.4561E-03     32.2604E-03
            1933            2492     35.1742E-03     36.7298E-03
            1933            2493     33.3827E-03     35.1822E-03
            1933            2500     31.4561E-03     32.2604E-03
            1933            2501     29.4736E-03     30.7044E-03
            1934            2493     33.3827E-03     35.1822E-03
            1934            2494     36.9572E-03     38.5850E-03
            1934            2501     29.4736E-03     30.7044E-03
            1934            2502     33.8538E-03     34.7350E-03
            1935            2494     36.9572E-03     38.5850E-03
            1935            2495     45.7586E-03     46.8270E-03
            1935            2502     33.8538E-03     34.7350E-03
            1935            2503     44.6905E-03     44.9391E-03
            1936            2495     45.7586E-03     46.8270E-03
            1936            2496     56.6265E-03     56.8130E-03
            1936            2503     44.6905E-03     44.9391E-03
            1936            2504     61.1927E-03     60.3976E-03
            1937             134     70.4170E-03     68.8791E-03
            1937             135     62.0377E-03     61.7325E-03
            1937            2496     56.6265E-03     56.8130E-03
            1937            2504     61.1927E-03     60.3976E-03
            1938             471     72.6286E-03     66.8255E-03
            1938             472     79.8503E-03     76.9767E-03
            1938            2497     69.9625E-03     67.8840E-03
            1938            2505     64.2708E-03     59.0569E-03
            1939            2497     69.9625E-03     67.8840E-03
            1939            2498     51.9940E-03     50.9714E-03
            1939            2505     64.2708E-03     59.0569E-03
            1939            2506     50.0467E-03     46.3279E-03
            1940            2498     51.9940E-03     50.9714E-03
            1940            2499     39.0865E-03     38.8858E-03
            1940            2506     50.0467E-03     46.3279E-03
            1940            2507     39.9527E-03     37.9442E-03
            1941            2499     39.0865E-03     38.8858E-03
            1941            2500     31.4561E-03     32.2604E-03
            1941            2507     39.9527E-03     37.9442E-03
            1941            2508     33.1500E-03     32.4027E-03
            1942            2500     31.4561E-03     32.2604E-03
            1942            2501     29.4736E-03     30.7044E-03
            1942            2508     33.1500E-03     32.4027E-03
            1942            2509     31.1712E-03     30.6119E-03
            1943            2501     29.4736E-03     30.7044E-03
            1943            2502     33.8538E-03     34.7350E-03
            1943            2509     31.1712E-03     30.6119E-03
            1943            2510     34.5201E-03     32.9678E-03
            1944            2502     33.8538E-03     34.7350E-03
            1944            2503     44.6905E-03     44.9391E-03
            1944            2510     34.5201E-03     32.9678E-03
            1944            2511     42.4418E-03     38.9656E-03
            1945            2503     44.6905E-03     44.9391E-03
            1945            2504     61.1927E-03     60.3976E-03
            1945            2511     42.4418E-03     38.9656E-03
            1945            2512     54.5819E-03     49.2128E-03
            1946             133     61.5530E-03     55.4907E-03
            1946             134     70.4170E-03     68.8791E-03
            1946            2504     61.1927E-03     60.3976E-03
            1946            2512     54.5819E-03     49.2128E-03
            1947             470     64.2676E-03     62.4768E-03
            1947             471     72.6286E-03     66.8255E-03
            1947            2505     64.2708E-03     59.0569E-03
            1947            2513     60.2910E-03     58.1108E-03
            1948            2505     64.2708E-03     59.0569E-03
            1948            2506     50.0467E-03     46.3279E-03
            1948            2513     60.2910E-03     58.1108E-03
            1948            2514     51.6853E-03     49.0595E-03
            1949            2506     50.0467E-03     46.3279E-03
            1949            2507     39.9527E-03     37.9442E-03
            1949            2514     51.6853E-03     49.0595E-03
            1949            2515     43.0016E-03     40.5681E-03
            1950            2507     39.9527E-03     37.9442E-03
            1950            2508     33.1500E-03     32.4027E-03
            1950            2515     43.0016E-03     40.5681E-03
            1950            2516     36.5643E-03     34.3206E-03
            1951            2508     33.1500E-03     32.4027E-03
            1951            2509     31.1712E-03     30.6119E-03
            1951            2516     36.5643E-03     34.3206E-03
            1951            2517     34.2520E-03     31.6894E-03
            1952            2509     31.1712E-03     30.6119E-03
            1952            2510     34.5201E-03     32.9678E-03
            1952            2517     34.2520E-03     31.6894E-03
            1952            2518     36.7924E-03     33.4414E-03
            1953            2510     34.5201E-03     32.9678E-03
            1953            2511     42.4418E-03     38.9656E-03
            1953            2518     36.7924E-03     33.4414E-03
            1953            2519     42.8517E-03     38.7150E-03
            1954            2511     42.4418E-03     38.9656E-03
            1954            2512     54.5819E-03     49.2128E-03
            1954            2519     42.8517E-03     38.7150E-03
            1954            2520     48.8825E-03     45.3045E-03
            1955             132     51.3241E-03     48.5623E-03
            1955             133     61.5530E-03     55.4907E-03
            1955            2512     54.5819E-03     49.2128E-03
            1955            2520     48.8825E-03     45.3045E-03
            1956             469     71.7254E-03     72.4520E-03
            1956             470     64.2676E-03     62.4768E-03
            1956            2513     60.2910E-03     58.1108E-03
            1956            2521     66.3305E-03     67.2992E-03
            1957            2513     60.2910E-03     58.1108E-03
            1957            2514     51.6853E-03     49.0595E-03
            1957            2521     66.3305E-03     67.2992E-03
            1957            2522     55.2396E-03     55.3981E-03
            1958            2514     51.6853E-03     49.0595E-03
            1958            2515     43.0016E-03     40.5681E-03
            1958            2522     55.2396E-03     55.3981E-03
            1958            2523     44.4026E-03     42.8558E-03
            1959            2515     43.0016E-03     40.5681E-03
            1959            2516     36.5643E-03     34.3206E-03
            1959            2523     44.4026E-03     42.8558E-03
            1959            2524     36.0577E-03     33.3138E-03
            1960            2516     36.5643E-03     34.3206E-03
            1960            2517     34.2520E-03     31.6894E-03
            1960            2524     36.0577E-03     33.3138E-03
            1960            2525     33.0698E-03     29.8187E-03
            1961            2517     34.2520E-03     31.6894E-03
            1961            2518     36.7924E-03     33.4414E-03
            1961            2525     33.0698E-03     29.8187E-03
            1961            2526     36.5874E-03     33.9241E-03
            1962            2518     36.7924E-03     33.4414E-03
            1962            2519     42.8517E-03     38.7150E-03
            1962            2526     36.5874E-03     33.9241E-03
            1962            2527     44.2126E-03     43.6363E-03
            1963            2519     42.8517E-03     38.7150E-03
            1963            2520     48.8825E-03     45.3045E-03
            1963            2527     44.2126E-03     43.6363E-03
            1963            2528     53.1815E-03     54.4992E-03
            1964             131     57.8270E-03     59.5021E-03
            1964             132     51.3241E-03     48.5623E-03
            1964            2520     48.8825E-03     45.3045E-03
            1964            2528     53.1815E-03     54.4992E-03
            1965             468     77.5682E-03     77.1502E-03
            1965             469     71.7254E-03     72.4520E-03
            1965            2521     66.3305E-03     67.2992E-03
            1965            2529     70.8260E-03     71.1052E-03
            1966            2521     66.3305E-03     67.2992E-03
            1966            2522     55.2396E-03     55.3981E-03
            1966            2529     70.8260E-03     71.1052E-03
            1966            2530     57.9775E-03     58.6003E-03
            1967            2522     55.2396E-03     55.3981E-03
            1967            2523     44.4026E-03     42.8558E-03
            1967            2530     57.9775E-03     58.6003E-03
            1967            2531     46.1243E-03     45.4409E-03
            1968            2523     44.4026E-03     42.8558E-03
            1968            2524     36.0577E-03     33.3138E-03
            1968            2531     46.1243E-03     45.4409E-03
            1968            2532     36.7313E-03     34.4908E-03
            1969            2524     36.0577E-03     33.3138E-03
            1969            2525     33.0698E-03     29.8187E-03
            1969            2532     36.7313E-03     34.4908E-03
            1969            2533     33.2607E-03     30.6136E-03
            1970            2525     33.0698E-03     29.8187E-03
            1970            2526     36.5874E-03     33.9241E-03
            1970            2533     33.2607E-03     30.6136E-03
            1970            2534     37.0182E-03     35.7985E-03
            1971            2526     36.5874E-03     33.9241E-03
            1971            2527     44.2126E-03     43.6363E-03
            1971            2534     37.0182E-03     35.7985E-03
            1971            2535     45.6209E-03     46.4105E-03
            1972            2527     44.2126E-03     43.6363E-03
            1972            2528     53.1815E-03     54.4992E-03
            1972            2535     45.6209E-03     46.4105E-03
            1972            2536     57.2202E-03     57.9489E-03
            1973             130     63.7988E-03     63.6866E-03
            1973             131     57.8270E-03     59.5021E-03
            1973            2528     53.1815E-03     54.4992E-03
            1973            2536     57.2202E-03     57.9489E-03
            1974             467     82.9403E-03     82.0180E-03
            1974             468     77.5682E-03     77.1502E-03
            1974            2529     70.8260E-03     71.1052E-03
            1974            2537     75.2496E-03     74.8237E-03
            1975            2529     70.8260E-03     71.1052E-03
            1975            2530     57.9775E-03     58.6003E-03
            1975            2537     75.2496E-03     74.8237E-03
            1975            2538     60.5934E-03     60.6941E-03
            1976            2530     57.9775E-03     58.6003E-03
            1976            2531     46.1243E-03     45.4409E-03
            1976            2538     60.5934E-03     60.6941E-03
            1976            2539     47.6007E-03     47.2350E-03
            1977            2531     46.1243E-03     45.4409E-03
            1977            2532     36.7313E-03     34.4908E-03
            1977            2539     47.6007E-03     47.2350E-03
            1977            2540     37.6619E-03     36.2771E-03
            1978            2532     36.7313E-03     34.4908E-03
            1978            2533     33.2607E-03     30.6136E-03
            1978            2540     37.6619E-03     36.2771E-03
            1978            2541     33.7861E-03     32.2864E-03
            1979            2533     33.2607E-03     30.6136E-03
            1979            2534     37.0182E-03     35.7985E-03
            1979            2541     33.7861E-03     32.2864E-03
            1979            2542     37.6607E-03     37.3591E-03
            1980            2534     37.0182E-03     35.7985E-03
            1980            2535     45.6209E-03     46.4105E-03
            1980            2542     37.6607E-03     37.3591E-03
            1980            2543     47.5961E-03     48.1529E-03
            1981            2535     45.6209E-03     46.4105E-03
            1981            2536     57.2202E-03     57.9489E-03
            1981            2543     47.5961E-03     48.1529E-03
            1981            2544     61.1582E-03     61.3160E-03
            1982             129     68.6240E-03     68.3146E-03
            1982             130     63.7988E-03     63.6866E-03
            1982            2536     57.2202E-03     57.9489E-03
            1982            2544     61.1582E-03     61.3160E-03
            1983             466     87.8417E-03     86.6400E-03
            1983             467     82.9403E-03     82.0180E-03
            1983            2537     75.2496E-03     74.8237E-03
            1983            2545     79.4106E-03     78.6369E-03
            1984            2537     75.2496E-03     74.8237E-03
            1984            2538     60.5934E-03     60.6941E-03
            1984            2545     79.4106E-03     78.6369E-03
            1984            2546     63.3487E-03     63.1524E-03
            1985            2538     60.5934E-03     60.6941E-03
            1985            2539     47.6007E-03     47.2350E-03
            1985            2546     63.3487E-03     63.1524E-03
            1985            2547     49.1833E-03     48.9948E-03
            1986            2539     47.6007E-03     47.2350E-03
            1986            2540     37.6619E-03     36.2771E-03
            1986            2547     49.1833E-03     48.9948E-03
            1986            2548     38.3875E-03     37.8756E-03
            1987            2540     37.6619E-03     36.2771E-03
            1987            2541     33.7861E-03     32.2864E-03
            1987            2548     38.3875E-03     37.8756E-03
            1987            2549     34.2642E-03     33.8562E-03
            1988            2541     33.7861E-03     32.2864E-03
            1988            2542     37.6607E-03     37.3591E-03
            1988            2549     34.2642E-03     33.8562E-03
            1988            2550     38.7326E-03     38.9259E-03
            1989            2542     37.6607E-03     37.3591E-03
            1989            2543     47.5961E-03     48.1529E-03
            1989            2550     38.7326E-03     38.9259E-03
            1989            2551     49.8793E-03     50.3121E-03
            1990            2543     47.5961E-03     48.1529E-03
            1990            2544     61.1582E-03     61.3160E-03
            1990            2551     49.8793E-03     50.3121E-03
            1990            2552     64.9998E-03     64.7845E-03
            1991             128     73.3042E-03     72.5168E-03
            1991             129     68.6240E-03     68.3146E-03
            1991            2544     61.1582E-03     61.3160E-03
            1991            2552     64.9998E-03     64.7845E-03
            1992             465     92.5567E-03     91.1755E-03
            1992             466     87.8417E-03     86.6400E-03
            1992            2545     79.4106E-03     78.6369E-03
            1992            2553     83.5512E-03     82.6232E-03
            1993            2545     79.4106E-03     78.6369E-03
            1993            2546     63.3487E-03     63.1524E-03
            1993            2553     83.5512E-03     82.6232E-03
            1993            2554     66.2302E-03     66.0386E-03
            1994            2546     63.3487E-03     63.1524E-03
            1994            2547     49.1833E-03     48.9948E-03
            1994            2554     66.2302E-03     66.0386E-03
            1994            2555     50.7246E-03     50.9099E-03
            1995            2547     49.1833E-03     48.9948E-03
            1995            2548     38.3875E-03     37.8756E-03
            1995            2555     50.7246E-03     50.9099E-03
            1995            2556     39.0468E-03     39.4209E-03
            1996            2548     38.3875E-03     37.8756E-03
            1996            2549     34.2642E-03     33.8562E-03
            1996            2556     39.0468E-03     39.4209E-03
            1996            2557     34.7131E-03     35.3099E-03
            1997            2549     34.2642E-03     33.8562E-03
            1997            2550     38.7326E-03     38.9259E-03
            1997            2557     34.7131E-03     35.3099E-03
            1997            2558     39.8749E-03     40.6174E-03
            1998            2550     38.7326E-03     38.9259E-03
            1998            2551     49.8793E-03     50.3121E-03
            1998            2558     39.8749E-03     40.6174E-03
            1998            2559     52.4641E-03     52.8967E-03
            1999            2551     49.8793E-03     50.3121E-03
            1999            2552     64.9998E-03     64.7845E-03
            1999            2559     52.4641E-03     52.8967E-03
            1999            2560     68.8564E-03     68.4986E-03
            2000             127     77.6674E-03     76.8473E-03
            2000             128     73.3042E-03     72.5168E-03
            2000            2552     64.9998E-03     64.7845E-03
            2000            2560     68.8564E-03     68.4986E-03
            2001             464     97.3879E-03     95.9843E-03
            2001             465     92.5567E-03     91.1755E-03
            2001            2553     83.5512E-03     82.6232E-03
            2001            2561     87.7209E-03     86.8226E-03
            2002            2553     83.5512E-03     82.6232E-03
            2002            2554     66.2302E-03     66.0386E-03
            2002            2561     87.7209E-03     86.8226E-03
            2002            2562     68.9902E-03     69.0399E-03
            2003            2554     66.2302E-03     66.0386E-03
            2003            2555     50.7246E-03     50.9099E-03
            2003            2562     68.9902E-03     69.0399E-03
            2003            2563     52.2284E-03     53.0964E-03
            2004            2555     50.7246E-03     50.9099E-03
            2004            2556     39.0468E-03     39.4209E-03
            2004            2563     52.2284E-03     53.0964E-03
            2004            2564     39.5069E-03     40.9914E-03
            2005            2556     39.0468E-03     39.4209E-03
            2005            2557     34.7131E-03     35.3099E-03
            2005            2564     39.5069E-03     40.9914E-03
            2005            2565     34.9841E-03     36.7154E-03
            2006            2557     34.7131E-03     35.3099E-03
            2006            2558     39.8749E-03     40.6174E-03
            2006            2565     34.9841E-03     36.7154E-03
            2006            2566     41.0655E-03     42.4956E-03
            2007            2558     39.8749E-03     40.6174E-03
            2007            2559     52.4641E-03     52.8967E-03
            2007            2566     41.0655E-03     42.4956E-03
            2007            2567     54.9677E-03     55.6417E-03
            2008            2559     52.4641E-03     52.8967E-03
            2008            2560     68.8564E-03     68.4986E-03
            2008            2567     54.9677E-03     55.6417E-03
            2008            2568     72.8003E-03     72.4324E-03
            2009             126     82.3117E-03     81.3508E-03
            2009             127     77.6674E-03     76.8473E-03
            2009            2560     68.8564E-03     68.4986E-03
            2009            2568     72.8003E-03     72.4324E-03
            2010             463     101.902E-03     100.514E-03
            2010             464     97.3879E-03     95.9843E-03
            2010            2561     87.7209E-03     86.8226E-03
            2010            2569     91.6900E-03     91.0884E-03
            2011            2561     87.7209E-03     86.8226E-03
            2011            2562     68.9902E-03     69.0399E-03
            2011            2569     91.6900E-03     91.0884E-03
            2011            2570     71.8944E-03     72.7449E-03
            2012            2562     68.9902E-03     69.0399E-03
            2012            2563     52.2284E-03     53.0964E-03
            2012            2570     71.8944E-03     72.7449E-03
            2012            2571     53.4173E-03     55.2350E-03
            2013            2563     52.2284E-03     53.0964E-03
            2013            2564     39.5069E-03     40.9914E-03
            2013            2571     53.4173E-03     55.2350E-03
            2013            2572     38.9375E-03     41.3529E-03
            2014            2564     39.5069E-03     40.9914E-03
            2014            2565     34.9841E-03     36.7154E-03
            2014            2572     38.9375E-03     41.3529E-03
            2014            2573     34.3267E-03     37.1017E-03
            2015            2565     34.9841E-03     36.7154E-03
            2015            2566     41.0655E-03     42.4956E-03
            2015            2573     34.3267E-03     37.1017E-03
            2015            2574     42.0257E-03     44.4659E-03
            2016            2566     41.0655E-03     42.4956E-03
            2016            2567     54.9677E-03     55.6417E-03
            2016            2574     42.0257E-03     44.4659E-03
            2016            2575     57.6539E-03     58.9720E-03
            2017            2567     54.9677E-03     55.6417E-03
            2017            2568     72.8003E-03     72.4324E-03
            2017            2575     57.6539E-03     58.9720E-03
            2017            2576     76.5384E-03     76.4840E-03
            2018             125     86.5183E-03     85.8151E-03
            2018             126     82.3117E-03     81.3508E-03
            2018            2568     72.8003E-03     72.4324E-03
            2018            2576     76.5384E-03     76.4840E-03
            2019             462     107.814E-03     107.370E-03
            2019             463     101.902E-03     100.514E-03
            2019            2569     91.6900E-03     91.0884E-03
            2019            2577     96.9696E-03     97.3105E-03
            2020            2569     91.6900E-03     91.0884E-03
            2020            2570     71.8944E-03     72.7449E-03
            2020            2577     96.9696E-03     97.3105E-03
            2020            2578     74.2188E-03     75.4395E-03
            2021            2570     71.8944E-03     72.7449E-03
            2021            2571     53.4173E-03     55.2350E-03
            2021            2578     74.2188E-03     75.4395E-03
            2021            2579     52.4887E-03     54.0724E-03
            2022            2571     53.4173E-03     55.2350E-03
            2022            2572     38.9375E-03     41.3529E-03
            2022            2579     52.4887E-03     54.0724E-03
            2022            2580     36.8318E-03     39.3471E-03
            2023            2572     38.9375E-03     41.3529E-03
            2023            2573     34.3267E-03     37.1017E-03
            2023            2580     36.8318E-03     39.3471E-03
            2023            2581     31.9662E-03     35.1001E-03
            2024            2573     34.3267E-03     37.1017E-03
            2024            2574     42.0257E-03     44.4659E-03
            2024            2581     31.9662E-03     35.1001E-03
            2024            2582     40.8289E-03     43.5156E-03
            2025            2574     42.0257E-03     44.4659E-03
            2025            2575     57.6539E-03     58.9720E-03
            2025            2582     40.8289E-03     43.5156E-03
            2025            2583     59.7835E-03     61.6547E-03
            2026            2575     57.6539E-03     58.9720E-03
            2026            2576     76.5384E-03     76.4840E-03
            2026            2583     59.7835E-03     61.6547E-03
            2026            2584     81.5344E-03     82.1421E-03
            2027             124     92.2258E-03     91.9832E-03
            2027             125     86.5183E-03     85.8151E-03
            2027            2576     76.5384E-03     76.4840E-03
            2027            2584     81.5344E-03     82.1421E-03
            2028             461     117.224E-03     112.803E-03
            2028             462     107.814E-03     107.370E-03
            2028            2577     96.9696E-03     97.3105E-03
            2028            2585     101.633E-03     98.0827E-03
            2029            2577     96.9696E-03     97.3105E-03
            2029            2578     74.2188E-03     75.4395E-03
            2029            2585     101.633E-03     98.0827E-03
            2029            2586     72.5840E-03     70.2347E-03
            2030            2578     74.2188E-03     75.4395E-03
            2030            2579     52.4887E-03     54.0724E-03
            2030            2586     72.5840E-03     70.2347E-03
            2030            2587     49.1187E-03     48.0784E-03
            2031            2579     52.4887E-03     54.0724E-03
            2031            2580     36.8318E-03     39.3471E-03
            2031            2587     49.1187E-03     48.0784E-03
            2031            2588     32.1027E-03     33.1429E-03
            2032            2580     36.8318E-03     39.3471E-03
            2032            2581     31.9662E-03     35.1001E-03
            2032            2588     32.1027E-03     33.1429E-03
            2032            2589     26.9032E-03     28.8669E-03
            2033            2581     31.9662E-03     35.1001E-03
            2033            2582     40.8289E-03     43.5156E-03
            2033            2589     26.9032E-03     28.8669E-03
            2033            2590     37.0161E-03     37.8807E-03
            2034            2582     40.8289E-03     43.5156E-03
            2034            2583     59.7835E-03     61.6547E-03
            2034            2590     37.0161E-03     37.8807E-03
            2034            2591     57.9214E-03     57.3936E-03
            2035            2583     59.7835E-03     61.6547E-03
            2035            2584     81.5344E-03     82.1421E-03
            2035            2591     57.9214E-03     57.3936E-03
            2035            2592     85.3875E-03     83.4786E-03
            2036             123     100.253E-03     97.4342E-03
            2036             124     92.2258E-03     91.9832E-03
            2036            2584     81.5344E-03     82.1421E-03
            2036            2592     85.3875E-03     83.4786E-03
            2037             460     110.862E-03     101.463E-03
            2037             461     117.224E-03     112.803E-03
            2037            2585     101.633E-03     98.0827E-03
            2037            2593     95.8203E-03     87.1911E-03
            2038            2585     101.633E-03     98.0827E-03
            2038            2586     72.5840E-03     70.2347E-03
            2038            2593     95.8203E-03     87.1911E-03
            2038            2594     70.1627E-03     63.7193E-03
            2039            2586     72.5840E-03     70.2347E-03
            2039            2587     49.1187E-03     48.0784E-03
            2039            2594     70.1627E-03     63.7193E-03
            2039            2595     50.4331E-03     46.7305E-03
            2040            2587     49.1187E-03     48.0784E-03
            2040            2588     32.1027E-03     33.1429E-03
            2040            2595     50.4331E-03     46.7305E-03
            2040            2596     35.2240E-03     33.8576E-03
            2041            2588     32.1027E-03     33.1429E-03
            2041            2589     26.9032E-03     28.8669E-03
            2041            2596     35.2240E-03     33.8576E-03
            2041            2597     30.3751E-03     29.4744E-03
            2042            2589     26.9032E-03     28.8669E-03
            2042            2590     37.0161E-03     37.8807E-03
            2042            2597     30.3751E-03     29.4744E-03
            2042            2598     38.6346E-03     35.7552E-03
            2043            2590     37.0161E-03     37.8807E-03
            2043            2591     57.9214E-03     57.3936E-03
            2043            2598     38.6346E-03     35.7552E-03
            2043            2599     55.4459E-03     49.4163E-03
            2044            2591     57.9214E-03     57.3936E-03
            2044            2592     85.3875E-03     83.4786E-03
            2044            2599     55.4459E-03     49.4163E-03
            2044            2600     78.5512E-03     69.9814E-03
            2045             122     91.8581E-03     82.4655E-03
            2045             123     100.253E-03     97.4342E-03
            2045            2592     85.3875E-03     83.4786E-03
            2045            2600     78.5512E-03     69.9814E-03
            2046             459     102.806E-03     99.4203E-03
            2046             460     110.862E-03     101.463E-03
            2046            2593     95.8203E-03     87.1911E-03
            2046            2601     92.7869E-03     89.1366E-03
            2047            2593     95.8203E-03     87.1911E-03
            2047            2594     70.1627E-03     63.7193E-03
            2047            2601     92.7869E-03     89.1366E-03
            2047            2602     72.9644E-03     69.0364E-03
            2048            2594     70.1627E-03     63.7193E-03
            2048            2595     50.4331E-03     46.7305E-03
            2048            2602     72.9644E-03     69.0364E-03
            2048            2603     54.5327E-03     51.0393E-03
            2049            2595     50.4331E-03     46.7305E-03
            2049            2596     35.2240E-03     33.8576E-03
            2049            2603     54.5327E-03     51.0393E-03
            2049            2604     40.3254E-03     37.2131E-03
            2050            2596     35.2240E-03     33.8576E-03
            2050            2597     30.3751E-03     29.4744E-03
            2050            2604     40.3254E-03     37.2131E-03
            2050            2605     35.1895E-03     31.5861E-03
            2051            2597     30.3751E-03     29.4744E-03
            2051            2598     38.6346E-03     35.7552E-03
            2051            2605     35.1895E-03     31.5861E-03
            2051            2606     41.8807E-03     37.1829E-03
            2052            2598     38.6346E-03     35.7552E-03
            2052            2599     55.4459E-03     49.4163E-03
            2052            2606     41.8807E-03     37.1829E-03
            2052            2607     56.6234E-03     51.0463E-03
            2053            2599     55.4459E-03     49.4163E-03
            2053            2600     78.5512E-03     69.9814E-03
            2053            2607     56.6234E-03     51.0463E-03
            2053            2608     73.5486E-03     68.5686E-03
            2054             121     81.9796E-03     77.8061E-03
            2054             122     91.8581E-03     82.4655E-03
            2054            2600     78.5512E-03     69.9814E-03
            2054            2608     73.5486E-03     68.5686E-03
            2055             458     109.426E-03     110.049E-03
            2055             459     102.806E-03     99.4203E-03
            2055            2601     92.7869E-03     89.1366E-03
            2055            2609     99.0703E-03     100.287E-03
            2056            2601     92.7869E-03     89.1366E-03
            2056            2602     72.9644E-03     69.0364E-03
            2056            2609     99.0703E-03     100.287E-03
            2056            2610     77.6217E-03     78.1767E-03
            2057            2602     72.9644E-03     69.0364E-03
            2057            2603     54.5327E-03     51.0393E-03
            2057            2610     77.6217E-03     78.1767E-03
            2057            2611     56.3986E-03     54.8254E-03
            2058            2603     54.5327E-03     51.0393E-03
            2058            2604     40.3254E-03     37.2131E-03
            2058            2611     56.3986E-03     54.8254E-03
            2058            2612     39.0915E-03     35.6202E-03
            2059            2604     40.3254E-03     37.2131E-03
            2059            2605     35.1895E-03     31.5861E-03
            2059            2612     39.0915E-03     35.6202E-03
            2059            2613     32.7333E-03     28.3934E-03
            2060            2605     35.1895E-03     31.5861E-03
            2060            2606     41.8807E-03     37.1829E-03
            2060            2613     32.7333E-03     28.3934E-03
            2060            2614     41.1915E-03     38.1061E-03
            2061            2606     41.8807E-03     37.1829E-03
            2061            2607     56.6234E-03     51.0463E-03
            2061            2614     41.1915E-03     38.1061E-03
            2061            2615     58.5492E-03     58.4270E-03
            2062            2607     56.6234E-03     51.0463E-03
            2062            2608     73.5486E-03     68.5686E-03
            2062            2615     58.5492E-03     58.4270E-03
            2062            2616     78.1938E-03     79.9154E-03
            2063             120     88.1202E-03     89.8210E-03
            2063             121     81.9796E-03     77.8061E-03
            2063            2608     73.5486E-03     68.5686E-03
            2063            2616     78.1938E-03     79.9154E-03
            2064             457     114.945E-03     114.066E-03
            2064             458     109.426E-03     110.049E-03
            2064            2609     99.0703E-03     100.287E-03
            2064            2617     103.356E-03     103.555E-03
            2065            2609     99.0703E-03     100.287E-03
            2065            2610     77.6217E-03     78.1767E-03
            2065            2617     103.356E-03     103.555E-03
            2065            2618     80.6344E-03     81.7219E-03
            2066            2610     77.6217E-03     78.1767E-03
            2066            2611     56.3986E-03     54.8254E-03
            2066            2618     80.6344E-03     81.7219E-03
            2066            2619     58.4718E-03     58.1462E-03
            2067            2611     56.3986E-03     54.8254E-03
            2067            2612     39.0915E-03     35.6202E-03
            2067            2619     58.4718E-03     58.1462E-03
            2067            2620     39.5850E-03     36.8673E-03
            2068            2612     39.0915E-03     35.6202E-03
            2068            2613     32.7333E-03     28.3934E-03
            2068            2620     39.5850E-03     36.8673E-03
            2068            2621     32.4289E-03     29.0026E-03
            2069            2613     32.7333E-03     28.3934E-03
            2069            2614     41.1915E-03     38.1061E-03
            2069            2621     32.4289E-03     29.0026E-03
            2069            2622     41.4966E-03     40.3826E-03
            2070            2614     41.1915E-03     38.1061E-03
            2070            2615     58.5492E-03     58.4270E-03
            2070            2622     41.4966E-03     40.3826E-03
            2070            2623     60.1724E-03     61.5623E-03
            2071            2615     58.5492E-03     58.4270E-03
            2071            2616     78.1938E-03     79.9154E-03
            2071            2623     60.1724E-03     61.5623E-03
            2071            2624     82.2066E-03     82.9987E-03
            2072             119     93.9333E-03     93.4749E-03
            2072             120     88.1202E-03     89.8210E-03
            2072            2616     78.1938E-03     79.9154E-03
            2072            2624     82.2066E-03     82.9987E-03
            2073             456     120.201E-03     118.756E-03
            2073             457     114.945E-03     114.066E-03
            2073            2617     103.356E-03     103.555E-03
            2073            2625     107.727E-03     107.012E-03
            2074            2617     103.356E-03     103.555E-03
            2074            2618     80.6344E-03     81.7219E-03
            2074            2625     107.727E-03     107.012E-03
            2074            2626     83.2506E-03     83.4700E-03
            2075            2618     80.6344E-03     81.7219E-03
            2075            2619     58.4718E-03     58.1462E-03
            2075            2626     83.2506E-03     83.4700E-03
            2075            2627     60.0613E-03     59.9173E-03
            2076            2619     58.4718E-03     58.1462E-03
            2076            2620     39.5850E-03     36.8673E-03
            2076            2627     60.0613E-03     59.9173E-03
            2076            2628     40.5780E-03     38.9083E-03
            2077            2620     39.5850E-03     36.8673E-03
            2077            2621     32.4289E-03     29.0026E-03
            2077            2628     40.5780E-03     38.9083E-03
            2077            2629     32.8745E-03     30.9574E-03
            2078            2621     32.4289E-03     29.0026E-03
            2078            2622     41.4966E-03     40.3826E-03
            2078            2629     32.8745E-03     30.9574E-03
            2078            2630     42.1252E-03     41.9864E-03
            2079            2622     41.4966E-03     40.3826E-03
            2079            2623     60.1724E-03     61.5623E-03
            2079            2630     42.1252E-03     41.9864E-03
            2079            2631     62.1980E-03     63.0311E-03
            2080            2623     60.1724E-03     61.5623E-03
            2080            2624     82.2066E-03     82.9987E-03
            2080            2631     62.1980E-03     63.0311E-03
            2080            2632     86.1090E-03     86.1485E-03
            2081             118     98.6058E-03     97.9460E-03
            2081             119     93.9333E-03     93.4749E-03
            2081            2624     82.2066E-03     82.9987E-03
            2081            2632     86.1090E-03     86.1485E-03
            2082             455     124.818E-03     123.063E-03
            2082             456     120.201E-03     118.756E-03
            2082            2625     107.727E-03     107.012E-03
            2082            2633     111.692E-03     110.564E-03
            2083            2625     107.727E-03     107.012E-03
            2083            2626     83.2506E-03     83.4700E-03
            2083            2633     111.692E-03     110.564E-03
            2083            2634     85.9898E-03     85.7646E-03
            2084            2626     83.2506E-03     83.4700E-03
            2084            2627     60.0613E-03     59.9173E-03
            2084            2634     85.9898E-03     85.7646E-03
            2084            2635     61.7212E-03     61.6123E-03
            2085            2627     60.0613E-03     59.9173E-03
            2085            2628     40.5780E-03     38.9083E-03
            2085            2635     61.7212E-03     61.6123E-03
            2085            2636     41.3788E-03     40.7512E-03
            2086            2628     40.5780E-03     38.9083E-03
            2086            2629     32.8745E-03     30.9574E-03
            2086            2636     41.3788E-03     40.7512E-03
            2086            2637     33.4319E-03     32.9177E-03
            2087            2629     32.8745E-03     30.9574E-03
            2087            2630     42.1252E-03     41.9864E-03
            2087            2637     33.4319E-03     32.9177E-03
            2087            2638     43.3027E-03     43.6707E-03
            2088            2630     42.1252E-03     41.9864E-03
            2088            2631     62.1980E-03     63.0311E-03
            2088            2638     43.3027E-03     43.6707E-03
            2088            2639     64.5152E-03     65.0932E-03
            2089            2631     62.1980E-03     63.0311E-03
            2089            2632     86.1090E-03     86.1485E-03
            2089            2639     64.5152E-03     65.0932E-03
            2089            2640     89.7906E-03     89.3898E-03
            2090             117     103.022E-03     101.841E-03
            2090             118     98.6058E-03     97.9460E-03
            2090            2632     86.1090E-03     86.1485E-03
            2090            2640     89.7906E-03     89.3898E-03
            2091             454     129.224E-03     127.298E-03
            2091             455     124.818E-03     123.063E-03
            2091            2633     111.692E-03     110.564E-03
            2091            2641     115.597E-03     114.322E-03
            2092            2633     111.692E-03     110.564E-03
            2092            2634     85.9898E-03     85.7646E-03
            2092            2641     115.597E-03     114.322E-03
            2092            2642     88.7984E-03     88.5783E-03
            2093            2634     85.9898E-03     85.7646E-03
            2093            2635     61.7212E-03     61.6123E-03
            2093            2642     88.7984E-03     88.5783E-03
            2093            2643     63.3265E-03     63.6181E-03
            2094            2635     61.7212E-03     61.6123E-03
            2094            2636     41.3788E-03     40.7512E-03
            2094            2643     63.3265E-03     63.6181E-03
            2094            2644     42.1734E-03     42.6738E-03
            2095            2636     41.3788E-03     40.7512E-03
            2095            2637     33.4319E-03     32.9177E-03
            2095            2644     42.1734E-03     42.6738E-03
            2095            2645     34.0253E-03     34.8555E-03
            2096            2637     33.4319E-03     32.9177E-03
            2096            2638     43.3027E-03     43.6707E-03
            2096            2645     34.0253E-03     34.8555E-03
            2096            2646     44.5732E-03     45.6255E-03
            2097            2638     43.3027E-03     43.6707E-03
            2097            2639     64.5152E-03     65.0932E-03
            2097            2646     44.5732E-03     45.6255E-03
            2097            2647     67.1148E-03     67.7013E-03
            2098            2639     64.5152E-03     65.0932E-03
            2098            2640     89.7906E-03     89.3898E-03
            2098            2647     67.1148E-03     67.7013E-03
            2098            2648     93.4552E-03     92.9203E-03
            2099             116     107.096E-03     105.899E-03
            2099             117     103.022E-03     101.841E-03
            2099            2640     89.7906E-03     89.3898E-03
            2099            2648     93.4552E-03     92.9203E-03
            2100             453     133.699E-03     131.806E-03
            2100             454     129.224E-03     127.298E-03
            2100            2641     115.597E-03     114.322E-03
            2100            2649     119.493E-03     118.330E-03
            2101            2641     115.597E-03     114.322E-03
            2101            2642     88.7984E-03     88.5783E-03
            2101            2649     119.493E-03     118.330E-03
            2101            2650     91.4364E-03     91.5979E-03
            2102            2642     88.7984E-03     88.5783E-03
            2102            2643     63.3265E-03     63.6181E-03
            2102            2650     91.4364E-03     91.5979E-03
            2102            2651     64.8989E-03     66.0765E-03
            2103            2643     63.3265E-03     63.6181E-03
            2103            2644     42.1734E-03     42.6738E-03
            2103            2651     64.8989E-03     66.0765E-03
            2103            2652     42.7498E-03     44.7093E-03
            2104            2644     42.1734E-03     42.6738E-03
            2104            2645     34.0253E-03     34.8555E-03
            2104            2652     42.7498E-03     44.7093E-03
            2104            2653     34.4471E-03     36.8366E-03
            2105            2645     34.0253E-03     34.8555E-03
            2105            2646     44.5732E-03     45.6255E-03
            2105            2653     34.4471E-03     36.8366E-03
            2105            2654     45.9387E-03     47.9573E-03
            2106            2646     44.5732E-03     45.6255E-03
            2106            2647     67.1148E-03     67.7013E-03
            2106            2654     45.9387E-03     47.9573E-03
            2106            2655     69.6032E-03     70.5708E-03
            2107            2647     67.1148E-03     67.7013E-03
            2107            2648     93.4552E-03     92.9203E-03
            2107            2655     69.6032E-03     70.5708E-03
            2107            2656     97.1756E-03     96.7194E-03
            2108             115     111.416E-03     110.146E-03
            2108             116     107.096E-03     105.899E-03
            2108            2648     93.4552E-03     92.9203E-03
            2108            2656     97.1756E-03     96.7194E-03
            2109             452     137.688E-03     135.899E-03
            2109             453     133.699E-03     131.806E-03
            2109            2649     119.493E-03     118.330E-03
            2109            2657     123.053E-03     122.408E-03
            2110            2649     119.493E-03     118.330E-03
            2110            2650     91.4364E-03     91.5979E-03
            2110            2657     123.053E-03     122.408E-03
            2110            2658     94.2224E-03     95.5097E-03
            2111            2650     91.4364E-03     91.5979E-03
            2111            2651     64.8989E-03     66.0765E-03
            2111            2658     94.2224E-03     95.5097E-03
            2111            2659     66.0823E-03     68.4030E-03
            2112            2651     64.8989E-03     66.0765E-03
            2112            2652     42.7498E-03     44.7093E-03
            2112            2659     66.0823E-03     68.4030E-03
            2112            2660     42.1218E-03     45.2399E-03
            2113            2652     42.7498E-03     44.7093E-03
            2113            2653     34.4471E-03     36.8366E-03
            2113            2660     42.1218E-03     45.2399E-03
            2113            2661     33.8041E-03     37.5906E-03
            2114            2653     34.4471E-03     36.8366E-03
            2114            2654     45.9387E-03     47.9573E-03
            2114            2661     33.8041E-03     37.5906E-03
            2114            2662     47.0299E-03     50.3963E-03
            2115            2654     45.9387E-03     47.9573E-03
            2115            2655     69.6032E-03     70.5708E-03
            2115            2662     47.0299E-03     50.3963E-03
            2115            2663     72.2727E-03     74.2159E-03
            2116            2655     69.6032E-03     70.5708E-03
            2116            2656     97.1756E-03     96.7194E-03
            2116            2663     72.2727E-03     74.2159E-03
            2116            2664     100.583E-03     100.634E-03
            2117             114     115.178E-03     114.224E-03
            2117             115     111.416E-03     110.146E-03
            2117            2656     97.1756E-03     96.7194E-03
            2117            2664     100.583E-03     100.634E-03
            2118             451     143.159E-03     142.720E-03
            2118             452     137.688E-03     135.899E-03
            2118            2657     123.053E-03     122.408E-03
            2118            2665     128.037E-03     128.656E-03
            2119            2657     123.053E-03     122.408E-03
            2119            2658     94.2224E-03     95.5097E-03
            2119            2665     128.037E-03     128.656E-03
            2119            2666     96.1904E-03     97.7493E-03
            2120            2658     94.2224E-03     95.5097E-03
            2120            2659     66.0823E-03     68.4030E-03
            2120            2666     96.1904E-03     97.7493E-03
            2120            2667     64.8125E-03     66.5276E-03
            2121            2659     66.0823E-03     68.4030E-03
            2121            2660     42.1218E-03     45.2399E-03
            2121            2667     64.8125E-03     66.5276E-03
            2121            2668     39.7848E-03     42.9219E-03
            2122            2660     42.1218E-03     45.2399E-03
            2122            2661     33.8041E-03     37.5906E-03
            2122            2668     39.7848E-03     42.9219E-03
            2122            2669     31.2030E-03     35.3692E-03
            2123            2661     33.8041E-03     37.5906E-03
            2123            2662     47.0299E-03     50.3963E-03
            2123            2669     31.2030E-03     35.3692E-03
            2123            2670     45.6190E-03     49.0256E-03
            2124            2662     47.0299E-03     50.3963E-03
            2124            2663     72.2727E-03     74.2159E-03
            2124            2670     45.6190E-03     49.0256E-03
            2124            2671     74.1824E-03     76.6452E-03
            2125            2663     72.2727E-03     74.2159E-03
            2125            2664     100.583E-03     100.634E-03
            2125            2671     74.1824E-03     76.6452E-03
            2125            2672     105.249E-03     106.288E-03
            2126             113     120.376E-03     120.295E-03
            2126             114     115.178E-03     114.224E-03
            2126            2664     100.583E-03     100.634E-03
            2126            2672     105.249E-03     106.288E-03
            2127             450     152.358E-03     146.546E-03
            2127             451     143.159E-03     142.720E-03
            2127            2665     128.037E-03     128.656E-03
            2127            2673     131.929E-03     127.026E-03
            2128            2665     128.037E-03     128.656E-03
            2128            2666     96.1904E-03     97.7493E-03
            2128            2673     131.929E-03     127.026E-03
            2128            2674     93.4698E-03     89.8294E-03
            2129            2666     96.1904E-03     97.7493E-03
            2129            2667     64.8125E-03     66.5276E-03
            2129            2674     93.4698E-03     89.8294E-03
            2129            2675     60.8322E-03     58.7881E-03
            2130            2667     64.8125E-03     66.5276E-03
            2130            2668     39.7848E-03     42.9219E-03
            2130            2675     60.8322E-03     58.7881E-03
            2130            2676     34.3752E-03     35.3427E-03
            2131            2668     39.7848E-03     42.9219E-03
            2131            2669     31.2030E-03     35.3692E-03
            2131            2676     34.3752E-03     35.3427E-03
            2131            2677     25.3984E-03     27.7092E-03
            2132            2669     31.2030E-03     35.3692E-03
            2132            2670     45.6190E-03     49.0256E-03
            2132            2677     25.3984E-03     27.7092E-03
            2132            2678     41.3673E-03     41.8166E-03
            2133            2670     45.6190E-03     49.0256E-03
            2133            2671     74.1824E-03     76.6452E-03
            2133            2678     41.3673E-03     41.8166E-03
            2133            2679     71.6302E-03     70.0992E-03
            2134            2671     74.1824E-03     76.6452E-03
            2134            2672     105.249E-03     106.288E-03
            2134            2679     71.6302E-03     70.0992E-03
            2134            2680     108.364E-03     105.339E-03
            2135             112     127.933E-03     123.955E-03
            2135             113     120.376E-03     120.295E-03
            2135            2672     105.249E-03     106.288E-03
            2135            2680     108.364E-03     105.339E-03
            2136             449     146.817E-03     134.279E-03
            2136             450     152.358E-03     146.546E-03
            2136            2673     131.929E-03     127.026E-03
            2136            2681     126.017E-03     114.397E-03
            2137            2673     131.929E-03     127.026E-03
            2137            2674     93.4698E-03     89.8294E-03
            2137            2681     126.017E-03     114.397E-03
            2137            2682     90.4368E-03     81.5770E-03
            2138            2674     93.4698E-03     89.8294E-03
            2138            2675     60.8322E-03     58.7881E-03
            2138            2682     90.4368E-03     81.5770E-03
            2138            2683     62.1660E-03     56.8637E-03
            2139            2675     60.8322E-03     58.7881E-03
            2139            2676     34.3752E-03     35.3427E-03
            2139            2683     62.1660E-03     56.8637E-03
            2139            2684     38.5039E-03     36.4386E-03
            2140            2676     34.3752E-03     35.3427E-03
            2140            2677     25.3984E-03     27.7092E-03
            2140            2684     38.5039E-03     36.4386E-03
            2140            2685     30.3873E-03     28.9913E-03
            2141            2677     25.3984E-03     27.7092E-03
            2141            2678     41.3673E-03     41.8166E-03
            2141            2685     30.3873E-03     28.9913E-03
            2141            2686     43.6812E-03     39.4482E-03
            2142            2678     41.3673E-03     41.8166E-03
            2142            2679     71.6302E-03     70.0992E-03
            2142            2686     43.6812E-03     39.4482E-03
            2142            2687     68.8765E-03     60.5769E-03
            2143            2679     71.6302E-03     70.0992E-03
            2143            2680     108.364E-03     105.339E-03
            2143            2687     68.8765E-03     60.5769E-03
            2143            2688     101.511E-03     90.1955E-03
            2144             111     120.189E-03     107.941E-03
            2144             112     127.933E-03     123.955E-03
            2144            2680     108.364E-03     105.339E-03
            2144            2688     101.511E-03     90.1955E-03
            2145             448     139.242E-03     134.512E-03
            2145             449     146.817E-03     134.279E-03
            2145            2681     126.017E-03     114.397E-03
            2145            2689     123.986E-03     119.150E-03
            2146            2681     126.017E-03     114.397E-03
            2146            2682     90.4368E-03     81.5770E-03
            2146            2689     123.986E-03     119.150E-03
            2146            2690     94.2460E-03     89.3061E-03
            2147            2682     90.4368E-03     81.5770E-03
            2147            2683     62.1660E-03     56.8637E-03
            2147            2690     94.2460E-03     89.3061E-03
            2147            2691     66.8744E-03     62.5798E-03
            2148            2683     62.1660E-03     56.8637E-03
            2148            2684     38.5039E-03     36.4386E-03
            2148            2691     66.8744E-03     62.5798E-03
            2148            2692     44.8514E-03     41.1262E-03
            2149            2684     38.5039E-03     36.4386E-03
            2149            2685     30.3873E-03     28.9913E-03
            2149            2692     44.8514E-03     41.1262E-03
            2149            2693     36.5391E-03     32.1828E-03
            2150            2685     30.3873E-03     28.9913E-03
            2150            2686     43.6812E-03     39.4482E-03
            2150            2693     36.5391E-03     32.1828E-03
            2150            2694     47.5408E-03     41.8972E-03
            2151            2686     43.6812E-03     39.4482E-03
            2151            2687     68.8765E-03     60.5769E-03
            2151            2694     47.5408E-03     41.8972E-03
            2151            2695     70.7742E-03     64.2523E-03
            2152            2687     68.8765E-03     60.5769E-03
            2152            2688     101.511E-03     90.1955E-03
            2152            2695     70.7742E-03     64.2523E-03
            2152            2696     97.3985E-03     91.4346E-03
            2153             110     110.967E-03     105.711E-03
            2153             111     120.189E-03     107.941E-03
            2153            2688     101.511E-03     90.1955E-03
            2153            2696     97.3985E-03     91.4346E-03
            2154             447     145.007E-03     145.639E-03
            2154             448     139.242E-03     134.512E-03
            2154            2689     123.986E-03     119.150E-03
            2154            2697     130.384E-03     131.902E-03
            2155            2689     123.986E-03     119.150E-03
            2155            2690     94.2460E-03     89.3061E-03
            2155            2697     130.384E-03     131.902E-03
            2155            2698     99.9478E-03     100.991E-03
            2156            2690     94.2460E-03     89.3061E-03
            2156            2691     66.8744E-03     62.5798E-03
            2156            2698     99.9478E-03     100.991E-03
            2156            2699     69.3904E-03     68.0759E-03
            2157            2691     66.8744E-03     62.5798E-03
            2157            2692     44.8514E-03     41.1262E-03
            2157            2699     69.3904E-03     68.0759E-03
            2157            2700     43.1027E-03     39.3362E-03
            2158            2692     44.8514E-03     41.1262E-03
            2158            2693     36.5391E-03     32.1828E-03
            2158            2700     43.1027E-03     39.3362E-03
            2158            2701     33.0604E-03     28.1611E-03
            2159            2693     36.5391E-03     32.1828E-03
            2159            2694     47.5408E-03     41.8972E-03
            2159            2701     33.0604E-03     28.1611E-03
            2159            2702     46.6673E-03     43.6376E-03
            2160            2694     47.5408E-03     41.8972E-03
            2160            2695     70.7742E-03     64.2523E-03
            2160            2702     46.6673E-03     43.6376E-03
            2160            2703     73.2997E-03     73.8101E-03
            2161            2695     70.7742E-03     64.2523E-03
            2161            2696     97.3985E-03     91.4346E-03
            2161            2703     73.2997E-03     73.8101E-03
            2161            2704     102.228E-03     104.413E-03
            2162             109     116.629E-03     118.495E-03
            2162             110     110.967E-03     105.711E-03
            2162            2696     97.3985E-03     91.4346E-03
            2162            2704     102.228E-03     104.413E-03
            2163             446     150.134E-03     148.832E-03
            2163             447     145.007E-03     145.639E-03
            2163            2697     130.384E-03     131.902E-03
            2163            2705     134.386E-03     134.600E-03
            2164            2697     130.384E-03     131.902E-03
            2164            2698     99.9478E-03     100.991E-03
            2164            2705     134.386E-03     134.600E-03
            2164            2706     103.101E-03     104.812E-03
            2165            2698     99.9478E-03     100.991E-03
            2165            2699     69.3904E-03     68.0759E-03
            2165            2706     103.101E-03     104.812E-03
            2165            2707     71.7849E-03     72.1344E-03
            2166            2699     69.3904E-03     68.0759E-03
            2166            2700     43.1027E-03     39.3362E-03
            2166            2707     71.7849E-03     72.1344E-03
            2166            2708     43.6445E-03     40.9894E-03
            2167            2700     43.1027E-03     39.3362E-03
            2167            2701     33.0604E-03     28.1611E-03
            2167            2708     43.6445E-03     40.9894E-03
            2167            2709     32.4504E-03     28.9135E-03
            2168            2701     33.0604E-03     28.1611E-03
            2168            2702     46.6673E-03     43.6376E-03
            2168            2709     32.4504E-03     28.9135E-03
            2168            2710     46.8294E-03     46.3009E-03
            2169            2702     46.6673E-03     43.6376E-03
            2169            2703     73.2997E-03     73.8101E-03
            2169            2710     46.8294E-03     46.3009E-03
            2169            2711     75.0176E-03     77.1897E-03
            2170            2703     73.2997E-03     73.8101E-03
            2170            2704     102.228E-03     104.413E-03
            2170            2711     75.0176E-03     77.1897E-03
            2170            2712     106.087E-03     107.058E-03
            2171             108     122.182E-03     121.476E-03
            2171             109     116.629E-03     118.495E-03
            2171            2704     102.228E-03     104.413E-03
            2171            2712     106.087E-03     107.058E-03
            2172             445     155.229E-03     153.553E-03
            2172             446     150.134E-03     148.832E-03
            2172            2705     134.386E-03     134.600E-03
            2172            2713     138.552E-03     137.819E-03
            2173            2705     134.386E-03     134.600E-03
            2173            2706     103.101E-03     104.812E-03
            2173            2713     138.552E-03     137.819E-03
            2173            2714     105.601E-03     106.275E-03
            2174            2706     103.101E-03     104.812E-03
            2174            2707     71.7849E-03     72.1344E-03
            2174            2714     105.601E-03     106.275E-03
            2174            2715     73.5077E-03     74.0794E-03
            2175            2707     71.7849E-03     72.1344E-03
            2175            2708     43.6445E-03     40.9894E-03
            2175            2715     73.5077E-03     74.0794E-03
            2175            2716     44.5922E-03     43.2559E-03
            2176            2708     43.6445E-03     40.9894E-03
            2176            2709     32.4504E-03     28.9135E-03
            2176            2716     44.5922E-03     43.2559E-03
            2176            2717     32.7939E-03     31.1808E-03
            2177            2709     32.4504E-03     28.9135E-03
            2177            2710     46.8294E-03     46.3009E-03
            2177            2717     32.7939E-03     31.1808E-03
            2177            2718     47.5341E-03     48.1575E-03
            2178            2710     46.8294E-03     46.3009E-03
            2178            2711     75.0176E-03     77.1897E-03
            2178            2718     47.5341E-03     48.1575E-03
            2178            2719     76.9416E-03     78.3966E-03
            2179            2711     75.0176E-03     77.1897E-03
            2179            2712     106.087E-03     107.058E-03
            2179            2719     76.9416E-03     78.3966E-03
            2179            2720     109.822E-03     110.019E-03
            2180             107     126.736E-03     126.014E-03
            2180             108     122.182E-03     121.476E-03
            2180            2712     106.087E-03     107.058E-03
            2180            2720     109.822E-03     110.019E-03
            2181             444     159.569E-03     157.327E-03
            2181             445     155.229E-03     153.553E-03
            2181            2713     138.552E-03     137.819E-03
            2181            2721     142.407E-03     141.265E-03
            2182            2713     138.552E-03     137.819E-03
            2182            2714     105.601E-03     106.275E-03
            2182            2721     142.407E-03     141.265E-03
            2182            2722     108.311E-03     108.690E-03
            2183            2714     105.601E-03     106.275E-03
            2183            2715     73.5077E-03     74.0794E-03
            2183            2722     108.311E-03     108.690E-03
            2183            2723     75.0242E-03     75.7131E-03
            2184            2715     73.5077E-03     74.0794E-03
            2184            2716     44.5922E-03     43.2559E-03
            2184            2723     75.0242E-03     75.7131E-03
            2184            2724     45.5005E-03     45.6566E-03
            2185            2716     44.5922E-03     43.2559E-03
            2185            2717     32.7939E-03     31.1808E-03
            2185            2724     45.5005E-03     45.6566E-03
            2185            2725     33.4529E-03     33.8251E-03
            2186            2717     32.7939E-03     31.1808E-03
            2186            2718     47.5341E-03     48.1575E-03
            2186            2725     33.4529E-03     33.8251E-03
            2186            2726     48.5797E-03     49.9408E-03
            2187            2718     47.5341E-03     48.1575E-03
            2187            2719     76.9416E-03     78.3966E-03
            2187            2726     48.5797E-03     49.9408E-03
            2187            2727     79.2714E-03     80.6085E-03
            2188            2719     76.9416E-03     78.3966E-03
            2188            2720     109.822E-03     110.019E-03
            2188            2727     79.2714E-03     80.6085E-03
            2188            2728     113.418E-03     113.192E-03
            2189             106     130.874E-03     129.461E-03
            2189             107     126.736E-03     126.014E-03
            2189            2720     109.822E-03     110.019E-03
            2189            2728     113.418E-03     113.192E-03
            2190             443     163.752E-03     161.697E-03
            2190             444     159.569E-03     157.327E-03
            2190            2721     142.407E-03     141.265E-03
            2190            2729     145.993E-03     144.886E-03
            2191            2721     142.407E-03     141.265E-03
            2191            2722     108.311E-03     108.690E-03
            2191            2729     145.993E-03     144.886E-03
            2191            2730     110.756E-03     111.346E-03
            2192            2722     108.311E-03     108.690E-03
            2192            2723     75.0242E-03     75.7131E-03
            2192            2730     110.756E-03     111.346E-03
            2192            2731     76.5583E-03     78.1264E-03
            2193            2723     75.0242E-03     75.7131E-03
            2193            2724     45.5005E-03     45.6566E-03
            2193            2731     76.5583E-03     78.1264E-03
            2193            2732     46.1895E-03     48.1932E-03
            2194            2724     45.5005E-03     45.6566E-03
            2194            2725     33.4529E-03     33.8251E-03
            2194            2732     46.1895E-03     48.1932E-03
            2194            2733     33.9556E-03     36.4832E-03
            2195            2725     33.4529E-03     33.8251E-03
            2195            2726     48.5797E-03     49.9408E-03
            2195            2733     33.9556E-03     36.4832E-03
            2195            2734     49.8732E-03     52.4717E-03
            2196            2726     48.5797E-03     49.9408E-03
            2196            2727     79.2714E-03     80.6085E-03
            2196            2734     49.8732E-03     52.4717E-03
            2196            2735     81.5957E-03     83.1803E-03
            2197            2727     79.2714E-03     80.6085E-03
            2197            2728     113.418E-03     113.192E-03
            2197            2735     81.5957E-03     83.1803E-03
            2197            2736     116.828E-03     116.632E-03
            2198             105     134.841E-03     133.632E-03
            2198             106     130.874E-03     129.461E-03
            2198            2728     113.418E-03     113.192E-03
            2198            2736     116.828E-03     116.632E-03
            2199             442     167.334E-03     165.222E-03
            2199             443     163.752E-03     161.697E-03
            2199            2729     145.993E-03     144.886E-03
            2199            2737     149.245E-03     148.677E-03
            2200            2729     145.993E-03     144.886E-03
            2200            2730     110.756E-03     111.346E-03
            2200            2737     149.245E-03     148.677E-03
            2200            2738     113.353E-03     115.164E-03
            2201            2730     110.756E-03     111.346E-03
            2201            2731     76.5583E-03     78.1264E-03
            2201            2738     113.353E-03     115.164E-03
            2201            2739     77.6465E-03     80.3593E-03
            2202            2731     76.5583E-03     78.1264E-03
            2202            2732     46.1895E-03     48.1932E-03
            2202            2739     77.6465E-03     80.3593E-03
            2202            2740     45.4702E-03     48.8709E-03
            2203            2732     46.1895E-03     48.1932E-03
            2203            2733     33.9556E-03     36.4832E-03
            2203            2740     45.4702E-03     48.8709E-03
            2203            2741     33.3214E-03     37.6717E-03
            2204            2733     33.9556E-03     36.4832E-03
            2204            2734     49.8732E-03     52.4717E-03
            2204            2741     33.3214E-03     37.6717E-03
            2204            2742     51.0116E-03     55.1699E-03
            2205            2734     49.8732E-03     52.4717E-03
            2205            2735     81.5957E-03     83.1803E-03
            2205            2742     51.0116E-03     55.1699E-03
            2205            2743     84.1239E-03     86.8205E-03
            2206            2735     81.5957E-03     83.1803E-03
            2206            2736     116.828E-03     116.632E-03
            2206            2743     84.1239E-03     86.8205E-03
            2206            2744     119.950E-03     120.269E-03
            2207             104     138.229E-03     137.112E-03
            2207             105     134.841E-03     133.632E-03
            2207            2736     116.828E-03     116.632E-03
            2207            2744     119.950E-03     120.269E-03
            2208             441     172.386E-03     172.036E-03
            2208             442     167.334E-03     165.222E-03
            2208            2737     149.245E-03     148.677E-03
            2208            2745     153.911E-03     154.822E-03
            2209            2737     149.245E-03     148.677E-03
            2209            2738     113.353E-03     115.164E-03
            2209            2745     153.911E-03     154.822E-03
            2209            2746     114.986E-03     116.846E-03
            2210            2738     113.353E-03     115.164E-03
            2210            2739     77.6465E-03     80.3593E-03
            2210            2746     114.986E-03     116.846E-03
            2210            2747     76.0479E-03     77.7547E-03
            2211            2739     77.6465E-03     80.3593E-03
            2211            2740     45.4702E-03     48.8709E-03
            2211            2747     76.0479E-03     77.7547E-03
            2211            2748     42.9823E-03     46.3547E-03
            2212            2740     45.4702E-03     48.8709E-03
            2212            2741     33.3214E-03     37.6717E-03
            2212            2748     42.9823E-03     46.3547E-03
            2212            2749     30.6114E-03     35.3896E-03
            2213            2741     33.3214E-03     37.6717E-03
            2213            2742     51.0116E-03     55.1699E-03
            2213            2749     30.6114E-03     35.3896E-03
            2213            2750     49.4516E-03     53.3894E-03
            2214            2742     51.0116E-03     55.1699E-03
            2214            2743     84.1239E-03     86.8205E-03
            2214            2750     49.4516E-03     53.3894E-03
            2214            2751     85.8359E-03     88.8587E-03
            2215            2743     84.1239E-03     86.8205E-03
            2215            2744     119.950E-03     120.269E-03
            2215            2751     85.8359E-03     88.8587E-03
            2215            2752     124.253E-03     125.770E-03
            2216             103     142.920E-03     143.106E-03
            2216             104     138.229E-03     137.112E-03
            2216            2744     119.950E-03     120.269E-03
            2216            2752     124.253E-03     125.770E-03
            2217             440     181.311E-03     174.343E-03
            2217             441     172.386E-03     172.036E-03
            2217            2745     153.911E-03     154.822E-03
            2217            2753     157.111E-03     151.075E-03
            2218            2745     153.911E-03     154.822E-03
            2218            2746     114.986E-03     116.846E-03
            2218            2753     157.111E-03     151.075E-03
            2218            2754     111.330E-03     106.565E-03
            2219            2746     114.986E-03     116.846E-03
            2219            2747     76.0479E-03     77.7547E-03
            2219            2754     111.330E-03     106.565E-03
            2219            2755     71.6263E-03     68.6116E-03
            2220            2747     76.0479E-03     77.7547E-03
            2220            2748     42.9823E-03     46.3547E-03
            2220            2755     71.6263E-03     68.6116E-03
            2220            2756     37.3644E-03     37.9641E-03
            2221            2748     42.9823E-03     46.3547E-03
            2221            2749     30.6114E-03     35.3896E-03
            2221            2756     37.3644E-03     37.9641E-03
            2221            2757     24.6733E-03     26.9310E-03
            2222            2749     30.6114E-03     35.3896E-03
            2222            2750     49.4516E-03     53.3894E-03
            2222            2757     24.6733E-03     26.9310E-03
            2222            2758     45.0958E-03     45.0374E-03
            2223            2750     49.4516E-03     53.3894E-03
            2223            2751     85.8359E-03     88.8587E-03
            2223            2758     45.0958E-03     45.0374E-03
            2223            2759     82.7761E-03     80.3766E-03
            2224            2751     85.8359E-03     88.8587E-03
            2224            2752     124.253E-03     125.770E-03
            2224            2759     82.7761E-03     80.3766E-03
            2224            2760     126.700E-03     122.768E-03
            2225             102     149.918E-03     145.023E-03
            2225             103     142.920E-03     143.106E-03
            2225            2752     124.253E-03     125.770E-03
            2225            2760     126.700E-03     122.768E-03
            2226              21     173.435E-03     165.274E-03
            2226             439     150.051E-03     142.731E-03
            2226             440     181.311E-03     174.343E-03
            2226            2753     157.111E-03     151.075E-03
            2227             438     108.165E-03     102.655E-03
            2227             439     150.051E-03     142.731E-03
            2227            2753     157.111E-03     151.075E-03
            2227            2754     111.330E-03     106.565E-03
            2228             437     72.6309E-03     69.1472E-03
            2228             438     108.165E-03     102.655E-03
            2228            2754     111.330E-03     106.565E-03
            2228            2755     71.6263E-03     68.6116E-03
            2229             436     41.5865E-03     40.3014E-03
            2229             437     72.6309E-03     69.1472E-03
            2229            2755     71.6263E-03     68.6116E-03
            2229            2756     37.3644E-03     37.9641E-03
            2230             435     30.7901E-03     30.4596E-03
            2230             436     41.5865E-03     40.3014E-03
            2230            2756     37.3644E-03     37.9641E-03
            2230            2757     24.6733E-03     26.9310E-03
            2231             434     49.3032E-03     47.6371E-03
            2231             435     30.7901E-03     30.4596E-03
            2231            2757     24.6733E-03     26.9310E-03
            2231            2758     45.0958E-03     45.0374E-03
            2232             433     82.4435E-03     78.7911E-03
            2232             434     49.3032E-03     47.6371E-03
            2232            2758     45.0958E-03     45.0374E-03
            2232            2759     82.7761E-03     80.3766E-03
            2233             432     122.395E-03     117.341E-03
            2233             433     82.4435E-03     78.7911E-03
            2233            2759     82.7761E-03     80.3766E-03
            2233            2760     126.700E-03     122.768E-03
            2234               6     144.504E-03     138.887E-03
            2234             102     149.918E-03     145.023E-03
            2234             432     122.395E-03     117.341E-03
            2234            2760     126.700E-03     122.768E-03
            2235               3     13.0966E-03     13.3488E-03
            2235              38     943.637E-06     934.977E-06
            2235             431     14.4597E-03     14.4786E-03
            2235            2761     1.02096E-03     1.02229E-03
            2236             430     16.1873E-03     16.0256E-03
            2236             431     14.4597E-03     14.4786E-03
            2236            2761     1.02096E-03     1.02229E-03
            2236            2762     1.09788E-03     1.10700E-03
            2237             429     17.0848E-03     16.9679E-03
            2237             430     16.1873E-03     16.0256E-03
            2237            2762     1.09788E-03     1.10700E-03
            2237            2763     1.10064E-03     1.10735E-03
            2238             428     17.6704E-03     17.5765E-03
            2238             429     17.0848E-03     16.9679E-03
            2238            2763     1.10064E-03     1.10735E-03
            2238            2764     1.09578E-03     1.10184E-03
            2239             427     17.6231E-03     17.5688E-03
            2239             428     17.6704E-03     17.5765E-03
            2239            2764     1.09578E-03     1.10184E-03
            2239            2765     1.09578E-03     1.10184E-03
            2240             426     16.9598E-03     16.9059E-03
            2240             427     17.6231E-03     17.5688E-03
            2240            2765     1.09578E-03     1.10184E-03
            2240            2766     1.10064E-03     1.10735E-03
            2241             425     15.8817E-03     15.9003E-03
            2241             426     16.9598E-03     16.9059E-03
            2241            2766     1.10064E-03     1.10735E-03
            2241            2767     1.09788E-03     1.10700E-03
            2242             424     13.8993E-03     13.9660E-03
            2242             425     15.8817E-03     15.9003E-03
            2242            2767     1.09788E-03     1.10700E-03
            2242            2768     1.02096E-03     1.02229E-03
            2243              17     12.4317E-03     12.4658E-03
            2243             306     943.637E-06     934.977E-06
            2243             424     13.8993E-03     13.9660E-03
            2243            2768     1.02096E-03     1.02229E-03
            2244              38     943.637E-06     934.977E-06
            2244              39     775.008E-06     783.984E-06
            2244            2761     1.02096E-03     1.02229E-03
            2244            2769     941.441E-06     947.650E-06
            2245            2761     1.02096E-03     1.02229E-03
            2245            2762     1.09788E-03     1.10700E-03
            2245            2769     941.441E-06     947.650E-06
            2245            2770     1.12540E-03     1.13327E-03
            2246            2762     1.09788E-03     1.10700E-03
            2246            2763     1.10064E-03     1.10735E-03
            2246            2770     1.12540E-03     1.13327E-03
            2246            2771     1.12526E-03     1.13545E-03
            2247            2763     1.10064E-03     1.10735E-03
            2247            2764     1.09578E-03     1.10184E-03
            2247            2771     1.12526E-03     1.13545E-03
            2247            2772     1.11206E-03     1.12042E-03
            2248            2764     1.09578E-03     1.10184E-03
            2248            2765     1.09578E-03     1.10184E-03
            2248            2772     1.11206E-03     1.12042E-03
            2248            2773     1.11206E-03     1.12042E-03
            2249            2765     1.09578E-03     1.10184E-03
            2249            2766     1.10064E-03     1.10735E-03
            2249            2773     1.11206E-03     1.12042E-03
            2249            2774     1.12526E-03     1.13545E-03
            2250            2766     1.10064E-03     1.10735E-03
            2250            2767     1.09788E-03     1.10700E-03
            2250            2774     1.12526E-03     1.13545E-03
            2250            2775     1.12540E-03     1.13327E-03
            2251            2767     1.09788E-03     1.10700E-03
            2251            2768     1.02096E-03     1.02229E-03
            2251            2775     1.12540E-03     1.13327E-03
            2251            2776     941.441E-06     947.650E-06
            2252             306     943.637E-06     934.977E-06
            2252             307     775.008E-06     783.984E-06
            2252            2768     1.02096E-03     1.02229E-03
            2252            2776     941.441E-06     947.650E-06
            2253              39     775.008E-06     783.984E-06
            2253              40     763.122E-06     767.976E-06
            2253            2769     941.441E-06     947.650E-06
            2253            2777     915.323E-06     918.678E-06
            2254            2769     941.441E-06     947.650E-06
            2254            2770     1.12540E-03     1.13327E-03
            2254            2777     915.323E-06     918.678E-06
            2254            2778     1.09073E-03     1.09394E-03
            2255            2770     1.12540E-03     1.13327E-03
            2255            2771     1.12526E-03     1.13545E-03
            2255            2778     1.09073E-03     1.09394E-03
            2255            2779     1.12225E-03     1.12803E-03
            2256            2771     1.12526E-03     1.13545E-03
            2256            2772     1.11206E-03     1.12042E-03
            2256            2779     1.12225E-03     1.12803E-03
            2256            2780     1.12473E-03     1.13128E-03
            2257            2772     1.11206E-03     1.12042E-03
            2257            2773     1.11206E-03     1.12042E-03
            2257            2780     1.12473E-03     1.13128E-03
            2257            2781     1.12473E-03     1.13128E-03
            2258            2773     1.11206E-03     1.12042E-03
            2258            2774     1.12526E-03     1.13545E-03
            2258            2781     1.12473E-03     1.13128E-03
            2258            2782     1.12225E-03     1.12803E-03
            2259            2774     1.12526E-03     1.13545E-03
            2259            2775     1.12540E-03     1.13327E-03
            2259            2782     1.12225E-03     1.12803E-03
            2259            2783     1.09073E-03     1.09394E-03
            2260            2775     1.12540E-03     1.13327E-03
            2260            2776     941.441E-06     947.650E-06
            2260            2783     1.09073E-03     1.09394E-03
            2260            2784     915.323E-06     918.678E-06
            2261             307     775.008E-06     783.984E-06
            2261             308     763.122E-06     767.976E-06
            2261            2776     941.441E-06     947.650E-06
            2261            2784     915.323E-06     918.678E-06
            2262               4     799.683E-06     798.528E-06
            2262              40     763.122E-06     767.976E-06
            2262             496     920.464E-06     923.293E-06
            2262            2777     915.323E-06     918.678E-06
            2263             495     1.05995E-03     1.06241E-03
            2263             496     920.464E-06     923.293E-06
            2263            2777     915.323E-06     918.678E-06
            2263            2778     1.09073E-03     1.09394E-03
            2264             494     1.11366E-03     1.11550E-03
            2264             495     1.05995E-03     1.06241E-03
            2264            2778     1.09073E-03     1.09394E-03
            2264            2779     1.12225E-03     1.12803E-03
            2265             493     1.13145E-03     1.13604E-03
            2265             494     1.11366E-03     1.11550E-03
            2265            2779     1.12225E-03     1.12803E-03
            2265            2780     1.12473E-03     1.13128E-03
            2266             492     1.13145E-03     1.13604E-03
            2266             493     1.13145E-03     1.13604E-03
            2266            2780     1.12473E-03     1.13128E-03
            2266            2781     1.12473E-03     1.13128E-03
            2267             491     1.11366E-03     1.11550E-03
            2267             492     1.13145E-03     1.13604E-03
            2267            2781     1.12473E-03     1.13128E-03
            2267            2782     1.12225E-03     1.12803E-03
            2268             490     1.05995E-03     1.06241E-03
            2268             491     1.11366E-03     1.11550E-03
            2268            2782     1.12225E-03     1.12803E-03
            2268            2783     1.09073E-03     1.09394E-03
            2269             489     920.464E-06     923.293E-06
            2269             490     1.05995E-03     1.06241E-03
            2269            2783     1.09073E-03     1.09394E-03
            2269            2784     915.323E-06     918.678E-06
            2270              18     799.683E-06     798.528E-06
            2270             308     763.122E-06     767.976E-06
            2270             489     920.464E-06     923.293E-06
            2270            2784     915.323E-06     918.678E-06
            3851              22     177.405E-03     166.074E-03
            3851             609     146.717E-03     137.964E-03
            3851             629     172.229E-03     156.621E-03
            3851            4163     147.751E-03     131.933E-03
            3852             609     146.717E-03     137.964E-03
            3852             610     95.2175E-03     90.9100E-03
            3852            4163     147.751E-03     131.933E-03
            3852            4164     100.702E-03     85.5543E-03
            3853             610     95.2175E-03     90.9100E-03
            3853             611     55.3483E-03     55.4382E-03
            3853            4164     100.702E-03     85.5543E-03
            3853            4165     59.5161E-03     48.6389E-03
            3854             611     55.3483E-03     55.4382E-03
            3854             612     22.7896E-03     28.6355E-03
            3854            4165     59.5161E-03     48.6389E-03
            3854            4166     29.9594E-03     31.1994E-03
            3855             612     22.7896E-03     28.6355E-03
            3855             613     25.4411E-03     28.7909E-03
            3855            4166     29.9594E-03     31.1994E-03
            3855            4167     33.8932E-03     43.5686E-03
            3856             613     25.4411E-03     28.7909E-03
            3856             614     60.6250E-03     56.8580E-03
            3856            4167     33.8932E-03     43.5686E-03
            3856            4168     67.7551E-03     75.2954E-03
            3857             614     60.6250E-03     56.8580E-03
            3857             615     100.390E-03     93.3153E-03
            3857            4168     67.7551E-03     75.2954E-03
            3857            4169     110.005E-03     114.131E-03
            3858             615     100.390E-03     93.3153E-03
            3858             616     151.568E-03     140.744E-03
            3858            4169     110.005E-03     114.131E-03
            3858            4170     159.812E-03     159.408E-03
            3859               8     182.012E-03     169.352E-03
            3859             182     186.356E-03     182.992E-03
            3859             616     151.568E-03     140.744E-03
            3859            4170     159.812E-03     159.408E-03
            3860             628     156.328E-03     159.557E-03
            3860             629     172.229E-03     156.621E-03
            3860            4163     147.751E-03     131.933E-03
            3860            4171     137.556E-03     141.334E-03
            3861            4163     147.751E-03     131.933E-03
            3861            4164     100.702E-03     85.5543E-03
            3861            4171     137.556E-03     141.334E-03
            3861            4172     99.0345E-03     101.319E-03
            3862            4164     100.702E-03     85.5543E-03
            3862            4165     59.5161E-03     48.6389E-03
            3862            4172     99.0345E-03     101.319E-03
            3862            4173     61.0101E-03     61.8034E-03
            3863            4165     59.5161E-03     48.6389E-03
            3863            4166     29.9594E-03     31.1994E-03
            3863            4173     61.0101E-03     61.8034E-03
            3863            4174     35.2725E-03     40.4341E-03
            3864            4166     29.9594E-03     31.1994E-03
            3864            4167     33.8932E-03     43.5686E-03
            3864            4174     35.2725E-03     40.4341E-03
            3864            4175     41.5479E-03     50.5359E-03
            3865            4167     33.8932E-03     43.5686E-03
            3865            4168     67.7551E-03     75.2954E-03
            3865            4175     41.5479E-03     50.5359E-03
            3865            4176     74.6639E-03     83.7404E-03
            3866            4168     67.7551E-03     75.2954E-03
            3866            4169     110.005E-03     114.131E-03
            3866            4176     74.6639E-03     83.7404E-03
            3866            4177     115.735E-03     124.358E-03
            3867            4169     110.005E-03     114.131E-03
            3867            4170     159.812E-03     159.408E-03
            3867            4177     115.735E-03     124.358E-03
            3867            4178     157.002E-03     162.216E-03
            3868             181     176.575E-03     178.916E-03
            3868             182     186.356E-03     182.992E-03
            3868            4170     159.812E-03     159.408E-03
            3868            4178     157.002E-03     162.216E-03
            3869             627     150.050E-03     150.325E-03
            3869             628     156.328E-03     159.557E-03
            3869            4171     137.556E-03     141.334E-03
            3869            4179     131.992E-03     134.871E-03
            3870            4171     137.556E-03     141.334E-03
            3870            4172     99.0345E-03     101.319E-03
            3870            4179     131.992E-03     134.871E-03
            3870            4180     95.9639E-03     102.594E-03
            3871            4172     99.0345E-03     101.319E-03
            3871            4173     61.0101E-03     61.8034E-03
            3871            4180     95.9639E-03     102.594E-03
            3871            4181     60.3284E-03     67.7206E-03
            3872            4173     61.0101E-03     61.8034E-03
            3872            4174     35.2725E-03     40.4341E-03
            3872            4181     60.3284E-03     67.7206E-03
            3872            4182     37.5510E-03     43.7393E-03
            3873            4174     35.2725E-03     40.4341E-03
            3873            4175     41.5479E-03     50.5359E-03
            3873            4182     37.5510E-03     43.7393E-03
            3873            4183     45.9249E-03     51.2920E-03
            3874            4175     41.5479E-03     50.5359E-03
            3874            4176     74.6639E-03     83.7404E-03
            3874            4183     45.9249E-03     51.2920E-03
            3874            4184     78.6161E-03     85.1475E-03
            3875            4176     74.6639E-03     83.7404E-03
            3875            4177     115.735E-03     124.358E-03
            3875            4184     78.6161E-03     85.1475E-03
            3875            4185     115.706E-03     123.066E-03
            3876            4177     115.735E-03     124.358E-03
            3876            4178     157.002E-03     162.216E-03
            3876            4185     115.706E-03     123.066E-03
            3876            4186     151.475E-03     155.468E-03
            3877             180     169.358E-03     170.322E-03
            3877             181     176.575E-03     178.916E-03
            3877            4178     157.002E-03     162.216E-03
            3877            4186     151.475E-03     155.468E-03
            3878             626     144.996E-03     144.984E-03
            3878             627     150.050E-03     150.325E-03
            3878            4179     131.992E-03     134.871E-03
            3878            4187     127.141E-03     130.918E-03
            3879            4179     131.992E-03     134.871E-03
            3879            4180     95.9639E-03     102.594E-03
            3879            4187     127.141E-03     130.918E-03
            3879            4188     90.4970E-03     99.5885E-03
            3880            4180     95.9639E-03     102.594E-03
            3880            4181     60.3284E-03     67.7206E-03
            3880            4188     90.4970E-03     99.5885E-03
            3880            4189     57.4074E-03     66.6256E-03
            3881            4181     60.3284E-03     67.7206E-03
            3881            4182     37.5510E-03     43.7393E-03
            3881            4189     57.4074E-03     66.6256E-03
            3881            4190     39.8479E-03     44.8195E-03
            3882            4182     37.5510E-03     43.7393E-03
            3882            4183     45.9249E-03     51.2920E-03
            3882            4190     39.8479E-03     44.8195E-03
            3882            4191     49.5276E-03     50.0187E-03
            3883            4183     45.9249E-03     51.2920E-03
            3883            4184     78.6161E-03     85.1475E-03
            3883            4191     49.5276E-03     50.0187E-03
            3883            4192     79.0445E-03     78.5279E-03
            3884            4184     78.6161E-03     85.1475E-03
            3884            4185     115.706E-03     123.066E-03
            3884            4192     79.0445E-03     78.5279E-03
            3884            4193     113.470E-03     115.424E-03
            3885            4185     115.706E-03     123.066E-03
            3885            4186     151.475E-03     155.468E-03
            3885            4193     113.470E-03     115.424E-03
            3885            4194     147.792E-03     150.618E-03
            3886             179     164.268E-03     166.120E-03
            3886             180     169.358E-03     170.322E-03
            3886            4186     151.475E-03     155.468E-03
            3886            4194     147.792E-03     150.618E-03
            3887             625     128.987E-03     138.345E-03
            3887             626     144.996E-03     144.984E-03
            3887            4187     127.141E-03     130.918E-03
            3887            4195     111.693E-03     123.895E-03
            3888            4187     127.141E-03     130.918E-03
            3888            4188     90.4970E-03     99.5885E-03
            3888            4195     111.693E-03     123.895E-03
            3888            4196     80.3741E-03     93.6396E-03
            3889            4188     90.4970E-03     99.5885E-03
            3889            4189     57.4074E-03     66.6256E-03
            3889            4196     80.3741E-03     93.6396E-03
            3889            4197     56.0642E-03     65.4111E-03
            3890            4189     57.4074E-03     66.6256E-03
            3890            4190     39.8479E-03     44.8195E-03
            3890            4197     56.0642E-03     65.4111E-03
            3890            4198     45.4255E-03     48.3390E-03
            3891            4190     39.8479E-03     44.8195E-03
            3891            4191     49.5276E-03     50.0187E-03
            3891            4198     45.4255E-03     48.3390E-03
            3891            4199     55.0294E-03     50.7529E-03
            3892            4191     49.5276E-03     50.0187E-03
            3892            4192     79.0445E-03     78.5279E-03
            3892            4199     55.0294E-03     50.7529E-03
            3892            4200     79.0332E-03     70.7809E-03
            3893            4192     79.0445E-03     78.5279E-03
            3893            4193     113.470E-03     115.424E-03
            3893            4200     79.0332E-03     70.7809E-03
            3893            4201     108.815E-03     100.002E-03
            3894            4193     113.470E-03     115.424E-03
            3894            4194     147.792E-03     150.618E-03
            3894            4201     108.815E-03     100.002E-03
            3894            4202     140.976E-03     133.539E-03
            3895             178     157.399E-03     150.821E-03
            3895             179     164.268E-03     166.120E-03
            3895            4194     147.792E-03     150.618E-03
            3895            4202     140.976E-03     133.539E-03
            3896              25     115.652E-03     129.998E-03
            3896             624     100.788E-03     112.016E-03
            3896             625     128.987E-03     138.345E-03
            3896            4195     111.693E-03     123.895E-03
            3897             623     72.6386E-03     79.5667E-03
            3897             624     100.788E-03     112.016E-03
            3897            4195     111.693E-03     123.895E-03
            3897            4196     80.3741E-03     93.6396E-03
            3898             622     47.6757E-03     52.6152E-03
            3898             623     72.6386E-03     79.5667E-03
            3898            4196     80.3741E-03     93.6396E-03
            3898            4197     56.0642E-03     65.4111E-03
            3899             621     36.4074E-03     37.5974E-03
            3899             622     47.6757E-03     52.6152E-03
            3899            4197     56.0642E-03     65.4111E-03
            3899            4198     45.4255E-03     48.3390E-03
            3900             620     48.5354E-03     45.0325E-03
            3900             621     36.4074E-03     37.5974E-03
            3900            4198     45.4255E-03     48.3390E-03
            3900            4199     55.0294E-03     50.7529E-03
            3901             619     74.8207E-03     68.6981E-03
            3901             620     48.5354E-03     45.0325E-03
            3901            4199     55.0294E-03     50.7529E-03
            3901            4200     79.0332E-03     70.7809E-03
            3902             618     104.368E-03     96.3573E-03
            3902             619     74.8207E-03     68.6981E-03
            3902            4200     79.0332E-03     70.7809E-03
            3902            4201     108.815E-03     100.002E-03
            3903             617     136.488E-03     127.766E-03
            3903             618     104.368E-03     96.3573E-03
            3903            4201     108.815E-03     100.002E-03
            3903            4202     140.976E-03     133.539E-03
            3904              10     153.627E-03     145.211E-03
            3904             178     157.399E-03     150.821E-03
            3904             617     136.488E-03     127.766E-03
            3904            4202     140.976E-03     133.539E-03
            3905              21     173.435E-03     165.274E-03
            3905             439     150.051E-03     142.731E-03
            3905             520     168.238E-03     142.609E-03
            3905            4203     148.058E-03     125.349E-03
            3906             438     108.165E-03     102.655E-03
            3906             439     150.051E-03     142.731E-03
            3906            4203     148.058E-03     125.349E-03
            3906            4204     110.721E-03     94.2557E-03
            3907             437     72.6309E-03     69.1472E-03
            3907             438     108.165E-03     102.655E-03
            3907            4204     110.721E-03     94.2557E-03
            3907            4205     77.8684E-03     66.2592E-03
            3908             436     41.5865E-03     40.3014E-03
            3908             437     72.6309E-03     69.1472E-03
            3908            4205     77.8684E-03     66.2592E-03
            3908            4206     51.9189E-03     45.6360E-03
            3909             435     30.7901E-03     30.4596E-03
            3909             436     41.5865E-03     40.3014E-03
            3909            4206     51.9189E-03     45.6360E-03
            3909            4207     42.6507E-03     42.5799E-03
            3910             434     49.3032E-03     47.6371E-03
            3910             435     30.7901E-03     30.4596E-03
            3910            4207     42.6507E-03     42.5799E-03
            3910            4208     56.9085E-03     59.0464E-03
            3911             433     82.4435E-03     78.7911E-03
            3911             434     49.3032E-03     47.6371E-03
            3911            4208     56.9085E-03     59.0464E-03
            3911            4209     85.9147E-03     86.1623E-03
            3912             432     122.395E-03     117.341E-03
            3912             433     82.4435E-03     78.7911E-03
            3912            4209     85.9147E-03     86.1623E-03
            3912            4210     120.373E-03     117.801E-03
            3913               6     144.504E-03     138.887E-03
            3913             166     139.095E-03     135.387E-03
            3913             432     122.395E-03     117.341E-03
            3913            4210     120.373E-03     117.801E-03
            3914             520     168.238E-03     142.609E-03
            3914             521     167.206E-03     149.144E-03
            3914            4203     148.058E-03     125.349E-03
            3914            4211     149.384E-03     129.465E-03
            3915            4203     148.058E-03     125.349E-03
            3915            4204     110.721E-03     94.2557E-03
            3915            4211     149.384E-03     129.465E-03
            3915            4212     113.550E-03     92.7472E-03
            3916            4204     110.721E-03     94.2557E-03
            3916            4205     77.8684E-03     66.2592E-03
            3916            4212     113.550E-03     92.7472E-03
            3916            4213     78.7815E-03     61.2975E-03
            3917            4205     77.8684E-03     66.2592E-03
            3917            4206     51.9189E-03     45.6360E-03
            3917            4213     78.7815E-03     61.2975E-03
            3917            4214     50.2577E-03     39.5378E-03
            3918            4206     51.9189E-03     45.6360E-03
            3918            4207     42.6507E-03     42.5799E-03
            3918            4214     50.2577E-03     39.5378E-03
            3918            4215     41.4853E-03     40.2279E-03
            3919            4207     42.6507E-03     42.5799E-03
            3919            4208     56.9085E-03     59.0464E-03
            3919            4215     41.4853E-03     40.2279E-03
            3919            4216     59.1464E-03     62.9068E-03
            3920            4208     56.9085E-03     59.0464E-03
            3920            4209     85.9147E-03     86.1623E-03
            3920            4216     59.1464E-03     62.9068E-03
            3920            4217     91.2775E-03     94.0287E-03
            3921            4209     85.9147E-03     86.1623E-03
            3921            4210     120.373E-03     117.801E-03
            3921            4217     91.2775E-03     94.0287E-03
            3921            4218     128.006E-03     128.230E-03
            3922             165     147.269E-03     145.949E-03
            3922             166     139.095E-03     135.387E-03
            3922            4210     120.373E-03     117.801E-03
            3922            4218     128.006E-03     128.230E-03
            3923             521     167.206E-03     149.144E-03
            3923             522     162.092E-03     170.030E-03
            3923            4211     149.384E-03     129.465E-03
            3923            4219     147.134E-03     152.167E-03
            3924            4211     149.384E-03     129.465E-03
            3924            4212     113.550E-03     92.7472E-03
            3924            4219     147.134E-03     152.167E-03
            3924            4220     113.842E-03     112.335E-03
            3925            4212     113.550E-03     92.7472E-03
            3925            4213     78.7815E-03     61.2975E-03
            3925            4220     113.842E-03     112.335E-03
            3925            4221     76.2271E-03     70.4439E-03
            3926            4213     78.7815E-03     61.2975E-03
            3926            4214     50.2577E-03     39.5378E-03
            3926            4221     76.2271E-03     70.4439E-03
            3926            4222     43.1289E-03     36.4440E-03
            3927            4214     50.2577E-03     39.5378E-03
            3927            4215     41.4853E-03     40.2279E-03
            3927            4222     43.1289E-03     36.4440E-03
            3927            4223     36.8268E-03     33.3206E-03
            3928            4215     41.4853E-03     40.2279E-03
            3928            4216     59.1464E-03     62.9068E-03
            3928            4223     36.8268E-03     33.3206E-03
            3928            4224     62.0874E-03     64.0538E-03
            3929            4216     59.1464E-03     62.9068E-03
            3929            4217     91.2775E-03     94.0287E-03
            3929            4224     62.0874E-03     64.0538E-03
            3929            4225     99.0026E-03     104.365E-03
            3930            4217     91.2775E-03     94.0287E-03
            3930            4218     128.006E-03     128.230E-03
            3930            4225     99.0026E-03     104.365E-03
            3930            4226     135.921E-03     140.580E-03
            3931             164     153.670E-03     156.261E-03
            3931             165     147.269E-03     145.949E-03
            3931            4218     128.006E-03     128.230E-03
            3931            4226     135.921E-03     140.580E-03
            3932             522     162.092E-03     170.030E-03
            3932             523     173.129E-03     170.503E-03
            3932            4219     147.134E-03     152.167E-03
            3932            4227     152.248E-03     156.073E-03
            3933            4219     147.134E-03     152.167E-03
            3933            4220     113.842E-03     112.335E-03
            3933            4227     152.248E-03     156.073E-03
            3933            4228     110.012E-03     119.693E-03
            3934            4220     113.842E-03     112.335E-03
            3934            4221     76.2271E-03     70.4439E-03
            3934            4228     110.012E-03     119.693E-03
            3934            4229     69.1708E-03     75.3782E-03
            3935            4221     76.2271E-03     70.4439E-03
            3935            4222     43.1289E-03     36.4440E-03
            3935            4229     69.1708E-03     75.3782E-03
            3935            4230     36.4737E-03     36.3188E-03
            3936            4222     43.1289E-03     36.4440E-03
            3936            4223     36.8268E-03     33.3206E-03
            3936            4230     36.4737E-03     36.3188E-03
            3936            4231     33.2520E-03     29.1767E-03
            3937            4223     36.8268E-03     33.3206E-03
            3937            4224     62.0874E-03     64.0538E-03
            3937            4231     33.2520E-03     29.1767E-03
            3937            4232     62.4545E-03     60.4669E-03
            3938            4224     62.0874E-03     64.0538E-03
            3938            4225     99.0026E-03     104.365E-03
            3938            4232     62.4545E-03     60.4669E-03
            3938            4233     102.140E-03     104.603E-03
            3939            4225     99.0026E-03     104.365E-03
            3939            4226     135.921E-03     140.580E-03
            3939            4233     102.140E-03     104.603E-03
            3939            4234     141.250E-03     144.133E-03
            3940             163     159.889E-03     161.266E-03
            3940             164     153.670E-03     156.261E-03
            3940            4226     135.921E-03     140.580E-03
            3940            4234     141.250E-03     144.133E-03
            3941             523     173.129E-03     170.503E-03
            3941             524     172.955E-03     181.679E-03
            3941            4227     152.248E-03     156.073E-03
            3941            4235     146.789E-03     158.644E-03
            3942            4227     152.248E-03     156.073E-03
            3942            4228     110.012E-03     119.693E-03
            3942            4235     146.789E-03     158.644E-03
            3942            4236     98.5244E-03     114.109E-03
            3943            4228     110.012E-03     119.693E-03
            3943            4229     69.1708E-03     75.3782E-03
            3943            4236     98.5244E-03     114.109E-03
            3943            4237     58.1182E-03     72.8939E-03
            3944            4229     69.1708E-03     75.3782E-03
            3944            4230     36.4737E-03     36.3188E-03
            3944            4237     58.1182E-03     72.8939E-03
            3944            4238     26.0418E-03     34.5913E-03
            3945            4230     36.4737E-03     36.3188E-03
            3945            4231     33.2520E-03     29.1767E-03
            3945            4238     26.0418E-03     34.5913E-03
            3945            4239     26.6236E-03     23.3132E-03
            3946            4231     33.2520E-03     29.1767E-03
            3946            4232     62.4545E-03     60.4669E-03
            3946            4239     26.6236E-03     23.3132E-03
            3946            4240     59.4288E-03     50.0404E-03
            3947            4232     62.4545E-03     60.4669E-03
            3947            4233     102.140E-03     104.603E-03
            3947            4240     59.4288E-03     50.0404E-03
            3947            4241     98.9365E-03     91.5827E-03
            3948            4233     102.140E-03     104.603E-03
            3948            4234     141.250E-03     144.133E-03
            3948            4241     98.9365E-03     91.5827E-03
            3948            4242     144.261E-03     137.906E-03
            3949             162     168.531E-03     162.104E-03
            3949             163     159.889E-03     161.266E-03
            3949            4234     141.250E-03     144.133E-03
            3949            4242     144.261E-03     137.906E-03
            3950              22     177.405E-03     166.074E-03
            3950             524     172.955E-03     181.679E-03
            3950             609     146.717E-03     137.964E-03
            3950            4235     146.789E-03     158.644E-03
            3951             609     146.717E-03     137.964E-03
            3951             610     95.2175E-03     90.9100E-03
            3951            4235     146.789E-03     158.644E-03
            3951            4236     98.5244E-03     114.109E-03
            3952             610     95.2175E-03     90.9100E-03
            3952             611     55.3483E-03     55.4382E-03
            3952            4236     98.5244E-03     114.109E-03
            3952            4237     58.1182E-03     72.8939E-03
            3953             611     55.3483E-03     55.4382E-03
            3953             612     22.7896E-03     28.6355E-03
            3953            4237     58.1182E-03     72.8939E-03
            3953            4238     26.0418E-03     34.5913E-03
            3954             612     22.7896E-03     28.6355E-03
            3954             613     25.4411E-03     28.7909E-03
            3954            4238     26.0418E-03     34.5913E-03
            3954            4239     26.6236E-03     23.3132E-03
            3955             613     25.4411E-03     28.7909E-03
            3955             614     60.6250E-03     56.8580E-03
            3955            4239     26.6236E-03     23.3132E-03
            3955            4240     59.4288E-03     50.0404E-03
            3956             614     60.6250E-03     56.8580E-03
            3956             615     100.390E-03     93.3153E-03
            3956            4240     59.4288E-03     50.0404E-03
            3956            4241     98.9365E-03     91.5827E-03
            3957             615     100.390E-03     93.3153E-03
            3957             616     151.568E-03     140.744E-03
            3957            4241     98.9365E-03     91.5827E-03
            3957            4242     144.261E-03     137.906E-03
            3958               8     182.012E-03     169.352E-03
            3958             162     168.531E-03     162.104E-03
            3958             616     151.568E-03     140.744E-03
            3958            4242     144.261E-03     137.906E-03
            5325              13     15.1255E-03     15.3293E-03
            5325             194     1.18535E-03     1.16306E-03
            5325             792     16.9914E-03     16.9661E-03
            5325            5425     1.16806E-03     1.16223E-03
            5326             792     16.9914E-03     16.9661E-03
            5326             793     19.3381E-03     19.1708E-03
            5326            5425     1.16806E-03     1.16223E-03
            5326            5426     1.12828E-03     1.13967E-03
            5327             793     19.3381E-03     19.1708E-03
            5327             794     20.3294E-03     20.2560E-03
            5327            5426     1.12828E-03     1.13967E-03
            5327            5427     1.11482E-03     1.12656E-03
            5328             794     20.3294E-03     20.2560E-03
            5328             795     20.9894E-03     20.9621E-03
            5328            5427     1.11482E-03     1.12656E-03
            5328            5428     1.12249E-03     1.13380E-03
            5329             795     20.9894E-03     20.9621E-03
            5329             796     20.9457E-03     20.9705E-03
            5329            5428     1.12249E-03     1.13380E-03
            5329            5429     1.12249E-03     1.13380E-03
            5330             796     20.9457E-03     20.9705E-03
            5330             797     20.2245E-03     20.2468E-03
            5330            5429     1.12249E-03     1.13380E-03
            5330            5430     1.11482E-03     1.12656E-03
            5331             797     20.2245E-03     20.2468E-03
            5331             798     19.0437E-03     19.1521E-03
            5331            5430     1.11482E-03     1.12656E-03
            5331            5431     1.12828E-03     1.13967E-03
            5332             798     19.0437E-03     19.1521E-03
            5332             799     16.4646E-03     16.5273E-03
            5332            5431     1.12828E-03     1.13967E-03
            5332            5432     1.16806E-03     1.16223E-03
            5333              15     14.5380E-03     14.4537E-03
            5333             765     1.18535E-03     1.16306E-03
            5333             799     16.4646E-03     16.5273E-03
            5333            5432     1.16806E-03     1.16223E-03
            5334             194     1.18535E-03     1.16306E-03
            5334             195     915.744E-06     919.222E-06
            5334            5425     1.16806E-03     1.16223E-03
            5334            5433     1.00679E-03     1.01351E-03
            5335            5425     1.16806E-03     1.16223E-03
            5335            5426     1.12828E-03     1.13967E-03
            5335            5433     1.00679E-03     1.01351E-03
            5335            5434     1.13211E-03     1.14625E-03
            5336            5426     1.12828E-03     1.13967E-03
            5336            5427     1.11482E-03     1.12656E-03
            5336            5434     1.13211E-03     1.14625E-03
            5336            5435     1.17283E-03     1.18935E-03
            5337            5427     1.11482E-03     1.12656E-03
            5337            5428     1.12249E-03     1.13380E-03
            5337            5435     1.17283E-03     1.18935E-03
            5337            5436     1.18565E-03     1.20023E-03
            5338            5428     1.12249E-03     1.13380E-03
            5338            5429     1.12249E-03     1.13380E-03
            5338            5436     1.18565E-03     1.20023E-03
            5338            5437     1.18565E-03     1.20023E-03
            5339            5429     1.12249E-03     1.13380E-03
            5339            5430     1.11482E-03     1.12656E-03
            5339            5437     1.18565E-03     1.20023E-03
            5339            5438     1.17283E-03     1.18935E-03
            5340            5430     1.11482E-03     1.12656E-03
            5340            5431     1.12828E-03     1.13967E-03
            5340            5438     1.17283E-03     1.18935E-03
            5340            5439     1.13211E-03     1.14625E-03
            5341            5431     1.12828E-03     1.13967E-03
            5341            5432     1.16806E-03     1.16223E-03
            5341            5439     1.13211E-03     1.14625E-03
            5341            5440     1.00679E-03     1.01351E-03
            5342             765     1.18535E-03     1.16306E-03
            5342             766     915.744E-06     919.222E-06
            5342            5432     1.16806E-03     1.16223E-03
            5342            5440     1.00679E-03     1.01351E-03
            5343             195     915.744E-06     919.222E-06
            5343             196     755.343E-06     763.642E-06
            5343            5433     1.00679E-03     1.01351E-03
            5343            5441     886.616E-06     893.267E-06
            5344            5433     1.00679E-03     1.01351E-03
            5344            5434     1.13211E-03     1.14625E-03
            5344            5441     886.616E-06     893.267E-06
            5344            5442     1.09611E-03     1.10194E-03
            5345            5434     1.13211E-03     1.14625E-03
            5345            5435     1.17283E-03     1.18935E-03
            5345            5442     1.09611E-03     1.10194E-03
            5345            5443     1.19450E-03     1.20316E-03
            5346            5435     1.17283E-03     1.18935E-03
            5346            5436     1.18565E-03     1.20023E-03
            5346            5443     1.19450E-03     1.20316E-03
            5346            5444     1.21331E-03     1.22297E-03
            5347            5436     1.18565E-03     1.20023E-03
            5347            5437     1.18565E-03     1.20023E-03
            5347            5444     1.21331E-03     1.22297E-03
            5347            5445     1.21331E-03     1.22297E-03
            5348            5437     1.18565E-03     1.20023E-03
            5348            5438     1.17283E-03     1.18935E-03
            5348            5445     1.21331E-03     1.22297E-03
            5348            5446     1.19450E-03     1.20316E-03
            5349            5438     1.17283E-03     1.18935E-03
            5349            5439     1.13211E-03     1.14625E-03
            5349            5446     1.19450E-03     1.20316E-03
            5349            5447     1.09611E-03     1.10194E-03
            5350            5439     1.13211E-03     1.14625E-03
            5350            5440     1.00679E-03     1.01351E-03
            5350            5447     1.09611E-03     1.10194E-03
            5350            5448     886.616E-06     893.267E-06
            5351             766     915.744E-06     919.222E-06
            5351             767     755.343E-06     763.642E-06
            5351            5440     1.00679E-03     1.01351E-03
            5351            5448     886.616E-06     893.267E-06
            5352             196     755.343E-06     763.642E-06
            5352             197     693.453E-06     710.381E-06
            5352            5441     886.616E-06     893.267E-06
            5352            5449     854.983E-06     865.438E-06
            5353            5441     886.616E-06     893.267E-06
            5353            5442     1.09611E-03     1.10194E-03
            5353            5449     854.983E-06     865.438E-06
            5353            5450     1.08547E-03     1.08724E-03
            5354            5442     1.09611E-03     1.10194E-03
            5354            5443     1.19450E-03     1.20316E-03
            5354            5450     1.08547E-03     1.08724E-03
            5354            5451     1.17290E-03     1.17328E-03
            5355            5443     1.19450E-03     1.20316E-03
            5355            5444     1.21331E-03     1.22297E-03
            5355            5451     1.17290E-03     1.17328E-03
            5355            5452     1.19894E-03     1.20084E-03
            5356            5444     1.21331E-03     1.22297E-03
            5356            5445     1.21331E-03     1.22297E-03
            5356            5452     1.19894E-03     1.20084E-03
            5356            5453     1.19894E-03     1.20084E-03
            5357            5445     1.21331E-03     1.22297E-03
            5357            5446     1.19450E-03     1.20316E-03
            5357            5453     1.19894E-03     1.20084E-03
            5357            5454     1.17290E-03     1.17328E-03
            5358            5446     1.19450E-03     1.20316E-03
            5358            5447     1.09611E-03     1.10194E-03
            5358            5454     1.17290E-03     1.17328E-03
            5358            5455     1.08547E-03     1.08724E-03
            5359            5447     1.09611E-03     1.10194E-03
            5359            5448     886.616E-06     893.267E-06
            5359            5455     1.08547E-03     1.08724E-03
            5359            5456     854.983E-06     865.438E-06
            5360             767     755.343E-06     763.642E-06
            5360             768     693.453E-06     710.381E-06
            5360            5448     886.616E-06     893.267E-06
            5360            5456     854.983E-06     865.438E-06
            5361             197     693.453E-06     710.381E-06
            5361             198     741.516E-06     755.317E-06
            5361            5449     854.983E-06     865.438E-06
            5361            5457     881.768E-06     889.235E-06
            5362            5449     854.983E-06     865.438E-06
            5362            5450     1.08547E-03     1.08724E-03
            5362            5457     881.768E-06     889.235E-06
            5362            5458     1.06298E-03     1.06248E-03
            5363            5450     1.08547E-03     1.08724E-03
            5363            5451     1.17290E-03     1.17328E-03
            5363            5458     1.06298E-03     1.06248E-03
            5363            5459     1.13198E-03     1.12980E-03
            5364            5451     1.17290E-03     1.17328E-03
            5364            5452     1.19894E-03     1.20084E-03
            5364            5459     1.13198E-03     1.12980E-03
            5364            5460     1.16564E-03     1.16370E-03
            5365            5452     1.19894E-03     1.20084E-03
            5365            5453     1.19894E-03     1.20084E-03
            5365            5460     1.16564E-03     1.16370E-03
            5365            5461     1.16564E-03     1.16370E-03
            5366            5453     1.19894E-03     1.20084E-03
            5366            5454     1.17290E-03     1.17328E-03
            5366            5461     1.16564E-03     1.16370E-03
            5366            5462     1.13198E-03     1.12980E-03
            5367            5454     1.17290E-03     1.17328E-03
            5367            5455     1.08547E-03     1.08724E-03
            5367            5462     1.13198E-03     1.12980E-03
            5367            5463     1.06298E-03     1.06248E-03
            5368            5455     1.08547E-03     1.08724E-03
            5368            5456     854.983E-06     865.438E-06
            5368            5463     1.06298E-03     1.06248E-03
            5368            5464     881.768E-06     889.235E-06
            5369             768     693.453E-06     710.381E-06
            5369             769     741.516E-06     755.317E-06
            5369            5456     854.983E-06     865.438E-06
            5369            5464     881.768E-06     889.235E-06
            5370              14     801.015E-06     806.412E-06
            5370             198     741.516E-06     755.317E-06
            5370             807     905.281E-06     909.194E-06
            5370            5457     881.768E-06     889.235E-06
            5371             806     1.03735E-03     1.03655E-03
            5371             807     905.281E-06     909.194E-06
            5371            5457     881.768E-06     889.235E-06
            5371            5458     1.06298E-03     1.06248E-03
            5372             805     1.11085E-03     1.10832E-03
            5372             806     1.03735E-03     1.03655E-03
            5372            5458     1.06298E-03     1.06248E-03
            5372            5459     1.13198E-03     1.12980E-03
            5373             804     1.14931E-03     1.14736E-03
            5373             805     1.11085E-03     1.10832E-03
            5373            5459     1.13198E-03     1.12980E-03
            5373            5460     1.16564E-03     1.16370E-03
            5374             803     1.14931E-03     1.14736E-03
            5374             804     1.14931E-03     1.14736E-03
            5374            5460     1.16564E-03     1.16370E-03
            5374            5461     1.16564E-03     1.16370E-03
            5375             802     1.11085E-03     1.10832E-03
            5375             803     1.14931E-03     1.14736E-03
            5375            5461     1.16564E-03     1.16370E-03
            5375            5462     1.13198E-03     1.12980E-03
            5376             801     1.03735E-03     1.03655E-03
            5376             802     1.11085E-03     1.10832E-03
            5376            5462     1.13198E-03     1.12980E-03
            5376            5463     1.06298E-03     1.06248E-03
            5377             800     905.281E-06     909.194E-06
            5377             801     1.03735E-03     1.03655E-03
            5377            5463     1.06298E-03     1.06248E-03
            5377            5464     881.768E-06     889.235E-06
            5378              27     801.015E-06     806.412E-06
            5378             769     741.516E-06     755.317E-06
            5378             800     905.281E-06     909.194E-06
            5378            5464     881.768E-06     889.235E-06
            5379              25     115.652E-03     129.998E-03
            5379             624     100.788E-03     112.016E-03
            5379             636     134.403E-03     129.923E-03
            5379            5465     112.648E-03     108.768E-03
            5380             623     72.6386E-03     79.5667E-03
            5380             624     100.788E-03     112.016E-03
            5380            5465     112.648E-03     108.768E-03
            5380            5466     73.2639E-03     70.7548E-03
            5381             622     47.6757E-03     52.6152E-03
            5381             623     72.6386E-03     79.5667E-03
            5381            5466     73.2639E-03     70.7548E-03
            5381            5467     40.8225E-03     40.2591E-03
            5382             621     36.4074E-03     37.5974E-03
            5382             622     47.6757E-03     52.6152E-03
            5382            5467     40.8225E-03     40.2591E-03
            5382            5468     24.8846E-03     25.2705E-03
            5383             620     48.5354E-03     45.0325E-03
            5383             621     36.4074E-03     37.5974E-03
            5383            5468     24.8846E-03     25.2705E-03
            5383            5469     38.6402E-03     37.7291E-03
            5384             619     74.8207E-03     68.6981E-03
            5384             620     48.5354E-03     45.0325E-03
            5384            5469     38.6402E-03     37.7291E-03
            5384            5470     70.2769E-03     67.1812E-03
            5385             618     104.368E-03     96.3573E-03
            5385             619     74.8207E-03     68.6981E-03
            5385            5470     70.2769E-03     67.1812E-03
            5385            5471     105.265E-03     100.127E-03
            5386             617     136.488E-03     127.766E-03
            5386             618     104.368E-03     96.3573E-03
            5386            5471     105.265E-03     100.127E-03
            5386            5472     146.712E-03     139.620E-03
            5387              10     153.627E-03     145.211E-03
            5387             288     169.927E-03     161.808E-03
            5387             617     136.488E-03     127.766E-03
            5387            5472     146.712E-03     139.620E-03
            5388             636     134.403E-03     129.923E-03
            5388             637     143.804E-03     139.481E-03
            5388            5465     112.648E-03     108.768E-03
            5388            5473     121.380E-03     118.207E-03
            5389            5465     112.648E-03     108.768E-03
            5389            5466     73.2639E-03     70.7548E-03
            5389            5473     121.380E-03     118.207E-03
            5389            5474     79.5056E-03     78.1690E-03
            5390            5466     73.2639E-03     70.7548E-03
            5390            5467     40.8225E-03     40.2591E-03
            5390            5474     79.5056E-03     78.1690E-03
            5390            5475     45.9613E-03     46.9559E-03
            5391            5467     40.8225E-03     40.2591E-03
            5391            5468     24.8846E-03     25.2705E-03
            5391            5475     45.9613E-03     46.9559E-03
            5391            5476     30.6001E-03     33.2849E-03
            5392            5468     24.8846E-03     25.2705E-03
            5392            5469     38.6402E-03     37.7291E-03
            5392            5476     30.6001E-03     33.2849E-03
            5392            5477     43.0433E-03     43.7960E-03
            5393            5469     38.6402E-03     37.7291E-03
            5393            5470     70.2769E-03     67.1812E-03
            5393            5477     43.0433E-03     43.7960E-03
            5393            5478     73.3756E-03     70.7068E-03
            5394            5470     70.2769E-03     67.1812E-03
            5394            5471     105.265E-03     100.127E-03
            5394            5478     73.3756E-03     70.7068E-03
            5394            5479     110.776E-03     106.259E-03
            5395            5471     105.265E-03     100.127E-03
            5395            5472     146.712E-03     139.620E-03
            5395            5479     110.776E-03     106.259E-03
            5395            5480     155.264E-03     149.264E-03
            5396             287     178.974E-03     171.894E-03
            5396             288     169.927E-03     161.808E-03
            5396            5472     146.712E-03     139.620E-03
            5396            5480     155.264E-03     149.264E-03
            5397             637     143.804E-03     139.481E-03
            5397             638     134.837E-03     134.744E-03
            5397            5473     121.380E-03     118.207E-03
            5397            5481     117.623E-03     118.835E-03
            5398            5473     121.380E-03     118.207E-03
            5398            5474     79.5056E-03     78.1690E-03
            5398            5481     117.623E-03     118.835E-03
            5398            5482     82.4851E-03     85.4560E-03
            5399            5474     79.5056E-03     78.1690E-03
            5399            5475     45.9613E-03     46.9559E-03
            5399            5482     82.4851E-03     85.4560E-03
            5399            5483     51.1229E-03     55.2844E-03
            5400            5475     45.9613E-03     46.9559E-03
            5400            5476     30.6001E-03     33.2849E-03
            5400            5483     51.1229E-03     55.2844E-03
            5400            5484     37.4301E-03     42.1731E-03
            5401            5476     30.6001E-03     33.2849E-03
            5401            5477     43.0433E-03     43.7960E-03
            5401            5484     37.4301E-03     42.1731E-03
            5401            5485     49.2689E-03     52.5728E-03
            5402            5477     43.0433E-03     43.7960E-03
            5402            5478     73.3756E-03     70.7068E-03
            5402            5485     49.2689E-03     52.5728E-03
            5402            5486     78.0385E-03     79.7693E-03
            5403            5478     73.3756E-03     70.7068E-03
            5403            5479     110.776E-03     106.259E-03
            5403            5486     78.0385E-03     79.7693E-03
            5403            5487     113.889E-03     115.506E-03
            5404            5479     110.776E-03     106.259E-03
            5404            5480     155.264E-03     149.264E-03
            5404            5487     113.889E-03     115.506E-03
            5404            5488     150.310E-03     150.906E-03
            5405             286     167.556E-03     166.958E-03
            5405             287     178.974E-03     171.894E-03
            5405            5480     155.264E-03     149.264E-03
            5405            5488     150.310E-03     150.906E-03
            5406             638     134.837E-03     134.744E-03
            5406             639     128.493E-03     127.566E-03
            5406            5481     117.623E-03     118.835E-03
            5406            5489     112.012E-03     112.216E-03
            5407            5481     117.623E-03     118.835E-03
            5407            5482     82.4851E-03     85.4560E-03
            5407            5489     112.012E-03     112.216E-03
            5407            5490     80.2631E-03     82.6465E-03
            5408            5482     82.4851E-03     85.4560E-03
            5408            5483     51.1229E-03     55.2844E-03
            5408            5490     80.2631E-03     82.6465E-03
            5408            5491     52.9687E-03     57.0072E-03
            5409            5483     51.1229E-03     55.2844E-03
            5409            5484     37.4301E-03     42.1731E-03
            5409            5491     52.9687E-03     57.0072E-03
            5409            5492     40.6647E-03     44.9895E-03
            5410            5484     37.4301E-03     42.1731E-03
            5410            5485     49.2689E-03     52.5728E-03
            5410            5492     40.6647E-03     44.9895E-03
            5410            5493     52.0783E-03     55.4876E-03
            5411            5485     49.2689E-03     52.5728E-03
            5411            5486     78.0385E-03     79.7693E-03
            5411            5493     52.0783E-03     55.4876E-03
            5411            5494     79.6073E-03     82.1741E-03
            5412            5486     78.0385E-03     79.7693E-03
            5412            5487     113.889E-03     115.506E-03
            5412            5494     79.6073E-03     82.1741E-03
            5412            5495     111.537E-03     112.961E-03
            5413            5487     113.889E-03     115.506E-03
            5413            5488     150.310E-03     150.906E-03
            5413            5495     111.537E-03     112.961E-03
            5413            5496     144.215E-03     143.404E-03
            5414             285     160.799E-03     158.652E-03
            5414             286     167.556E-03     166.958E-03
            5414            5488     150.310E-03     150.906E-03
            5414            5496     144.215E-03     143.404E-03
            5415             639     128.493E-03     127.566E-03
            5415             640     123.919E-03     122.594E-03
            5415            5489     112.012E-03     112.216E-03
            5415            5497     107.879E-03     107.523E-03
            5416            5489     112.012E-03     112.216E-03
            5416            5490     80.2631E-03     82.6465E-03
            5416            5497     107.879E-03     107.523E-03
            5416            5498     77.1260E-03     78.4553E-03
            5417            5490     80.2631E-03     82.6465E-03
            5417            5491     52.9687E-03     57.0072E-03
            5417            5498     77.1260E-03     78.4553E-03
            5417            5499     51.8421E-03     54.3385E-03
            5418            5491     52.9687E-03     57.0072E-03
            5418            5492     40.6647E-03     44.9895E-03
            5418            5499     51.8421E-03     54.3385E-03
            5418            5500     41.5772E-03     44.3308E-03
            5419            5492     40.6647E-03     44.9895E-03
            5419            5493     52.0783E-03     55.4876E-03
            5419            5500     41.5772E-03     44.3308E-03
            5419            5501     52.9288E-03     55.1070E-03
            5420            5493     52.0783E-03     55.4876E-03
            5420            5494     79.6073E-03     82.1741E-03
            5420            5501     52.9288E-03     55.1070E-03
            5420            5502     78.2791E-03     79.6028E-03
            5421            5494     79.6073E-03     82.1741E-03
            5421            5495     111.537E-03     112.961E-03
            5421            5502     78.2791E-03     79.6028E-03
            5421            5503     108.189E-03     108.344E-03
            5422            5495     111.537E-03     112.961E-03
            5422            5496     144.215E-03     143.404E-03
            5422            5503     108.189E-03     108.344E-03
            5422            5504     139.828E-03     138.441E-03
            5423             284     155.860E-03     153.630E-03
            5423             285     160.799E-03     158.652E-03
            5423            5496     144.215E-03     143.404E-03
            5423            5504     139.828E-03     138.441E-03
            5424             640     123.919E-03     122.594E-03
            5424             641     118.706E-03     117.500E-03
            5424            5497     107.879E-03     107.523E-03
            5424            5505     103.416E-03     102.999E-03
            5425            5497     107.879E-03     107.523E-03
            5425            5498     77.1260E-03     78.4553E-03
            5425            5505     103.416E-03     102.999E-03
            5425            5506     74.1991E-03     75.1004E-03
            5426            5498     77.1260E-03     78.4553E-03
            5426            5499     51.8421E-03     54.3385E-03
            5426            5506     74.1991E-03     75.1004E-03
            5426            5507     50.3544E-03     51.7135E-03
            5427            5499     51.8421E-03     54.3385E-03
            5427            5500     41.5772E-03     44.3308E-03
            5427            5507     50.3544E-03     51.7135E-03
            5427            5508     41.2324E-03     42.1969E-03
            5428            5500     41.5772E-03     44.3308E-03
            5428            5501     52.9288E-03     55.1070E-03
            5428            5508     41.2324E-03     42.1969E-03
            5428            5509     52.3209E-03     52.8533E-03
            5429            5501     52.9288E-03     55.1070E-03
            5429            5502     78.2791E-03     79.6028E-03
            5429            5509     52.3209E-03     52.8533E-03
            5429            5510     76.4203E-03     76.7280E-03
            5430            5502     78.2791E-03     79.6028E-03
            5430            5503     108.189E-03     108.344E-03
            5430            5510     76.4203E-03     76.7280E-03
            5430            5511     104.999E-03     104.732E-03
            5431            5503     108.189E-03     108.344E-03
            5431            5504     139.828E-03     138.441E-03
            5431            5511     104.999E-03     104.732E-03
            5431            5512     135.089E-03     133.591E-03
            5432             283     150.407E-03     148.136E-03
            5432             284     155.860E-03     153.630E-03
            5432            5504     139.828E-03     138.441E-03
            5432            5512     135.089E-03     133.591E-03
            5433             641     118.706E-03     117.500E-03
            5433             642     113.794E-03     112.612E-03
            5433            5505     103.416E-03     102.999E-03
            5433            5513     99.0150E-03     98.7736E-03
            5434            5505     103.416E-03     102.999E-03
            5434            5506     74.1991E-03     75.1004E-03
            5434            5513     99.0150E-03     98.7736E-03
            5434            5514     71.1490E-03     72.0302E-03
            5435            5506     74.1991E-03     75.1004E-03
            5435            5507     50.3544E-03     51.7135E-03
            5435            5514     71.1490E-03     72.0302E-03
            5435            5515     48.9782E-03     49.4579E-03
            5436            5507     50.3544E-03     51.7135E-03
            5436            5508     41.2324E-03     42.1969E-03
            5436            5515     48.9782E-03     49.4579E-03
            5436            5516     40.6265E-03     39.9794E-03
            5437            5508     41.2324E-03     42.1969E-03
            5437            5509     52.3209E-03     52.8533E-03
            5437            5516     40.6265E-03     39.9794E-03
            5437            5517     51.3842E-03     50.6160E-03
            5438            5509     52.3209E-03     52.8533E-03
            5438            5510     76.4203E-03     76.7280E-03
            5438            5517     51.3842E-03     50.6160E-03
            5438            5518     74.4846E-03     74.3349E-03
            5439            5510     76.4203E-03     76.7280E-03
            5439            5511     104.999E-03     104.732E-03
            5439            5518     74.4846E-03     74.3349E-03
            5439            5519     101.596E-03     101.328E-03
            5440            5511     104.999E-03     104.732E-03
            5440            5512     135.089E-03     133.591E-03
            5440            5519     101.596E-03     101.328E-03
            5440            5520     130.319E-03     129.014E-03
            5441             282     145.005E-03     142.979E-03
            5441             283     150.407E-03     148.136E-03
            5441            5512     135.089E-03     133.591E-03
            5441            5520     130.319E-03     129.014E-03
            5442             642     113.794E-03     112.612E-03
            5442             643     108.450E-03     107.923E-03
            5442            5513     99.0150E-03     98.7736E-03
            5442            5521     94.6023E-03     94.8832E-03
            5443            5513     99.0150E-03     98.7736E-03
            5443            5514     71.1490E-03     72.0302E-03
            5443            5521     94.6023E-03     94.8832E-03
            5443            5522     68.4775E-03     69.5805E-03
            5444            5514     71.1490E-03     72.0302E-03
            5444            5515     48.9782E-03     49.4579E-03
            5444            5522     68.4775E-03     69.5805E-03
            5444            5523     47.7104E-03     47.4426E-03
            5445            5515     48.9782E-03     49.4579E-03
            5445            5516     40.6265E-03     39.9794E-03
            5445            5523     47.7104E-03     47.4426E-03
            5445            5524     40.0100E-03     37.6829E-03
            5446            5516     40.6265E-03     39.9794E-03
            5446            5517     51.3842E-03     50.6160E-03
            5446            5524     40.0100E-03     37.6829E-03
            5446            5525     50.3799E-03     48.4441E-03
            5447            5517     51.3842E-03     50.6160E-03
            5447            5518     74.4846E-03     74.3349E-03
            5447            5525     50.3799E-03     48.4441E-03
            5447            5526     72.4423E-03     72.2384E-03
            5448            5518     74.4846E-03     74.3349E-03
            5448            5519     101.596E-03     101.328E-03
            5448            5526     72.4423E-03     72.2384E-03
            5448            5527     98.2520E-03     98.5067E-03
            5449            5519     101.596E-03     101.328E-03
            5449            5520     130.319E-03     129.014E-03
            5449            5527     98.2520E-03     98.5067E-03
            5449            5528     125.472E-03     124.654E-03
            5450             281     139.363E-03     137.682E-03
            5450             282     145.005E-03     142.979E-03
            5450            5520     130.319E-03     129.014E-03
            5450            5528     125.472E-03     124.654E-03
            5451             643     108.450E-03     107.923E-03
            5451             644     102.867E-03     102.547E-03
            5451            5521     94.6023E-03     94.8832E-03
            5451            5529     89.9853E-03     91.1009E-03
            5452            5521     94.6023E-03     94.8832E-03
            5452            5522     68.4775E-03     69.5805E-03
            5452            5529     89.9853E-03     91.1009E-03
            5452            5530     66.1940E-03     67.7579E-03
            5453            5522     68.4775E-03     69.5805E-03
            5453            5523     47.7104E-03     47.4426E-03
            5453            5530     66.1940E-03     67.7579E-03
            5453            5531     47.1244E-03     45.5109E-03
            5454            5523     47.7104E-03     47.4426E-03
            5454            5524     40.0100E-03     37.6829E-03
            5454            5531     47.1244E-03     45.5109E-03
            5454            5532     39.5118E-03     35.4467E-03
            5455            5524     40.0100E-03     37.6829E-03
            5455            5525     50.3799E-03     48.4441E-03
            5455            5532     39.5118E-03     35.4467E-03
            5455            5533     49.0865E-03     46.0292E-03
            5456            5525     50.3799E-03     48.4441E-03
            5456            5526     72.4423E-03     72.2384E-03
            5456            5533     49.0865E-03     46.0292E-03
            5456            5534     70.4034E-03     69.9881E-03
            5457            5526     72.4423E-03     72.2384E-03
            5457            5527     98.2520E-03     98.5067E-03
            5457            5534     70.4034E-03     69.9881E-03
            5457            5535     95.0290E-03     96.2381E-03
            5458            5527     98.2520E-03     98.5067E-03
            5458            5528     125.472E-03     124.654E-03
            5458            5535     95.0290E-03     96.2381E-03
            5458            5536     120.149E-03     120.409E-03
            5459             280     132.934E-03     131.992E-03
            5459             281     139.363E-03     137.682E-03
            5459            5528     125.472E-03     124.654E-03
            5459            5536     120.149E-03     120.409E-03
            5460             644     102.867E-03     102.547E-03
            5460             645     95.7763E-03     98.0286E-03
            5460            5529     89.9853E-03     91.1009E-03
            5460            5537     85.2106E-03     87.2414E-03
            5461            5529     89.9853E-03     91.1009E-03
            5461            5530     66.1940E-03     67.7579E-03
            5461            5537     85.2106E-03     87.2414E-03
            5461            5538     64.5443E-03     64.0413E-03
            5462            5530     66.1940E-03     67.7579E-03
            5462            5531     47.1244E-03     45.5109E-03
            5462            5538     64.5443E-03     64.0413E-03
            5462            5539     47.0009E-03     43.0661E-03
            5463            5531     47.1244E-03     45.5109E-03
            5463            5532     39.5118E-03     35.4467E-03
            5463            5539     47.0009E-03     43.0661E-03
            5463            5540     39.8208E-03     34.8380E-03
            5464            5532     39.5118E-03     35.4467E-03
            5464            5533     49.0865E-03     46.0292E-03
            5464            5540     39.8208E-03     34.8380E-03
            5464            5541     48.2974E-03     44.4886E-03
            5465            5533     49.0865E-03     46.0292E-03
            5465            5534     70.4034E-03     69.9881E-03
            5465            5541     48.2974E-03     44.4886E-03
            5465            5542     67.7345E-03     65.9786E-03
            5466            5534     70.4034E-03     69.9881E-03
            5466            5535     95.0290E-03     96.2381E-03
            5466            5542     67.7345E-03     65.9786E-03
            5466            5543     91.2466E-03     91.8574E-03
            5467            5535     95.0290E-03     96.2381E-03
            5467            5536     120.149E-03     120.409E-03
            5467            5543     91.2466E-03     91.8574E-03
            5467            5544     114.907E-03     116.239E-03
            5468             279     126.278E-03     126.915E-03
            5468             280     132.934E-03     131.992E-03
            5468            5536     120.149E-03     120.409E-03
            5468            5544     114.907E-03     116.239E-03
            5469             645     95.7763E-03     98.0286E-03
            5469             646     88.4177E-03     83.4810E-03
            5469            5537     85.2106E-03     87.2414E-03
            5469            5545     79.9905E-03     73.9752E-03
            5470            5537     85.2106E-03     87.2414E-03
            5470            5538     64.5443E-03     64.0413E-03
            5470            5545     79.9905E-03     73.9752E-03
            5470            5546     62.8162E-03     56.1007E-03
            5471            5538     64.5443E-03     64.0413E-03
            5471            5539     47.0009E-03     43.0661E-03
            5471            5546     62.8162E-03     56.1007E-03
            5471            5547     48.0942E-03     42.6602E-03
            5472            5539     47.0009E-03     43.0661E-03
            5472            5540     39.8208E-03     34.8380E-03
            5472            5547     48.0942E-03     42.6602E-03
            5472            5548     42.5396E-03     38.5821E-03
            5473            5540     39.8208E-03     34.8380E-03
            5473            5541     48.2974E-03     44.4886E-03
            5473            5548     42.5396E-03     38.5821E-03
            5473            5549     49.3686E-03     46.0413E-03
            5474            5541     48.2974E-03     44.4886E-03
            5474            5542     67.7345E-03     65.9786E-03
            5474            5549     49.3686E-03     46.0413E-03
            5474            5550     65.2798E-03     61.4978E-03
            5475            5542     67.7345E-03     65.9786E-03
            5475            5543     91.2466E-03     91.8574E-03
            5475            5550     65.2798E-03     61.4978E-03
            5475            5551     85.5219E-03     81.2512E-03
            5476            5543     91.2466E-03     91.8574E-03
            5476            5544     114.907E-03     116.239E-03
            5476            5551     85.5219E-03     81.2512E-03
            5476            5552     107.168E-03     103.209E-03
            5477             278     118.074E-03     114.404E-03
            5477             279     126.278E-03     126.915E-03
            5477            5544     114.907E-03     116.239E-03
            5477            5552     107.168E-03     103.209E-03
            5478             646     88.4177E-03     83.4810E-03
            5478             647     101.208E-03     90.5420E-03
            5478            5545     79.9905E-03     73.9752E-03
            5478            5553     86.8046E-03     77.1392E-03
            5479            5545     79.9905E-03     73.9752E-03
            5479            5546     62.8162E-03     56.1007E-03
            5479            5553     86.8046E-03     77.1392E-03
            5479            5554     61.8186E-03     55.2154E-03
            5480            5546     62.8162E-03     56.1007E-03
            5480            5547     48.0942E-03     42.6602E-03
            5480            5554     61.8186E-03     55.2154E-03
            5480            5555     44.2279E-03     41.2639E-03
            5481            5547     48.0942E-03     42.6602E-03
            5481            5548     42.5396E-03     38.5821E-03
            5481            5555     44.2279E-03     41.2639E-03
            5481            5556     36.6840E-03     35.7741E-03
            5482            5548     42.5396E-03     38.5821E-03
            5482            5549     49.3686E-03     46.0413E-03
            5482            5556     36.6840E-03     35.7741E-03
            5482            5557     43.1124E-03     41.5579E-03
            5483            5549     49.3686E-03     46.0413E-03
            5483            5550     65.2798E-03     61.4978E-03
            5483            5557     43.1124E-03     41.5579E-03
            5483            5558     60.2202E-03     56.0564E-03
            5484            5550     65.2798E-03     61.4978E-03
            5484            5551     85.5219E-03     81.2512E-03
            5484            5558     60.2202E-03     56.0564E-03
            5484            5559     82.2088E-03     74.9603E-03
            5485            5551     85.5219E-03     81.2512E-03
            5485            5552     107.168E-03     103.209E-03
            5485            5559     82.2088E-03     74.9603E-03
            5485            5560     111.055E-03     101.320E-03
            5486             277     128.055E-03     117.430E-03
            5486             278     118.074E-03     114.404E-03
            5486            5552     107.168E-03     103.209E-03
            5486            5560     111.055E-03     101.320E-03
            5487             647     101.208E-03     90.5420E-03
            5487             648     112.312E-03     109.422E-03
            5487            5553     86.8046E-03     77.1392E-03
            5487            5561     95.5586E-03     93.7250E-03
            5488            5553     86.8046E-03     77.1392E-03
            5488            5554     61.8186E-03     55.2154E-03
            5488            5561     95.5586E-03     93.7250E-03
            5488            5562     64.8035E-03     64.5655E-03
            5489            5554     61.8186E-03     55.2154E-03
            5489            5555     44.2279E-03     41.2639E-03
            5489            5562     64.8035E-03     64.5655E-03
            5489            5563     42.1872E-03     43.4218E-03
            5490            5555     44.2279E-03     41.2639E-03
            5490            5556     36.6840E-03     35.7741E-03
            5490            5563     42.1872E-03     43.4218E-03
            5490            5564     32.4287E-03     34.5856E-03
            5491            5556     36.6840E-03     35.7741E-03
            5491            5557     43.1124E-03     41.5579E-03
            5491            5564     32.4287E-03     34.5856E-03
            5491            5565     39.3020E-03     40.2326E-03
            5492            5557     43.1124E-03     41.5579E-03
            5492            5558     60.2202E-03     56.0564E-03
            5492            5565     39.3020E-03     40.2326E-03
            5492            5566     58.5166E-03     57.1212E-03
            5493            5558     60.2202E-03     56.0564E-03
            5493            5559     82.2088E-03     74.9603E-03
            5493            5566     58.5166E-03     57.1212E-03
            5493            5567     85.0441E-03     82.1745E-03
            5494            5559     82.2088E-03     74.9603E-03
            5494            5560     111.055E-03     101.320E-03
            5494            5567     85.0441E-03     82.1745E-03
            5494            5568     118.263E-03     113.991E-03
            5495             276     136.153E-03     130.841E-03
            5495             277     128.055E-03     117.430E-03
            5495            5560     111.055E-03     101.320E-03
            5495            5568     118.263E-03     113.991E-03
            5496             648     112.312E-03     109.422E-03
            5496             649     102.936E-03     102.646E-03
            5496            5561     95.5586E-03     93.7250E-03
            5496            5569     91.0783E-03     91.7295E-03
            5497            5561     95.5586E-03     93.7250E-03
            5497            5562     64.8035E-03     64.5655E-03
            5497            5569     91.0783E-03     91.7295E-03
            5497            5570     67.0990E-03     69.2133E-03
            5498            5562     64.8035E-03     64.5655E-03
            5498            5563     42.1872E-03     43.4218E-03
            5498            5570     67.0990E-03     69.2133E-03
            5498            5571     46.7799E-03     49.8374E-03
            5499            5563     42.1872E-03     43.4218E-03
            5499            5564     32.4287E-03     34.5856E-03
            5499            5571     46.7799E-03     49.8374E-03
            5499            5572     38.3141E-03     41.7443E-03
            5500            5564     32.4287E-03     34.5856E-03
            5500            5565     39.3020E-03     40.2326E-03
            5500            5572     38.3141E-03     41.7443E-03
            5500            5573     44.7161E-03     47.3494E-03
            5501            5565     39.3020E-03     40.2326E-03
            5501            5566     58.5166E-03     57.1212E-03
            5501            5573     44.7161E-03     47.3494E-03
            5501            5574     62.4079E-03     64.0182E-03
            5502            5566     58.5166E-03     57.1212E-03
            5502            5567     85.0441E-03     82.1745E-03
            5502            5574     62.4079E-03     64.0182E-03
            5502            5575     86.8885E-03     88.1385E-03
            5503            5567     85.0441E-03     82.1745E-03
            5503            5568     118.263E-03     113.991E-03
            5503            5575     86.8885E-03     88.1385E-03
            5503            5576     112.539E-03     112.843E-03
            5504             275     124.729E-03     124.174E-03
            5504             276     136.153E-03     130.841E-03
            5504            5568     118.263E-03     113.991E-03
            5504            5576     112.539E-03     112.843E-03
            5505             649     102.936E-03     102.646E-03
            5505             650     96.1062E-03     95.4306E-03
            5505            5569     91.0783E-03     91.7295E-03
            5505            5577     85.1936E-03     85.1835E-03
            5506            5569     91.0783E-03     91.7295E-03
            5506            5570     67.0990E-03     69.2133E-03
            5506            5577     85.1936E-03     85.1835E-03
            5506            5578     64.7049E-03     66.1684E-03
            5507            5570     67.0990E-03     69.2133E-03
            5507            5571     46.7799E-03     49.8374E-03
            5507            5578     64.7049E-03     66.1684E-03
            5507            5579     48.3503E-03     51.0931E-03
            5508            5571     46.7799E-03     49.8374E-03
            5508            5572     38.3141E-03     41.7443E-03
            5508            5579     48.3503E-03     51.0931E-03
            5508            5580     41.1751E-03     44.2726E-03
            5509            5572     38.3141E-03     41.7443E-03
            5509            5573     44.7161E-03     47.3494E-03
            5509            5580     41.1751E-03     44.2726E-03
            5509            5581     47.1996E-03     49.8493E-03
            5510            5573     44.7161E-03     47.3494E-03
            5510            5574     62.4079E-03     64.0182E-03
            5510            5581     47.1996E-03     49.8493E-03
            5510            5582     63.5409E-03     65.5088E-03
            5511            5574     62.4079E-03     64.0182E-03
            5511            5575     86.8885E-03     88.1385E-03
            5511            5582     63.5409E-03     65.5088E-03
            5511            5583     84.1504E-03     85.0252E-03
            5512            5575     86.8885E-03     88.1385E-03
            5512            5576     112.539E-03     112.843E-03
            5512            5583     84.1504E-03     85.0252E-03
            5512            5584     106.224E-03     105.454E-03
            5513             274     117.608E-03     115.936E-03
            5513             275     124.729E-03     124.174E-03
            5513            5576     112.539E-03     112.843E-03
            5513            5584     106.224E-03     105.454E-03
            5514             650     96.1062E-03     95.4306E-03
            5514             651     91.1720E-03     90.1793E-03
            5514            5577     85.1936E-03     85.1835E-03
            5514            5585     80.8165E-03     80.4220E-03
            5515            5577     85.1936E-03     85.1835E-03
            5515            5578     64.7049E-03     66.1684E-03
            5515            5585     80.8165E-03     80.4220E-03
            5515            5586     61.6565E-03     62.4079E-03
            5516            5578     64.7049E-03     66.1684E-03
            5516            5579     48.3503E-03     51.0931E-03
            5516            5586     61.6565E-03     62.4079E-03
            5516            5587     47.3778E-03     49.0511E-03
            5517            5579     48.3503E-03     51.0931E-03
            5517            5580     41.1751E-03     44.2726E-03
            5517            5587     47.3778E-03     49.0511E-03
            5517            5588     42.0558E-03     44.1162E-03
            5518            5580     41.1751E-03     44.2726E-03
            5518            5581     47.1996E-03     49.8493E-03
            5518            5588     42.0558E-03     44.1162E-03
            5518            5589     47.9403E-03     49.6808E-03
            5519            5581     47.1996E-03     49.8493E-03
            5519            5582     63.5409E-03     65.5088E-03
            5519            5589     47.9403E-03     49.6808E-03
            5519            5590     62.1995E-03     63.1300E-03
            5520            5582     63.5409E-03     65.5088E-03
            5520            5583     84.1504E-03     85.0252E-03
            5520            5590     62.1995E-03     63.1300E-03
            5520            5591     80.7375E-03     80.6592E-03
            5521            5583     84.1504E-03     85.0252E-03
            5521            5584     106.224E-03     105.454E-03
            5521            5591     80.7375E-03     80.6592E-03
            5521            5592     101.463E-03     100.344E-03
            5522             273     112.179E-03     110.550E-03
            5522             274     117.608E-03     115.936E-03
            5522            5584     106.224E-03     105.454E-03
            5522            5592     101.463E-03     100.344E-03
            5523             651     91.1720E-03     90.1793E-03
            5523             652     85.7933E-03     84.8140E-03
            5523            5585     80.8165E-03     80.4220E-03
            5523            5593     76.2714E-03     75.8101E-03
            5524            5585     80.8165E-03     80.4220E-03
            5524            5586     61.6565E-03     62.4079E-03
            5524            5593     76.2714E-03     75.8101E-03
            5524            5594     58.7999E-03     59.2351E-03
            5525            5586     61.6565E-03     62.4079E-03
            5525            5587     47.3778E-03     49.0511E-03
            5525            5594     58.7999E-03     59.2351E-03
            5525            5595     46.1029E-03     47.0585E-03
            5526            5587     47.3778E-03     49.0511E-03
            5526            5588     42.0558E-03     44.1162E-03
            5526            5595     46.1029E-03     47.0585E-03
            5526            5596     41.8485E-03     42.8191E-03
            5527            5588     42.0558E-03     44.1162E-03
            5527            5589     47.9403E-03     49.6808E-03
            5527            5596     41.8485E-03     42.8191E-03
            5527            5597     47.4680E-03     48.0894E-03
            5528            5589     47.9403E-03     49.6808E-03
            5528            5590     62.1995E-03     63.1300E-03
            5528            5597     47.4680E-03     48.0894E-03
            5528            5598     60.4567E-03     60.5978E-03
            5529            5590     62.1995E-03     63.1300E-03
            5529            5591     80.7375E-03     80.6592E-03
            5529            5598     60.4567E-03     60.5978E-03
            5529            5599     77.4772E-03     77.0393E-03
            5530            5591     80.7375E-03     80.6592E-03
            5530            5592     101.463E-03     100.344E-03
            5530            5599     77.4772E-03     77.0393E-03
            5530            5600     96.5717E-03     95.3230E-03
            5531             272     106.508E-03     104.769E-03
            5531             273     112.179E-03     110.550E-03
            5531            5592     101.463E-03     100.344E-03
            5531            5600     96.5717E-03     95.3230E-03
            5532             652     85.7933E-03     84.8140E-03
            5532             653     80.7139E-03     79.8851E-03
            5532            5593     76.2714E-03     75.8101E-03
            5532            5601     71.8058E-03     71.4174E-03
            5533            5593     76.2714E-03     75.8101E-03
            5533            5594     58.7999E-03     59.2351E-03
            5533            5601     71.8058E-03     71.4174E-03
            5533            5602     55.8343E-03     56.1625E-03
            5534            5594     58.7999E-03     59.2351E-03
            5534            5595     46.1029E-03     47.0585E-03
            5534            5602     55.8343E-03     56.1625E-03
            5534            5603     44.8236E-03     45.2644E-03
            5535            5595     46.1029E-03     47.0585E-03
            5535            5596     41.8485E-03     42.8191E-03
            5535            5603     44.8236E-03     45.2644E-03
            5535            5604     41.4226E-03     41.4847E-03
            5536            5596     41.8485E-03     42.8191E-03
            5536            5597     47.4680E-03     48.0894E-03
            5536            5604     41.4226E-03     41.4847E-03
            5536            5605     46.7649E-03     46.5555E-03
            5537            5597     47.4680E-03     48.0894E-03
            5537            5598     60.4567E-03     60.5978E-03
            5537            5605     46.7649E-03     46.5555E-03
            5537            5606     58.6622E-03     58.3511E-03
            5538            5598     60.4567E-03     60.5978E-03
            5538            5599     77.4772E-03     77.0393E-03
            5538            5606     58.6622E-03     58.3511E-03
            5538            5607     74.0817E-03     73.4742E-03
            5539            5599     77.4772E-03     77.0393E-03
            5539            5600     96.5717E-03     95.3230E-03
            5539            5607     74.0817E-03     73.4742E-03
            5539            5608     91.6774E-03     90.5005E-03
            5540             271     100.955E-03     99.4596E-03
            5540             272     106.508E-03     104.769E-03
            5540            5600     96.5717E-03     95.3230E-03
            5540            5608     91.6774E-03     90.5005E-03
            5541             653     80.7139E-03     79.8851E-03
            5541             654     75.6163E-03     74.7927E-03
            5541            5601     71.8058E-03     71.4174E-03
            5541            5609     67.4765E-03     67.2983E-03
            5542            5601     71.8058E-03     71.4174E-03
            5542            5602     55.8343E-03     56.1625E-03
            5542            5609     67.4765E-03     67.2983E-03
            5542            5610     53.1072E-03     53.5418E-03
            5543            5602     55.8343E-03     56.1625E-03
            5543            5603     44.8236E-03     45.2644E-03
            5543            5610     53.1072E-03     53.5418E-03
            5543            5611     43.5459E-03     43.4995E-03
            5544            5603     44.8236E-03     45.2644E-03
            5544            5604     41.4226E-03     41.4847E-03
            5544            5611     43.5459E-03     43.4995E-03
            5544            5612     40.9907E-03     40.1728E-03
            5545            5604     41.4226E-03     41.4847E-03
            5545            5605     46.7649E-03     46.5555E-03
            5545            5612     40.9907E-03     40.1728E-03
            5545            5613     46.0537E-03     45.0963E-03
            5546            5605     46.7649E-03     46.5555E-03
            5546            5606     58.6622E-03     58.3511E-03
            5546            5613     46.0537E-03     45.0963E-03
            5546            5614     56.7742E-03     56.1966E-03
            5547            5606     58.6622E-03     58.3511E-03
            5547            5607     74.0817E-03     73.4742E-03
            5547            5614     56.7742E-03     56.1966E-03
            5547            5615     70.8133E-03     70.3606E-03
            5548            5607     74.0817E-03     73.4742E-03
            5548            5608     91.6774E-03     90.5005E-03
            5548            5615     70.8133E-03     70.3606E-03
            5548            5616     86.8963E-03     85.9119E-03
            5549             270     95.3741E-03     93.9293E-03
            5549             271     100.955E-03     99.4596E-03
            5549            5608     91.6774E-03     90.5005E-03
            5549            5616     86.8963E-03     85.9119E-03
            5550             654     75.6163E-03     74.7927E-03
            5550             655     70.2285E-03     70.1107E-03
            5550            5609     67.4765E-03     67.2983E-03
            5550            5617     63.0673E-03     63.3956E-03
            5551            5609     67.4765E-03     67.2983E-03
            5551            5610     53.1072E-03     53.5418E-03
            5551            5617     63.0673E-03     63.3956E-03
            5551            5618     50.6336E-03     51.2070E-03
            5552            5610     53.1072E-03     53.5418E-03
            5552            5611     43.5459E-03     43.4995E-03
            5552            5618     50.6336E-03     51.2070E-03
            5552            5619     42.6225E-03     42.0428E-03
            5553            5611     43.5459E-03     43.4995E-03
            5553            5612     40.9907E-03     40.1728E-03
            5553            5619     42.6225E-03     42.0428E-03
            5553            5620     40.4811E-03     38.5589E-03
            5554            5612     40.9907E-03     40.1728E-03
            5554            5613     46.0537E-03     45.0963E-03
            5554            5620     40.4811E-03     38.5589E-03
            5554            5621     45.1368E-03     43.3714E-03
            5555            5613     46.0537E-03     45.0963E-03
            5555            5614     56.7742E-03     56.1966E-03
            5555            5621     45.1368E-03     43.3714E-03
            5555            5622     55.0374E-03     54.3825E-03
            5556            5614     56.7742E-03     56.1966E-03
            5556            5615     70.8133E-03     70.3606E-03
            5556            5622     55.0374E-03     54.3825E-03
            5556            5623     67.5913E-03     67.5306E-03
            5557            5615     70.8133E-03     70.3606E-03
            5557            5616     86.8963E-03     85.9119E-03
            5557            5623     67.5913E-03     67.5306E-03
            5557            5624     81.9260E-03     81.4305E-03
            5558             269     89.5492E-03     88.5877E-03
            5558             270     95.3741E-03     93.9293E-03
            5558            5616     86.8963E-03     85.9119E-03
            5558            5624     81.9260E-03     81.4305E-03
            5559             655     70.2285E-03     70.1107E-03
            5559             656     64.6842E-03     64.7273E-03
            5559            5617     63.0673E-03     63.3956E-03
            5559            5625     58.6872E-03     59.6123E-03
            5560            5617     63.0673E-03     63.3956E-03
            5560            5618     50.6336E-03     51.2070E-03
            5560            5625     58.6872E-03     59.6123E-03
            5560            5626     48.6558E-03     49.3624E-03
            5561            5618     50.6336E-03     51.2070E-03
            5561            5619     42.6225E-03     42.0428E-03
            5561            5626     48.6558E-03     49.3624E-03
            5561            5627     42.0287E-03     40.3386E-03
            5562            5619     42.6225E-03     42.0428E-03
            5562            5620     40.4811E-03     38.5589E-03
            5562            5627     42.0287E-03     40.3386E-03
            5562            5628     39.9245E-03     36.8531E-03
            5563            5620     40.4811E-03     38.5589E-03
            5563            5621     45.1368E-03     43.3714E-03
            5563            5628     39.9245E-03     36.8531E-03
            5563            5629     44.0533E-03     41.5085E-03
            5564            5621     45.1368E-03     43.3714E-03
            5564            5622     55.0374E-03     54.3825E-03
            5564            5629     44.0533E-03     41.5085E-03
            5564            5630     53.2204E-03     52.2930E-03
            5565            5622     55.0374E-03     54.3825E-03
            5565            5623     67.5913E-03     67.5306E-03
            5565            5630     53.2204E-03     52.2930E-03
            5565            5631     64.5494E-03     65.0846E-03
            5566            5623     67.5913E-03     67.5306E-03
            5566            5624     81.9260E-03     81.4305E-03
            5566            5631     64.5494E-03     65.0846E-03
            5566            5632     76.7675E-03     77.0575E-03
            5567             268     83.1836E-03     82.7711E-03
            5567             269     89.5492E-03     88.5877E-03
            5567            5624     81.9260E-03     81.4305E-03
            5567            5632     76.7675E-03     77.0575E-03
            5568             656     64.6842E-03     64.7273E-03
            5568             657     57.7294E-03     59.9417E-03
            5568            5625     58.6872E-03     59.6123E-03
            5568            5633     54.2073E-03     55.6644E-03
            5569            5625     58.6872E-03     59.6123E-03
            5569            5626     48.6558E-03     49.3624E-03
            5569            5633     54.2073E-03     55.6644E-03
            5569            5634     47.4446E-03     46.3791E-03
            5570            5626     48.6558E-03     49.3624E-03
            5570            5627     42.0287E-03     40.3386E-03
            5570            5634     47.4446E-03     46.3791E-03
            5570            5635     41.7535E-03     38.5106E-03
            5571            5627     42.0287E-03     40.3386E-03
            5571            5628     39.9245E-03     36.8531E-03
            5571            5635     41.7535E-03     38.5106E-03
            5571            5636     39.5938E-03     36.0090E-03
            5572            5628     39.9245E-03     36.8531E-03
            5572            5629     44.0533E-03     41.5085E-03
            5572            5636     39.5938E-03     36.0090E-03
            5572            5637     43.0793E-03     40.1370E-03
            5573            5629     44.0533E-03     41.5085E-03
            5573            5630     53.2204E-03     52.2930E-03
            5573            5637     43.0793E-03     40.1370E-03
            5573            5638     51.1524E-03     49.4588E-03
            5574            5630     53.2204E-03     52.2930E-03
            5574            5631     64.5494E-03     65.0846E-03
            5574            5638     51.1524E-03     49.4588E-03
            5574            5639     61.3034E-03     61.4057E-03
            5575            5631     64.5494E-03     65.0846E-03
            5575            5632     76.7675E-03     77.0575E-03
            5575            5639     61.3034E-03     61.4057E-03
            5575            5640     71.4455E-03     72.4545E-03
            5576             267     76.3151E-03     77.1090E-03
            5576             268     83.1836E-03     82.7711E-03
            5576            5632     76.7675E-03     77.0575E-03
            5576            5640     71.4455E-03     72.4545E-03
            5577             657     57.7294E-03     59.9417E-03
            5577             658     50.4833E-03     47.3495E-03
            5577            5633     54.2073E-03     55.6644E-03
            5577            5641     49.8114E-03     45.6506E-03
            5578            5633     54.2073E-03     55.6644E-03
            5578            5634     47.4446E-03     46.3791E-03
            5578            5641     49.8114E-03     45.6506E-03
            5578            5642     46.4371E-03     41.6851E-03
            5579            5634     47.4446E-03     46.3791E-03
            5579            5635     41.7535E-03     38.5106E-03
            5579            5642     46.4371E-03     41.6851E-03
            5579            5643     42.0157E-03     38.3498E-03
            5580            5635     41.7535E-03     38.5106E-03
            5580            5636     39.5938E-03     36.0090E-03
            5580            5643     42.0157E-03     38.3498E-03
            5580            5644     40.6363E-03     37.9496E-03
            5581            5636     39.5938E-03     36.0090E-03
            5581            5637     43.0793E-03     40.1370E-03
            5581            5644     40.6363E-03     37.9496E-03
            5581            5645     43.2991E-03     41.0269E-03
            5582            5637     43.0793E-03     40.1370E-03
            5582            5638     51.1524E-03     49.4588E-03
            5582            5645     43.2991E-03     41.0269E-03
            5582            5646     49.3448E-03     46.9265E-03
            5583            5638     51.1524E-03     49.4588E-03
            5583            5639     61.3034E-03     61.4057E-03
            5583            5646     49.3448E-03     46.9265E-03
            5583            5647     57.1714E-03     54.6160E-03
            5584            5639     61.3034E-03     61.4057E-03
            5584            5640     71.4455E-03     72.4545E-03
            5584            5647     57.1714E-03     54.6160E-03
            5584            5648     64.2879E-03     62.2681E-03
            5585             266     67.3003E-03     65.7212E-03
            5585             267     76.3151E-03     77.1090E-03
            5585            5640     71.4455E-03     72.4545E-03
            5585            5648     64.2879E-03     62.2681E-03
            5586             658     50.4833E-03     47.3495E-03
            5586             659     63.0899E-03     56.6455E-03
            5586            5641     49.8114E-03     45.6506E-03
            5586            5649     57.0144E-03     51.4212E-03
            5587            5641     49.8114E-03     45.6506E-03
            5587            5642     46.4371E-03     41.6851E-03
            5587            5649     57.0144E-03     51.4212E-03
            5587            5650     46.1985E-03     42.7792E-03
            5588            5642     46.4371E-03     41.6851E-03
            5588            5643     42.0157E-03     38.3498E-03
            5588            5650     46.1985E-03     42.7792E-03
            5588            5651     39.5367E-03     38.0935E-03
            5589            5643     42.0157E-03     38.3498E-03
            5589            5644     40.6363E-03     37.9496E-03
            5589            5651     39.5367E-03     38.0935E-03
            5589            5652     37.2602E-03     36.7015E-03
            5590            5644     40.6363E-03     37.9496E-03
            5590            5645     43.2991E-03     41.0269E-03
            5590            5652     37.2602E-03     36.7015E-03
            5590            5653     39.4694E-03     38.7072E-03
            5591            5645     43.2991E-03     41.0269E-03
            5591            5646     49.3448E-03     46.9265E-03
            5591            5653     39.4694E-03     38.7072E-03
            5591            5654     45.8619E-03     43.8491E-03
            5592            5646     49.3448E-03     46.9265E-03
            5592            5647     57.1714E-03     54.6160E-03
            5592            5654     45.8619E-03     43.8491E-03
            5592            5655     55.3501E-03     51.6226E-03
            5593            5647     57.1714E-03     54.6160E-03
            5593            5648     64.2879E-03     62.2681E-03
            5593            5655     55.3501E-03     51.6226E-03
            5593            5656     69.0872E-03     63.8023E-03
            5594             265     77.1644E-03     71.2204E-03
            5594             266     67.3003E-03     65.7212E-03
            5594            5648     64.2879E-03     62.2681E-03
            5594            5656     69.0872E-03     63.8023E-03
            5595             659     63.0899E-03     56.6455E-03
            5595             660     73.9583E-03     72.6697E-03
            5595            5649     57.0144E-03     51.4212E-03
            5595            5657     64.8118E-03     64.2974E-03
            5596            5649     57.0144E-03     51.4212E-03
            5596            5650     46.1985E-03     42.7792E-03
            5596            5657     64.8118E-03     64.2974E-03
            5596            5658     48.6927E-03     49.2394E-03
            5597            5650     46.1985E-03     42.7792E-03
            5597            5651     39.5367E-03     38.0935E-03
            5597            5658     48.6927E-03     49.2394E-03
            5597            5659     38.8506E-03     39.8968E-03
            5598            5651     39.5367E-03     38.0935E-03
            5598            5652     37.2602E-03     36.7015E-03
            5598            5659     38.8506E-03     39.8968E-03
            5598            5660     35.4894E-03     36.6844E-03
            5599            5652     37.2602E-03     36.7015E-03
            5599            5653     39.4694E-03     38.7072E-03
            5599            5660     35.4894E-03     36.6844E-03
            5599            5661     37.6797E-03     38.3757E-03
            5600            5653     39.4694E-03     38.7072E-03
            5600            5654     45.8619E-03     43.8491E-03
            5600            5661     37.6797E-03     38.3757E-03
            5600            5662     44.8485E-03     44.5445E-03
            5601            5654     45.8619E-03     43.8491E-03
            5601            5655     55.3501E-03     51.6226E-03
            5601            5662     44.8485E-03     44.5445E-03
            5601            5663     57.4500E-03     56.3181E-03
            5602            5655     55.3501E-03     51.6226E-03
            5602            5656     69.0872E-03     63.8023E-03
            5602            5663     57.4500E-03     56.3181E-03
            5602            5664     75.7118E-03     73.3973E-03
            5603             264     85.8589E-03     82.6251E-03
            5603             265     77.1644E-03     71.2204E-03
            5603            5656     69.0872E-03     63.8023E-03
            5603            5664     75.7118E-03     73.3973E-03
            5604             660     73.9583E-03     72.6697E-03
            5604             661     64.2842E-03     63.9503E-03
            5604            5657     64.8118E-03     64.2974E-03
            5604            5665     59.4896E-03     59.6352E-03
            5605            5657     64.8118E-03     64.2974E-03
            5605            5658     48.6927E-03     49.2394E-03
            5605            5665     59.4896E-03     59.6352E-03
            5605            5666     49.8856E-03     50.9396E-03
            5606            5658     48.6927E-03     49.2394E-03
            5606            5659     38.8506E-03     39.8968E-03
            5606            5666     49.8856E-03     50.9396E-03
            5606            5667     42.3467E-03     43.9748E-03
            5607            5659     38.8506E-03     39.8968E-03
            5607            5660     35.4894E-03     36.6844E-03
            5607            5667     42.3467E-03     43.9748E-03
            5607            5668     39.7433E-03     41.4795E-03
            5608            5660     35.4894E-03     36.6844E-03
            5608            5661     37.6797E-03     38.3757E-03
            5608            5668     39.7433E-03     41.4795E-03
            5608            5669     41.6996E-03     43.1561E-03
            5609            5661     37.6797E-03     38.3757E-03
            5609            5662     44.8485E-03     44.5445E-03
            5609            5669     41.6996E-03     43.1561E-03
            5609            5670     47.7411E-03     48.8321E-03
            5610            5662     44.8485E-03     44.5445E-03
            5610            5663     57.4500E-03     56.3181E-03
            5610            5670     47.7411E-03     48.8321E-03
            5610            5671     57.8989E-03     58.5953E-03
            5611            5663     57.4500E-03     56.3181E-03
            5611            5664     75.7118E-03     73.3973E-03
            5611            5671     57.8989E-03     58.5953E-03
            5611            5672     69.2210E-03     69.2005E-03
            5612             263     74.5966E-03     74.1308E-03
            5612             264     85.8589E-03     82.6251E-03
            5612            5664     75.7118E-03     73.3973E-03
            5612            5672     69.2210E-03     69.2005E-03
            5613             661     64.2842E-03     63.9503E-03
            5613             662     57.1535E-03     56.9444E-03
            5613            5665     59.4896E-03     59.6352E-03
            5613            5673     53.5073E-03     53.5029E-03
            5614            5665     59.4896E-03     59.6352E-03
            5614            5666     49.8856E-03     50.9396E-03
            5614            5673     53.5073E-03     53.5029E-03
            5614            5674     47.3956E-03     48.0538E-03
            5615            5666     49.8856E-03     50.9396E-03
            5615            5667     42.3467E-03     43.9748E-03
            5615            5674     47.3956E-03     48.0538E-03
            5615            5675     43.5014E-03     44.8323E-03
            5616            5667     42.3467E-03     43.9748E-03
            5616            5668     39.7433E-03     41.4795E-03
            5616            5675     43.5014E-03     44.8323E-03
            5616            5676     42.0736E-03     43.5817E-03
            5617            5668     39.7433E-03     41.4795E-03
            5617            5669     41.6996E-03     43.1561E-03
            5617            5676     42.0736E-03     43.5817E-03
            5617            5677     43.8126E-03     45.1857E-03
            5618            5669     41.6996E-03     43.1561E-03
            5618            5670     47.7411E-03     48.8321E-03
            5618            5677     43.8126E-03     45.1857E-03
            5618            5678     48.5238E-03     49.5257E-03
            5619            5670     47.7411E-03     48.8321E-03
            5619            5671     57.8989E-03     58.5953E-03
            5619            5678     48.5238E-03     49.5257E-03
            5619            5679     54.9938E-03     55.2182E-03
            5620            5671     57.8989E-03     58.5953E-03
            5620            5672     69.2210E-03     69.2005E-03
            5620            5679     54.9938E-03     55.2182E-03
            5620            5680     62.8483E-03     62.1832E-03
            5621             262     67.2060E-03     66.1548E-03
            5621             263     74.5966E-03     74.1308E-03
            5621            5672     69.2210E-03     69.2005E-03
            5621            5680     62.8483E-03     62.1832E-03
            5622             662     57.1535E-03     56.9444E-03
            5622             663     51.9876E-03     51.4977E-03
            5622            5673     53.5073E-03     53.5029E-03
            5622            5681     49.1325E-03     49.0241E-03
            5623            5673     53.5073E-03     53.5029E-03
            5623            5674     47.3956E-03     48.0538E-03
            5623            5681     49.1325E-03     49.0241E-03
            5623            5682     44.7538E-03     45.2570E-03
            5624            5674     47.3956E-03     48.0538E-03
            5624            5675     43.5014E-03     44.8323E-03
            5624            5682     44.7538E-03     45.2570E-03
            5624            5683     42.8723E-03     43.7240E-03
            5625            5675     43.5014E-03     44.8323E-03
            5625            5676     42.0736E-03     43.5817E-03
            5625            5683     42.8723E-03     43.7240E-03
            5625            5684     42.9453E-03     43.9062E-03
            5626            5676     42.0736E-03     43.5817E-03
            5626            5677     43.8126E-03     45.1857E-03
            5626            5684     42.9453E-03     43.9062E-03
            5626            5685     44.5694E-03     45.3644E-03
            5627            5677     43.8126E-03     45.1857E-03
            5627            5678     48.5238E-03     49.5257E-03
            5627            5685     44.5694E-03     45.3644E-03
            5627            5686     47.5312E-03     47.8703E-03
            5628            5678     48.5238E-03     49.5257E-03
            5628            5679     54.9938E-03     55.2182E-03
            5628            5686     47.5312E-03     47.8703E-03
            5628            5687     51.8704E-03     51.6599E-03
            5629            5679     54.9938E-03     55.2182E-03
            5629            5680     62.8483E-03     62.1832E-03
            5629            5687     51.8704E-03     51.6599E-03
            5629            5688     57.8969E-03     57.2015E-03
            5630             261     61.3530E-03     60.4226E-03
            5630             262     67.2060E-03     66.1548E-03
            5630            5680     62.8483E-03     62.1832E-03
            5630            5688     57.8969E-03     57.2015E-03
            5631             663     51.9876E-03     51.4977E-03
            5631             664     46.5766E-03     46.3485E-03
            5631            5681     49.1325E-03     49.0241E-03
            5631            5689     44.8219E-03     44.8602E-03
            5632            5681     49.1325E-03     49.0241E-03
            5632            5682     44.7538E-03     45.2570E-03
            5632            5689     44.8219E-03     44.8602E-03
            5632            5690     42.4911E-03     42.9464E-03
            5633            5682     44.7538E-03     45.2570E-03
            5633            5683     42.8723E-03     43.7240E-03
            5633            5690     42.4911E-03     42.9464E-03
            5633            5691     42.1090E-03     42.6423E-03
            5634            5683     42.8723E-03     43.7240E-03
            5634            5684     42.9453E-03     43.9062E-03
            5634            5691     42.1090E-03     42.6423E-03
            5634            5692     42.9582E-03     43.3186E-03
            5635            5684     42.9453E-03     43.9062E-03
            5635            5685     44.5694E-03     45.3644E-03
            5635            5692     42.9582E-03     43.3186E-03
            5635            5693     44.4013E-03     44.5428E-03
            5636            5685     44.5694E-03     45.3644E-03
            5636            5686     47.5312E-03     47.8703E-03
            5636            5693     44.4013E-03     44.5428E-03
            5636            5694     46.3081E-03     46.2436E-03
            5637            5686     47.5312E-03     47.8703E-03
            5637            5687     51.8704E-03     51.6599E-03
            5637            5694     46.3081E-03     46.2436E-03
            5637            5695     49.0064E-03     48.7285E-03
            5638            5687     51.8704E-03     51.6599E-03
            5638            5688     57.8969E-03     57.2015E-03
            5638            5695     49.0064E-03     48.7285E-03
            5638            5696     53.0325E-03     52.4028E-03
            5639             260     55.4793E-03     54.6236E-03
            5639             261     61.3530E-03     60.4226E-03
            5639            5688     57.8969E-03     57.2015E-03
            5639            5696     53.0325E-03     52.4028E-03
            5640             664     46.5766E-03     46.3485E-03
            5640             665     41.6709E-03     41.5320E-03
            5640            5689     44.8219E-03     44.8602E-03
            5640            5697     40.8442E-03     41.0506E-03
            5641            5689     44.8219E-03     44.8602E-03
            5641            5690     42.4911E-03     42.9464E-03
            5641            5697     40.8442E-03     41.0506E-03
            5641            5698     40.3667E-03     40.8437E-03
            5642            5690     42.4911E-03     42.9464E-03
            5642            5691     42.1090E-03     42.6423E-03
            5642            5698     40.3667E-03     40.8437E-03
            5642            5699     41.4073E-03     41.5863E-03
            5643            5691     42.1090E-03     42.6423E-03
            5643            5692     42.9582E-03     43.3186E-03
            5643            5699     41.4073E-03     41.5863E-03
            5643            5700     42.7366E-03     42.5186E-03
            5644            5692     42.9582E-03     43.3186E-03
            5644            5693     44.4013E-03     44.5428E-03
            5644            5700     42.7366E-03     42.5186E-03
            5644            5701     43.9759E-03     43.5840E-03
            5645            5693     44.4013E-03     44.5428E-03
            5645            5694     46.3081E-03     46.2436E-03
            5645            5701     43.9759E-03     43.5840E-03
            5645            5702     45.0663E-03     44.7357E-03
            5646            5694     46.3081E-03     46.2436E-03
            5646            5695     49.0064E-03     48.7285E-03
            5646            5702     45.0663E-03     44.7357E-03
            5646            5703     46.2196E-03     45.9422E-03
            5647            5695     49.0064E-03     48.7285E-03
            5647            5696     53.0325E-03     52.4028E-03
            5647            5703     46.2196E-03     45.9422E-03
            5647            5704     48.3755E-03     47.9306E-03
            5648             259     49.8673E-03     49.2632E-03
            5648             260     55.4793E-03     54.6236E-03
            5648            5696     53.0325E-03     52.4028E-03
            5648            5704     48.3755E-03     47.9306E-03
            5649             665     41.6709E-03     41.5320E-03
            5649             666     36.7163E-03     37.0760E-03
            5649            5697     40.8442E-03     41.0506E-03
            5649            5705     37.1876E-03     37.6997E-03
            5650            5697     40.8442E-03     41.0506E-03
            5650            5698     40.3667E-03     40.8437E-03
            5650            5705     37.1876E-03     37.6997E-03
            5650            5706     38.7492E-03     39.1682E-03
            5651            5698     40.3667E-03     40.8437E-03
            5651            5699     41.4073E-03     41.5863E-03
            5651            5706     38.7492E-03     39.1682E-03
            5651            5707     40.7937E-03     40.5288E-03
            5652            5699     41.4073E-03     41.5863E-03
            5652            5700     42.7366E-03     42.5186E-03
            5652            5707     40.7937E-03     40.5288E-03
            5652            5708     42.3714E-03     41.4996E-03
            5653            5700     42.7366E-03     42.5186E-03
            5653            5701     43.9759E-03     43.5840E-03
            5653            5708     42.3714E-03     41.4996E-03
            5653            5709     43.3624E-03     42.4475E-03
            5654            5701     43.9759E-03     43.5840E-03
            5654            5702     45.0663E-03     44.7357E-03
            5654            5709     43.3624E-03     42.4475E-03
            5654            5710     43.8224E-03     43.2674E-03
            5655            5702     45.0663E-03     44.7357E-03
            5655            5703     46.2196E-03     45.9422E-03
            5655            5710     43.8224E-03     43.2674E-03
            5655            5711     43.7600E-03     43.6143E-03
            5656            5703     46.2196E-03     45.9422E-03
            5656            5704     48.3755E-03     47.9306E-03
            5656            5711     43.7600E-03     43.6143E-03
            5656            5712     43.9404E-03     43.7825E-03
            5657             258     44.2760E-03     43.9307E-03
            5657             259     49.8673E-03     49.2632E-03
            5657            5704     48.3755E-03     47.9306E-03
            5657            5712     43.9404E-03     43.7825E-03
            5658             666     36.7163E-03     37.0760E-03
            5658             667     32.0113E-03     32.7782E-03
            5658            5705     37.1876E-03     37.6997E-03
            5658            5713     33.9233E-03     34.7899E-03
            5659            5705     37.1876E-03     37.6997E-03
            5659            5706     38.7492E-03     39.1682E-03
            5659            5713     33.9233E-03     34.7899E-03
            5659            5714     37.7433E-03     37.9410E-03
            5660            5706     38.7492E-03     39.1682E-03
            5660            5707     40.7937E-03     40.5288E-03
            5660            5714     37.7433E-03     37.9410E-03
            5660            5715     40.4803E-03     39.4382E-03
            5661            5707     40.7937E-03     40.5288E-03
            5661            5708     42.3714E-03     41.4996E-03
            5661            5715     40.4803E-03     39.4382E-03
            5661            5716     41.6401E-03     40.1212E-03
            5662            5708     42.3714E-03     41.4996E-03
            5662            5709     43.3624E-03     42.4475E-03
            5662            5716     41.6401E-03     40.1212E-03
            5662            5717     42.3385E-03     40.9842E-03
            5663            5709     43.3624E-03     42.4475E-03
            5663            5710     43.8224E-03     43.2674E-03
            5663            5717     42.3385E-03     40.9842E-03
            5663            5718     42.6608E-03     41.8622E-03
            5664            5710     43.8224E-03     43.2674E-03
            5664            5711     43.7600E-03     43.6143E-03
            5664            5718     42.6608E-03     41.8622E-03
            5664            5719     41.6812E-03     41.6702E-03
            5665            5711     43.7600E-03     43.6143E-03
            5665            5712     43.9404E-03     43.7825E-03
            5665            5719     41.6812E-03     41.6702E-03
            5665            5720     39.6415E-03     39.9565E-03
            5666             257     38.5360E-03     38.7752E-03
            5666             258     44.2760E-03     43.9307E-03
            5666            5712     43.9404E-03     43.7825E-03
            5666            5720     39.6415E-03     39.9565E-03
            5667             667     32.0113E-03     32.7782E-03
            5667             668     27.4022E-03     29.4123E-03
            5667            5713     33.9233E-03     34.7899E-03
            5667            5721     31.6215E-03     32.5417E-03
            5668            5713     33.9233E-03     34.7899E-03
            5668            5714     37.7433E-03     37.9410E-03
            5668            5721     31.6215E-03     32.5417E-03
            5668            5722     37.7053E-03     36.7210E-03
            5669            5714     37.7433E-03     37.9410E-03
            5669            5715     40.4803E-03     39.4382E-03
            5669            5722     37.7053E-03     36.7210E-03
            5669            5723     39.8955E-03     38.0912E-03
            5670            5715     40.4803E-03     39.4382E-03
            5670            5716     41.6401E-03     40.1212E-03
            5670            5723     39.8955E-03     38.0912E-03
            5670            5724     40.5767E-03     38.8070E-03
            5671            5716     41.6401E-03     40.1212E-03
            5671            5717     42.3385E-03     40.9842E-03
            5671            5724     40.5767E-03     38.8070E-03
            5671            5725     41.0279E-03     39.5047E-03
            5672            5717     42.3385E-03     40.9842E-03
            5672            5718     42.6608E-03     41.8622E-03
            5672            5725     41.0279E-03     39.5047E-03
            5672            5726     41.1434E-03     40.1327E-03
            5673            5718     42.6608E-03     41.8622E-03
            5673            5719     41.6812E-03     41.6702E-03
            5673            5726     41.1434E-03     40.1327E-03
            5673            5727     39.9314E-03     39.7898E-03
            5674            5719     41.6812E-03     41.6702E-03
            5674            5720     39.6415E-03     39.9565E-03
            5674            5727     39.9314E-03     39.7898E-03
            5674            5728     35.7347E-03     36.4420E-03
            5675             256     32.7697E-03     33.7630E-03
            5675             257     38.5360E-03     38.7752E-03
            5675            5720     39.6415E-03     39.9565E-03
            5675            5728     35.7347E-03     36.4420E-03
            5676             668     27.4022E-03     29.4123E-03
            5676             669     24.8440E-03     25.6335E-03
            5676            5721     31.6215E-03     32.5417E-03
            5676            5729     30.5308E-03     29.8146E-03
            5677            5721     31.6215E-03     32.5417E-03
            5677            5722     37.7053E-03     36.7210E-03
            5677            5729     30.5308E-03     29.8146E-03
            5677            5730     37.2591E-03     35.2390E-03
            5678            5722     37.7053E-03     36.7210E-03
            5678            5723     39.8955E-03     38.0912E-03
            5678            5730     37.2591E-03     35.2390E-03
            5678            5731     38.9702E-03     37.3640E-03
            5679            5723     39.8955E-03     38.0912E-03
            5679            5724     40.5767E-03     38.8070E-03
            5679            5731     38.9702E-03     37.3640E-03
            5679            5732     39.8084E-03     38.5298E-03
            5680            5724     40.5767E-03     38.8070E-03
            5680            5725     41.0279E-03     39.5047E-03
            5680            5732     39.8084E-03     38.5298E-03
            5680            5733     39.9921E-03     38.9395E-03
            5681            5725     41.0279E-03     39.5047E-03
            5681            5726     41.1434E-03     40.1327E-03
            5681            5733     39.9921E-03     38.9395E-03
            5681            5734     39.4993E-03     38.5970E-03
            5682            5726     41.1434E-03     40.1327E-03
            5682            5727     39.9314E-03     39.7898E-03
            5682            5734     39.4993E-03     38.5970E-03
            5682            5735     37.7623E-03     37.1623E-03
            5683            5727     39.9314E-03     39.7898E-03
            5683            5728     35.7347E-03     36.4420E-03
            5683            5735     37.7623E-03     37.1623E-03
            5683            5736     31.3982E-03     31.7446E-03
            5684             255     26.2633E-03     27.2936E-03
            5684             256     32.7697E-03     33.7630E-03
            5684            5728     35.7347E-03     36.4420E-03
            5684            5736     31.3982E-03     31.7446E-03
            5685             669     24.8440E-03     25.6335E-03
            5685             670     32.2585E-03     31.7641E-03
            5685            5729     30.5308E-03     29.8146E-03
            5685            5737     34.5559E-03     33.7690E-03
            5686            5729     30.5308E-03     29.8146E-03
            5686            5730     37.2591E-03     35.2390E-03
            5686            5737     34.5559E-03     33.7690E-03
            5686            5738     37.0899E-03     36.3353E-03
            5687            5730     37.2591E-03     35.2390E-03
            5687            5731     38.9702E-03     37.3640E-03
            5687            5738     37.0899E-03     36.3353E-03
            5687            5739     38.2595E-03     37.8263E-03
            5688            5731     38.9702E-03     37.3640E-03
            5688            5732     39.8084E-03     38.5298E-03
            5688            5739     38.2595E-03     37.8263E-03
            5688            5740     39.2647E-03     38.8961E-03
            5689            5732     39.8084E-03     38.5298E-03
            5689            5733     39.9921E-03     38.9395E-03
            5689            5740     39.2647E-03     38.8961E-03
            5689            5741     39.4045E-03     39.0612E-03
            5690            5733     39.9921E-03     38.9395E-03
            5690            5734     39.4993E-03     38.5970E-03
            5690            5741     39.4045E-03     39.0612E-03
            5690            5742     38.7711E-03     38.2744E-03
            5691            5734     39.4993E-03     38.5970E-03
            5691            5735     37.7623E-03     37.1623E-03
            5691            5742     38.7711E-03     38.2744E-03
            5691            5743     37.7217E-03     37.1270E-03
            5692            5735     37.7623E-03     37.1623E-03
            5692            5736     31.3982E-03     31.7446E-03
            5692            5743     37.7217E-03     37.1270E-03
            5692            5744     35.2676E-03     34.5034E-03
            5693             254     33.1621E-03     32.2156E-03
            5693             255     26.2633E-03     27.2936E-03
            5693            5736     31.3982E-03     31.7446E-03
            5693            5744     35.2676E-03     34.5034E-03
            5694             670     32.2585E-03     31.7641E-03
            5694             671     35.7077E-03     36.0645E-03
            5694            5737     34.5559E-03     33.7690E-03
            5694            5745     37.1848E-03     37.5918E-03
            5695            5737     34.5559E-03     33.7690E-03
            5695            5738     37.0899E-03     36.3353E-03
            5695            5745     37.1848E-03     37.5918E-03
            5695            5746     38.6230E-03     39.0927E-03
            5696            5738     37.0899E-03     36.3353E-03
            5696            5739     38.2595E-03     37.8263E-03
            5696            5746     38.6230E-03     39.0927E-03
            5696            5747     39.2242E-03     39.5335E-03
            5697            5739     38.2595E-03     37.8263E-03
            5697            5740     39.2647E-03     38.8961E-03
            5697            5747     39.2242E-03     39.5335E-03
            5697            5748     39.8679E-03     39.9421E-03
            5698            5740     39.2647E-03     38.8961E-03
            5698            5741     39.4045E-03     39.0612E-03
            5698            5748     39.8679E-03     39.9421E-03
            5698            5749     40.0498E-03     40.0274E-03
            5699            5741     39.4045E-03     39.0612E-03
            5699            5742     38.7711E-03     38.2744E-03
            5699            5749     40.0498E-03     40.0274E-03
            5699            5750     39.8615E-03     39.7446E-03
            5700            5742     38.7711E-03     38.2744E-03
            5700            5743     37.7217E-03     37.1270E-03
            5700            5750     39.8615E-03     39.7446E-03
            5700            5751     39.7492E-03     39.6885E-03
            5701            5743     37.7217E-03     37.1270E-03
            5701            5744     35.2676E-03     34.5034E-03
            5701            5751     39.7492E-03     39.6885E-03
            5701            5752     39.2382E-03     38.5743E-03
            5702             253     38.4728E-03     37.0893E-03
            5702             254     33.1621E-03     32.2156E-03
            5702            5744     35.2676E-03     34.5034E-03
            5702            5752     39.2382E-03     38.5743E-03
            5703             671     35.7077E-03     36.0645E-03
            5703             672     27.8133E-03     28.5372E-03
            5703            5745     37.1848E-03     37.5918E-03
            5703            5753     32.7365E-03     33.3682E-03
            5704            5745     37.1848E-03     37.5918E-03
            5704            5746     38.6230E-03     39.0927E-03
            5704            5753     32.7365E-03     33.3682E-03
            5704            5754     39.4683E-03     39.8064E-03
            5705            5746     38.6230E-03     39.0927E-03
            5705            5747     39.2242E-03     39.5335E-03
            5705            5754     39.4683E-03     39.8064E-03
            5705            5755     41.2243E-03     41.3269E-03
            5706            5747     39.2242E-03     39.5335E-03
            5706            5748     39.8679E-03     39.9421E-03
            5706            5755     41.2243E-03     41.3269E-03
            5706            5756     41.2672E-03     41.3146E-03
            5707            5748     39.8679E-03     39.9421E-03
            5707            5749     40.0498E-03     40.0274E-03
            5707            5756     41.2672E-03     41.3146E-03
            5707            5757     41.3653E-03     41.3940E-03
            5708            5749     40.0498E-03     40.0274E-03
            5708            5750     39.8615E-03     39.7446E-03
            5708            5757     41.3653E-03     41.3940E-03
            5708            5758     41.5083E-03     41.5952E-03
            5709            5750     39.8615E-03     39.7446E-03
            5709            5751     39.7492E-03     39.6885E-03
            5709            5758     41.5083E-03     41.5952E-03
            5709            5759     40.2572E-03     40.1340E-03
            5710            5751     39.7492E-03     39.6885E-03
            5710            5752     39.2382E-03     38.5743E-03
            5710            5759     40.2572E-03     40.1340E-03
            5710            5760     34.2152E-03     33.8507E-03
            5711             252     29.5646E-03     29.2244E-03
            5711             253     38.4728E-03     37.0893E-03
            5711            5752     39.2382E-03     38.5743E-03
            5711            5760     34.2152E-03     33.8507E-03
            5712             672     27.8133E-03     28.5372E-03
            5712             673     24.6020E-03     25.8096E-03
            5712            5753     32.7365E-03     33.3682E-03
            5712            5761     30.7542E-03     31.4287E-03
            5713            5753     32.7365E-03     33.3682E-03
            5713            5754     39.4683E-03     39.8064E-03
            5713            5761     30.7542E-03     31.4287E-03
            5713            5762     39.1845E-03     39.1181E-03
            5714            5754     39.4683E-03     39.8064E-03
            5714            5755     41.2243E-03     41.3269E-03
            5714            5762     39.1845E-03     39.1181E-03
            5714            5763     41.5226E-03     41.3567E-03
            5715            5755     41.2243E-03     41.3269E-03
            5715            5756     41.2672E-03     41.3146E-03
            5715            5763     41.5226E-03     41.3567E-03
            5715            5764     41.6116E-03     41.5663E-03
            5716            5756     41.2672E-03     41.3146E-03
            5716            5757     41.3653E-03     41.3940E-03
            5716            5764     41.6116E-03     41.5663E-03
            5716            5765     41.6324E-03     41.6360E-03
            5717            5757     41.3653E-03     41.3940E-03
            5717            5758     41.5083E-03     41.5952E-03
            5717            5765     41.6324E-03     41.6360E-03
            5717            5766     41.5553E-03     41.5843E-03
            5718            5758     41.5083E-03     41.5952E-03
            5718            5759     40.2572E-03     40.1340E-03
            5718            5766     41.5553E-03     41.5843E-03
            5718            5767     39.4415E-03     39.1909E-03
            5719            5759     40.2572E-03     40.1340E-03
            5719            5760     34.2152E-03     33.8507E-03
            5719            5767     39.4415E-03     39.1909E-03
            5719            5768     31.5676E-03     31.1150E-03
            5720             251     25.7383E-03     25.3523E-03
            5720             252     29.5646E-03     29.2244E-03
            5720            5760     34.2152E-03     33.8507E-03
            5720            5768     31.5676E-03     31.1150E-03
            5721             673     24.6020E-03     25.8096E-03
            5721             674     27.0224E-03     27.6970E-03
            5721            5761     30.7542E-03     31.4287E-03
            5721            5769     32.1245E-03     32.2145E-03
            5722            5761     30.7542E-03     31.4287E-03
            5722            5762     39.1845E-03     39.1181E-03
            5722            5769     32.1245E-03     32.2145E-03
            5722            5770     38.3377E-03     37.9735E-03
            5723            5762     39.1845E-03     39.1181E-03
            5723            5763     41.5226E-03     41.3567E-03
            5723            5770     38.3377E-03     37.9735E-03
            5723            5771     40.3013E-03     40.1086E-03
            5724            5763     41.5226E-03     41.3567E-03
            5724            5764     41.6116E-03     41.5663E-03
            5724            5771     40.3013E-03     40.1086E-03
            5724            5772     41.2043E-03     41.1220E-03
            5725            5764     41.6116E-03     41.5663E-03
            5725            5765     41.6324E-03     41.6360E-03
            5725            5772     41.2043E-03     41.1220E-03
            5725            5773     41.1498E-03     41.1662E-03
            5726            5765     41.6324E-03     41.6360E-03
            5726            5766     41.5553E-03     41.5843E-03
            5726            5773     41.1498E-03     41.1662E-03
            5726            5774     40.1848E-03     40.1648E-03
            5727            5766     41.5553E-03     41.5843E-03
            5727            5767     39.4415E-03     39.1909E-03
            5727            5774     40.1848E-03     40.1648E-03
            5727            5775     37.9409E-03     38.0224E-03
            5728            5767     39.4415E-03     39.1909E-03
            5728            5768     31.5676E-03     31.1150E-03
            5728            5775     37.9409E-03     38.0224E-03
            5728            5776     31.5996E-03     31.6057E-03
            5729             250     26.6419E-03     26.4052E-03
            5729             251     25.7383E-03     25.3523E-03
            5729            5768     31.5676E-03     31.1150E-03
            5729            5776     31.5996E-03     31.6057E-03
            5730              13     15.1255E-03     15.3293E-03
            5730             674     27.0224E-03     27.6970E-03
            5730             792     16.9914E-03     16.9661E-03
            5730            5769     32.1245E-03     32.2145E-03
            5731             792     16.9914E-03     16.9661E-03
            5731             793     19.3381E-03     19.1708E-03
            5731            5769     32.1245E-03     32.2145E-03
            5731            5770     38.3377E-03     37.9735E-03
            5732             793     19.3381E-03     19.1708E-03
            5732             794     20.3294E-03     20.2560E-03
            5732            5770     38.3377E-03     37.9735E-03
            5732            5771     40.3013E-03     40.1086E-03
            5733             794     20.3294E-03     20.2560E-03
            5733             795     20.9894E-03     20.9621E-03
            5733            5771     40.3013E-03     40.1086E-03
            5733            5772     41.2043E-03     41.1220E-03
            5734             795     20.9894E-03     20.9621E-03
            5734             796     20.9457E-03     20.9705E-03
            5734            5772     41.2043E-03     41.1220E-03
            5734            5773     41.1498E-03     41.1662E-03
            5735             796     20.9457E-03     20.9705E-03
            5735             797     20.2245E-03     20.2468E-03
            5735            5773     41.1498E-03     41.1662E-03
            5735            5774     40.1848E-03     40.1648E-03
            5736             797     20.2245E-03     20.2468E-03
            5736             798     19.0437E-03     19.1521E-03
            5736            5774     40.1848E-03     40.1648E-03
            5736            5775     37.9409E-03     38.0224E-03
            5737             798     19.0437E-03     19.1521E-03
            5737             799     16.4646E-03     16.5273E-03
            5737            5775     37.9409E-03     38.0224E-03
            5737            5776     31.5996E-03     31.6057E-03
            5738              15     14.5380E-03     14.4537E-03
            5738             250     26.6419E-03     26.4052E-03
            5738             799     16.4646E-03     16.5273E-03
            5738            5776     31.5996E-03     31.6057E-03


  Minimum                            693.453E-06     710.381E-06
      At Element                            5369            5369
            Node                             768             768

  Maximum                            186.356E-03     182.992E-03
      At Element                            3868            3868
            Node                             182             182

           Total                         235.307         233.255


Field Output reported at element nodes for region: A320-1.Region_3
   Computation algorithm: EXTRAPOLATE_COMPUTE_AVERAGE
   Averaged at nodes
   Averaging regions: ODB_REGIONS

   Element Label      Node Label         S.Mises         S.Mises
                                          @Loc 1          @Loc 2
-----------------------------------------------------------------
               1               1     959.525E-06     954.172E-06
               1              29     967.701E-06     961.468E-06
               1              46     937.169E-06     930.208E-06
               1             831     942.261E-06     936.124E-06
               2              29     967.701E-06     961.468E-06
               2              30     981.220E-06     967.898E-06
               2             831     942.261E-06     936.124E-06
               2             832     954.547E-06     940.972E-06
               3              30     981.220E-06     967.898E-06
               3              31     972.131E-06     954.554E-06
               3             832     954.547E-06     940.972E-06
               3             833     948.820E-06     932.450E-06
               4               2     17.2798E-03     17.1917E-03
               4              31     972.131E-06     954.554E-06
               4              32     17.7894E-03     17.6567E-03
               4             833     948.820E-06     932.450E-06
               5              45     855.693E-06     847.351E-06
               5              46     937.169E-06     930.208E-06
               5             831     942.261E-06     936.124E-06
               5             834     863.268E-06     858.550E-06
               6             831     942.261E-06     936.124E-06
               6             832     954.547E-06     940.972E-06
               6             834     863.268E-06     858.550E-06
               6             835     881.947E-06     866.775E-06
               7             832     954.547E-06     940.972E-06
               7             833     948.820E-06     932.450E-06
               7             835     881.947E-06     866.775E-06
               7             836     875.229E-06     865.219E-06
               8              32     17.7894E-03     17.6567E-03
               8              33     17.3276E-03     17.1665E-03
               8             833     948.820E-06     932.450E-06
               8             836     875.229E-06     865.219E-06
               9              44     732.260E-06     722.452E-06
               9              45     855.693E-06     847.351E-06
               9             834     863.268E-06     858.550E-06
               9             837     737.197E-06     735.070E-06
              10             834     863.268E-06     858.550E-06
              10             835     881.947E-06     866.775E-06
              10             837     737.197E-06     735.070E-06
              10             838     765.812E-06     744.024E-06
              11             835     881.947E-06     866.775E-06
              11             836     875.229E-06     865.219E-06
              11             838     765.812E-06     744.024E-06
              11             839     766.296E-06     761.861E-06
              12              33     17.3276E-03     17.1665E-03
              12              34     15.8980E-03     15.7629E-03
              12             836     875.229E-06     865.219E-06
              12             839     766.296E-06     761.861E-06
              13              43     559.539E-06     546.024E-06
              13              44     732.260E-06     722.452E-06
              13             837     737.197E-06     735.070E-06
              13             840     566.707E-06     578.147E-06
              14             837     737.197E-06     735.070E-06
              14             838     765.812E-06     744.024E-06
              14             840     566.707E-06     578.147E-06
              14             841     615.380E-06     594.206E-06
              15             838     765.812E-06     744.024E-06
              15             839     766.296E-06     761.861E-06
              15             841     615.380E-06     594.206E-06
              15             842     622.556E-06     628.048E-06
              16              34     15.8980E-03     15.7629E-03
              16              35     13.4323E-03     13.5262E-03
              16             839     766.296E-06     761.861E-06
              16             842     622.556E-06     628.048E-06
              17              42     364.182E-06     333.512E-06
              17              43     559.539E-06     546.024E-06
              17             840     566.707E-06     578.147E-06
              17             843     361.985E-06     389.345E-06
              18             840     566.707E-06     578.147E-06
              18             841     615.380E-06     594.206E-06
              18             843     361.985E-06     389.345E-06
              18             844     454.108E-06     413.190E-06
              19             841     615.380E-06     594.206E-06
              19             842     622.556E-06     628.048E-06
              19             844     454.108E-06     413.190E-06
              19             845     474.731E-06     486.953E-06
              20              35     13.4323E-03     13.5262E-03
              20              36     10.6434E-03     10.9851E-03
              20             842     622.556E-06     628.048E-06
              20             845     474.731E-06     486.953E-06
              21              41     253.097E-06     310.833E-06
              21              42     364.182E-06     333.512E-06
              21             843     361.985E-06     389.345E-06
              21             846     245.695E-06     324.588E-06
              22             843     361.985E-06     389.345E-06
              22             844     454.108E-06     413.190E-06
              22             846     245.695E-06     324.588E-06
              22             847     400.847E-06     341.408E-06
              23             844     454.108E-06     413.190E-06
              23             845     474.731E-06     486.953E-06
              23             847     400.847E-06     341.408E-06
              23             848     520.211E-06     534.714E-06
              24              36     10.6434E-03     10.9851E-03
              24              37     8.05259E-03     9.28938E-03
              24             845     474.731E-06     486.953E-06
              24             848     520.211E-06     534.714E-06
              25               4     228.961E-06     390.242E-06
              25              40     236.155E-06     362.961E-06
              25              41     253.097E-06     310.833E-06
              25             846     245.695E-06     324.588E-06
              26              39     428.634E-06     376.302E-06
              26              40     236.155E-06     362.961E-06
              26             846     245.695E-06     324.588E-06
              26             847     400.847E-06     341.408E-06
              27              38     628.428E-06     647.988E-06
              27              39     428.634E-06     376.302E-06
              27             847     400.847E-06     341.408E-06
              27             848     520.211E-06     534.714E-06
              28               3     6.71824E-03     8.81196E-03
              28              37     8.05259E-03     9.28938E-03
              28              38     628.428E-06     647.988E-06
              28             848     520.211E-06     534.714E-06
              29               2     17.2798E-03     17.1917E-03
              29              32     17.7894E-03     17.6567E-03
              29              47     33.8101E-03     33.5517E-03
              29             849     34.8513E-03     34.5360E-03
              30              47     33.8101E-03     33.5517E-03
              30              48     33.9502E-03     33.7769E-03
              30             849     34.8513E-03     34.5360E-03
              30             850     34.9712E-03     34.7541E-03
              31              48     33.9502E-03     33.7769E-03
              31              49     33.8630E-03     33.7517E-03
              31             850     34.9712E-03     34.7541E-03
              31             851     34.8860E-03     34.7199E-03
              32              49     33.8630E-03     33.7517E-03
              32              50     33.7999E-03     33.8940E-03
              32             851     34.8860E-03     34.7199E-03
              32             852     34.7543E-03     34.7988E-03
              33              50     33.7999E-03     33.8940E-03
              33              51     34.3285E-03     34.0385E-03
              33             852     34.7543E-03     34.7988E-03
              33             853     35.0359E-03     34.9156E-03
              34              51     34.3285E-03     34.0385E-03
              34              52     34.2444E-03     33.5642E-03
              34             853     35.0359E-03     34.9156E-03
              34             854     34.9611E-03     34.2813E-03
              35              52     34.2444E-03     33.5642E-03
              35              53     33.2312E-03     33.0519E-03
              35             854     34.9611E-03     34.2813E-03
              35             855     33.9611E-03     33.6480E-03
              36              53     33.2312E-03     33.0519E-03
              36              54     33.0182E-03     32.6519E-03
              36             855     33.9611E-03     33.6480E-03
              36             856     33.5616E-03     33.2815E-03
              37              54     33.0182E-03     32.6519E-03
              37              55     33.3640E-03     32.6212E-03
              37             856     33.5616E-03     33.2815E-03
              37             857     33.7767E-03     33.1077E-03
              38              55     33.3640E-03     32.6212E-03
              38              56     33.5870E-03     32.9294E-03
              38             857     33.7767E-03     33.1077E-03
              38             858     33.8664E-03     33.3403E-03
              39              56     33.5870E-03     32.9294E-03
              39              57     33.7372E-03     33.1889E-03
              39             858     33.8664E-03     33.3403E-03
              39             859     33.8200E-03     33.4727E-03
              40              57     33.7372E-03     33.1889E-03
              40              58     33.8173E-03     33.5818E-03
              40             859     33.8200E-03     33.4727E-03
              40             860     33.8079E-03     33.7070E-03
              41              58     33.8173E-03     33.5818E-03
              41              59     34.0007E-03     34.0967E-03
              41             860     33.8079E-03     33.7070E-03
              41             861     33.8884E-03     33.9925E-03
              42              59     34.0007E-03     34.0967E-03
              42              60     34.1568E-03     34.3447E-03
              42             861     33.8884E-03     33.9925E-03
              42             862     33.9783E-03     34.0498E-03
              43              60     34.1568E-03     34.3447E-03
              43              61     33.9645E-03     35.1395E-03
              43             862     33.9783E-03     34.0498E-03
              43             863     33.6633E-03     34.4327E-03
              44              61     33.9645E-03     35.1395E-03
              44              62     35.4618E-03     35.4289E-03
              44             863     33.6633E-03     34.4327E-03
              44             864     34.4516E-03     34.6201E-03
              45              62     35.4618E-03     35.4289E-03
              45              63     35.3798E-03     34.3880E-03
              45             864     34.4516E-03     34.6201E-03
              45             865     34.4642E-03     33.1766E-03
              46              63     35.3798E-03     34.3880E-03
              46              64     33.3879E-03     33.9751E-03
              46             865     34.4642E-03     33.1766E-03
              46             866     32.8674E-03     32.7235E-03
              47              64     33.3879E-03     33.9751E-03
              47              65     33.5079E-03     33.1999E-03
              47             866     32.8674E-03     32.7235E-03
              47             867     32.4478E-03     32.4832E-03
              48              65     33.5079E-03     33.1999E-03
              48              66     34.3394E-03     32.9795E-03
              48             867     32.4478E-03     32.4832E-03
              48             868     32.9001E-03     31.7612E-03
              49              66     34.3394E-03     32.9795E-03
              49              67     34.8054E-03     33.8655E-03
              49             868     32.9001E-03     31.7612E-03
              49             869     33.2680E-03     32.3540E-03
              50              67     34.8054E-03     33.8655E-03
              50              68     35.1395E-03     34.3321E-03
              50             869     33.2680E-03     32.3540E-03
              50             870     33.1860E-03     32.6779E-03
              51              68     35.1395E-03     34.3321E-03
              51              69     35.3013E-03     35.0625E-03
              51             870     33.1860E-03     32.6779E-03
              51             871     33.2316E-03     33.0608E-03
              52              69     35.3013E-03     35.0625E-03
              52              70     35.5883E-03     35.9023E-03
              52             871     33.2316E-03     33.0608E-03
              52             872     33.3442E-03     33.5453E-03
              53              70     35.5883E-03     35.9023E-03
              53              71     35.8133E-03     36.2260E-03
              53             872     33.3442E-03     33.5453E-03
              53             873     33.3928E-03     33.6390E-03
              54              71     35.8133E-03     36.2260E-03
              54              72     35.4100E-03     37.4731E-03
              54             873     33.3928E-03     33.6390E-03
              54             874     32.8208E-03     34.1845E-03
              55              72     35.4100E-03     37.4731E-03
              55              73     37.7411E-03     37.6389E-03
              55             874     32.8208E-03     34.1845E-03
              55             875     33.9546E-03     34.3402E-03
              56              73     37.7411E-03     37.6389E-03
              56              74     37.4026E-03     36.1274E-03
              56             875     33.9546E-03     34.3402E-03
              56             876     33.9119E-03     32.2210E-03
              57              74     37.4026E-03     36.1274E-03
              57              75     34.5585E-03     36.3140E-03
              57             876     33.9119E-03     32.2210E-03
              57             877     31.9222E-03     32.1771E-03
              58              75     34.5585E-03     36.3140E-03
              58              76     35.7234E-03     35.3472E-03
              58             877     31.9222E-03     32.1771E-03
              58             878     31.9513E-03     32.1739E-03
              59              76     35.7234E-03     35.3472E-03
              59              77     37.1022E-03     35.0855E-03
              59             878     31.9513E-03     32.1739E-03
              59             879     32.6713E-03     31.0523E-03
              60              77     37.1022E-03     35.0855E-03
              60              78     37.4740E-03     36.5426E-03
              60             879     32.6713E-03     31.0523E-03
              60             880     33.2013E-03     32.0306E-03
              61              78     37.4740E-03     36.5426E-03
              61              79     38.0184E-03     37.0166E-03
              61             880     33.2013E-03     32.0306E-03
              61             881     33.1346E-03     32.4810E-03
              62              79     38.0184E-03     37.0166E-03
              62              80     38.2199E-03     38.0150E-03
              62             881     33.1346E-03     32.4810E-03
              62             882     33.2248E-03     32.9905E-03
              63              80     38.2199E-03     38.0150E-03
              63              81     38.5562E-03     39.0575E-03
              63             882     33.2248E-03     32.9905E-03
              63             883     33.3393E-03     33.6223E-03
              64              81     38.5562E-03     39.0575E-03
              64              82     38.8298E-03     39.3739E-03
              64             883     33.3393E-03     33.6223E-03
              64             884     33.3240E-03     33.7121E-03
              65              82     38.8298E-03     39.3739E-03
              65              83     38.1867E-03     41.0183E-03
              65             884     33.3240E-03     33.7121E-03
              65             885     32.4906E-03     34.3896E-03
              66              83     38.1867E-03     41.0183E-03
              66              84     41.2759E-03     40.9489E-03
              66             885     32.4906E-03     34.3896E-03
              66             886     33.9337E-03     34.4348E-03
              67              84     41.2759E-03     40.9489E-03
              67              85     40.5869E-03     39.0700E-03
              67             886     33.9337E-03     34.4348E-03
              67             887     33.7774E-03     31.7569E-03
              68              85     40.5869E-03     39.0700E-03
              68              86     36.8001E-03     39.9666E-03
              68             887     33.7774E-03     31.7569E-03
              68             888     31.4296E-03     32.2052E-03
              69              86     36.8001E-03     39.9666E-03
              69              87     39.2000E-03     38.8785E-03
              69             888     31.4296E-03     32.2052E-03
              69             889     31.9970E-03     32.4659E-03
              70              87     39.2000E-03     38.8785E-03
              70              88     41.0147E-03     38.7173E-03
              70             889     31.9970E-03     32.4659E-03
              70             890     33.0233E-03     31.1564E-03
              71              88     41.0147E-03     38.7173E-03
              71              89     41.0725E-03     40.6643E-03
              71             890     33.0233E-03     31.1564E-03
              71             891     33.4400E-03     32.4152E-03
              72              89     41.0725E-03     40.6643E-03
              72              90     41.4713E-03     41.1406E-03
              72             891     33.4400E-03     32.4152E-03
              72             892     33.2957E-03     33.0166E-03
              73              90     41.4713E-03     41.1406E-03
              73              91     42.0220E-03     42.1110E-03
              73             892     33.2957E-03     33.0166E-03
              73             893     33.4331E-03     33.5055E-03
              74              91     42.0220E-03     42.1110E-03
              74              92     42.1497E-03     42.4735E-03
              74             893     33.4331E-03     33.5055E-03
              74             894     33.3964E-03     33.7117E-03
              75              92     42.1497E-03     42.4735E-03
              75              93     41.2874E-03     44.3566E-03
              75             894     33.3964E-03     33.7117E-03
              75             895     32.2076E-03     34.4561E-03
              76              93     41.2874E-03     44.3566E-03
              76              94     44.8935E-03     44.0554E-03
              76             895     32.2076E-03     34.4561E-03
              76             896     33.8778E-03     34.3667E-03
              77              94     44.8935E-03     44.0554E-03
              77              95     43.7941E-03     42.0525E-03
              77             896     33.8778E-03     34.3667E-03
              77             897     33.4989E-03     31.3496E-03
              78               5     61.4291E-03     66.1281E-03
              78              95     43.7941E-03     42.0525E-03
              78              96     46.6041E-03     48.8527E-03
              78             897     33.4989E-03     31.3496E-03
              79              32     17.7894E-03     17.6567E-03
              79              33     17.3276E-03     17.1665E-03
              79             849     34.8513E-03     34.5360E-03
              79             898     34.0213E-03     33.6670E-03
              80             849     34.8513E-03     34.5360E-03
              80             850     34.9712E-03     34.7541E-03
              80             898     34.0213E-03     33.6670E-03
              80             899     34.1999E-03     33.9996E-03
              81             850     34.9712E-03     34.7541E-03
              81             851     34.8860E-03     34.7199E-03
              81             899     34.1999E-03     33.9996E-03
              81             900     34.1587E-03     34.0260E-03
              82             851     34.8860E-03     34.7199E-03
              82             852     34.7543E-03     34.7988E-03
              82             900     34.1587E-03     34.0260E-03
              82             901     34.1907E-03     34.3754E-03
              83             852     34.7543E-03     34.7988E-03
              83             853     35.0359E-03     34.9156E-03
              83             901     34.1907E-03     34.3754E-03
              83             902     34.8601E-03     34.6705E-03
              84             853     35.0359E-03     34.9156E-03
              84             854     34.9611E-03     34.2813E-03
              84             902     34.8601E-03     34.6705E-03
              84             903     34.8222E-03     34.1405E-03
              85             854     34.9611E-03     34.2813E-03
              85             855     33.9611E-03     33.6480E-03
              85             903     34.8222E-03     34.1405E-03
              85             904     33.4114E-03     33.4134E-03
              86             855     33.9611E-03     33.6480E-03
              86             856     33.5616E-03     33.2815E-03
              86             904     33.4114E-03     33.4134E-03
              86             905     32.9666E-03     32.9376E-03
              87             856     33.5616E-03     33.2815E-03
              87             857     33.7767E-03     33.1077E-03
              87             905     32.9666E-03     32.9376E-03
              87             906     33.4519E-03     33.2853E-03
              88             857     33.7767E-03     33.1077E-03
              88             858     33.8664E-03     33.3403E-03
              88             906     33.4519E-03     33.2853E-03
              88             907     33.8611E-03     34.0586E-03
              89             858     33.8664E-03     33.3403E-03
              89             859     33.8200E-03     33.4727E-03
              89             907     33.8611E-03     34.0586E-03
              89             908     34.4373E-03     34.6517E-03
              90             859     33.8200E-03     33.4727E-03
              90             860     33.8079E-03     33.7070E-03
              90             908     34.4373E-03     34.6517E-03
              90             909     35.0350E-03     35.2804E-03
              91             860     33.8079E-03     33.7070E-03
              91             861     33.8884E-03     33.9925E-03
              91             909     35.0350E-03     35.2804E-03
              91             910     35.8834E-03     35.8268E-03
              92             861     33.8884E-03     33.9925E-03
              92             862     33.9783E-03     34.0498E-03
              92             910     35.8834E-03     35.8268E-03
              92             911     36.6398E-03     36.1022E-03
              93             862     33.9783E-03     34.0498E-03
              93             863     33.6633E-03     34.4327E-03
              93             911     36.6398E-03     36.1022E-03
              93             912     36.7760E-03     37.2602E-03
              94             863     33.6633E-03     34.4327E-03
              94             864     34.4516E-03     34.6201E-03
              94             912     36.7760E-03     37.2602E-03
              94             913     38.7025E-03     37.5155E-03
              95             864     34.4516E-03     34.6201E-03
              95             865     34.4642E-03     33.1766E-03
              95             913     38.7025E-03     37.5155E-03
              95             914     38.3098E-03     36.4682E-03
              96             865     34.4642E-03     33.1766E-03
              96             866     32.8674E-03     32.7235E-03
              96             914     38.3098E-03     36.4682E-03
              96             915     35.2511E-03     36.5068E-03
              97             866     32.8674E-03     32.7235E-03
              97             867     32.4478E-03     32.4832E-03
              97             915     35.2511E-03     36.5068E-03
              97             916     35.7551E-03     35.8522E-03
              98             867     32.4478E-03     32.4832E-03
              98             868     32.9001E-03     31.7612E-03
              98             916     35.7551E-03     35.8522E-03
              98             917     37.0223E-03     36.3293E-03
              99             868     32.9001E-03     31.7612E-03
              99             869     33.2680E-03     32.3540E-03
              99             917     37.0223E-03     36.3293E-03
              99             918     37.4697E-03     38.0369E-03
             100             869     33.2680E-03     32.3540E-03
             100             870     33.1860E-03     32.6779E-03
             100             918     37.4697E-03     38.0369E-03
             100             919     38.5403E-03     38.6778E-03
             101             870     33.1860E-03     32.6779E-03
             101             871     33.2316E-03     33.0608E-03
             101             919     38.5403E-03     38.6778E-03
             101             920     39.4609E-03     39.5805E-03
             102             871     33.2316E-03     33.0608E-03
             102             872     33.3442E-03     33.5453E-03
             102             920     39.4609E-03     39.5805E-03
             102             921     40.6238E-03     40.3470E-03
             103             872     33.3442E-03     33.5453E-03
             103             873     33.3928E-03     33.6390E-03
             103             921     40.6238E-03     40.3470E-03
             103             922     41.5620E-03     40.6685E-03
             104             873     33.3928E-03     33.6390E-03
             104             874     32.8208E-03     34.1845E-03
             104             922     41.5620E-03     40.6685E-03
             104             923     41.3998E-03     42.3974E-03
             105             874     32.8208E-03     34.1845E-03
             105             875     33.9546E-03     34.3402E-03
             105             923     41.3998E-03     42.3974E-03
             105             924     44.1002E-03     42.2520E-03
             106             875     33.9546E-03     34.3402E-03
             106             876     33.9119E-03     32.2210E-03
             106             924     44.1002E-03     42.2520E-03
             106             925     43.0765E-03     40.4778E-03
             107             876     33.9119E-03     32.2210E-03
             107             877     31.9222E-03     32.1771E-03
             107             925     43.0765E-03     40.4778E-03
             107             926     38.5360E-03     41.3009E-03
             108             877     31.9222E-03     32.1771E-03
             108             878     31.9513E-03     32.1739E-03
             108             926     38.5360E-03     41.3009E-03
             108             927     40.5126E-03     40.4422E-03
             109             878     31.9513E-03     32.1739E-03
             109             879     32.6713E-03     31.0523E-03
             109             927     40.5126E-03     40.4422E-03
             109             928     42.5791E-03     41.1093E-03
             110             879     32.6713E-03     31.0523E-03
             110             880     33.2013E-03     32.0306E-03
             110             928     42.5791E-03     41.1093E-03
             110             929     42.6553E-03     43.6206E-03
             111             880     33.2013E-03     32.0306E-03
             111             881     33.1346E-03     32.4810E-03
             111             929     42.6553E-03     43.6206E-03
             111             930     44.0968E-03     44.0488E-03
             112             881     33.1346E-03     32.4810E-03
             112             882     33.2248E-03     32.9905E-03
             112             930     44.0968E-03     44.0488E-03
             112             931     45.1379E-03     45.0973E-03
             113             882     33.2248E-03     32.9905E-03
             113             883     33.3393E-03     33.6223E-03
             113             931     45.1379E-03     45.0973E-03
             113             932     46.3704E-03     45.9216E-03
             114             883     33.3393E-03     33.6223E-03
             114             884     33.3240E-03     33.7121E-03
             114             932     46.3704E-03     45.9216E-03
             114             933     47.2892E-03     46.1357E-03
             115             884     33.3240E-03     33.7121E-03
             115             885     32.4906E-03     34.3896E-03
             115             933     47.2892E-03     46.1357E-03
             115             934     46.6985E-03     48.1908E-03
             116             885     32.4906E-03     34.3896E-03
             116             886     33.9337E-03     34.4348E-03
             116             934     46.6985E-03     48.1908E-03
             116             935     49.9060E-03     47.4754E-03
             117             886     33.9337E-03     34.4348E-03
             117             887     33.7774E-03     31.7569E-03
             117             935     49.9060E-03     47.4754E-03
             117             936     48.1856E-03     44.9701E-03
             118             887     33.7774E-03     31.7569E-03
             118             888     31.4296E-03     32.2052E-03
             118             936     48.1856E-03     44.9701E-03
             118             937     42.3274E-03     46.4226E-03
             119             888     31.4296E-03     32.2052E-03
             119             889     31.9970E-03     32.4659E-03
             119             937     42.3274E-03     46.4226E-03
             119             938     45.7625E-03     45.4023E-03
             120             889     31.9970E-03     32.4659E-03
             120             890     33.0233E-03     31.1564E-03
             120             938     45.7625E-03     45.4023E-03
             120             939     48.6106E-03     46.3776E-03
             121             890     33.0233E-03     31.1564E-03
             121             891     33.4400E-03     32.4152E-03
             121             939     48.6106E-03     46.3776E-03
             121             940     48.3102E-03     49.5165E-03
             122             891     33.4400E-03     32.4152E-03
             122             892     33.2957E-03     33.0166E-03
             122             940     48.3102E-03     49.5165E-03
             122             941     49.7845E-03     49.9213E-03
             123             892     33.2957E-03     33.0166E-03
             123             893     33.4331E-03     33.5055E-03
             123             941     49.7845E-03     49.9213E-03
             123             942     51.3207E-03     50.8820E-03
             124             893     33.4331E-03     33.5055E-03
             124             894     33.3964E-03     33.7117E-03
             124             942     51.3207E-03     50.8820E-03
             124             943     51.9299E-03     51.2405E-03
             125             894     33.3964E-03     33.7117E-03
             125             895     32.2076E-03     34.4561E-03
             125             943     51.9299E-03     51.2405E-03
             125             944     51.0221E-03     53.2256E-03
             126             895     32.2076E-03     34.4561E-03
             126             896     33.8778E-03     34.3667E-03
             126             944     51.0221E-03     53.2256E-03
             126             945     54.4024E-03     51.8538E-03
             127             896     33.8778E-03     34.3667E-03
             127             897     33.4989E-03     31.3496E-03
             127             945     54.4024E-03     51.8538E-03
             127             946     52.0448E-03     48.5526E-03
             128              96     46.6041E-03     48.8527E-03
             128              97     52.9358E-03     54.9184E-03
             128             897     33.4989E-03     31.3496E-03
             128             946     52.0448E-03     48.5526E-03
             129              33     17.3276E-03     17.1665E-03
             129              34     15.8980E-03     15.7629E-03
             129             898     34.0213E-03     33.6670E-03
             129             947     31.2535E-03     31.0341E-03
             130             898     34.0213E-03     33.6670E-03
             130             899     34.1999E-03     33.9996E-03
             130             947     31.2535E-03     31.0341E-03
             130             948     31.4507E-03     31.5276E-03
             131             899     34.1999E-03     33.9996E-03
             131             900     34.1587E-03     34.0260E-03
             131             948     31.4507E-03     31.5276E-03
             131             949     31.6831E-03     31.8870E-03
             132             900     34.1587E-03     34.0260E-03
             132             901     34.1907E-03     34.3754E-03
             132             949     31.6831E-03     31.8870E-03
             132             950     32.0812E-03     32.5693E-03
             133             901     34.1907E-03     34.3754E-03
             133             902     34.8601E-03     34.6705E-03
             133             950     32.0812E-03     32.5693E-03
             133             951     33.7091E-03     32.8457E-03
             134             902     34.8601E-03     34.6705E-03
             134             903     34.8222E-03     34.1405E-03
             134             951     33.7091E-03     32.8457E-03
             134             952     33.9570E-03     32.9924E-03
             135             903     34.8222E-03     34.1405E-03
             135             904     33.4114E-03     33.4134E-03
             135             952     33.9570E-03     32.9924E-03
             135             953     31.9583E-03     32.8660E-03
             136             904     33.4114E-03     33.4134E-03
             136             905     32.9666E-03     32.9376E-03
             136             953     31.9583E-03     32.8660E-03
             136             954     31.8643E-03     32.4909E-03
             137             905     32.9666E-03     32.9376E-03
             137             906     33.4519E-03     33.2853E-03
             137             954     31.8643E-03     32.4909E-03
             137             955     32.8690E-03     33.6415E-03
             138             906     33.4519E-03     33.2853E-03
             138             907     33.8611E-03     34.0586E-03
             138             955     32.8690E-03     33.6415E-03
             138             956     33.9189E-03     35.0354E-03
             139             907     33.8611E-03     34.0586E-03
             139             908     34.4373E-03     34.6517E-03
             139             956     33.9189E-03     35.0354E-03
             139             957     35.3742E-03     35.8344E-03
             140             908     34.4373E-03     34.6517E-03
             140             909     35.0350E-03     35.2804E-03
             140             957     35.3742E-03     35.8344E-03
             140             958     36.7509E-03     36.9580E-03
             141             909     35.0350E-03     35.2804E-03
             141             910     35.8834E-03     35.8268E-03
             141             958     36.7509E-03     36.9580E-03
             141             959     38.4963E-03     38.0838E-03
             142             910     35.8834E-03     35.8268E-03
             142             911     36.6398E-03     36.1022E-03
             142             959     38.4963E-03     38.0838E-03
             142             960     40.1667E-03     39.0739E-03
             143             911     36.6398E-03     36.1022E-03
             143             912     36.7760E-03     37.2602E-03
             143             960     40.1667E-03     39.0739E-03
             143             961     41.1224E-03     41.8734E-03
             144             912     36.7760E-03     37.2602E-03
             144             913     38.7025E-03     37.5155E-03
             144             961     41.1224E-03     41.8734E-03
             144             962     45.8879E-03     42.5331E-03
             145             913     38.7025E-03     37.5155E-03
             145             914     38.3098E-03     36.4682E-03
             145             962     45.8879E-03     42.5331E-03
             145             963     45.5317E-03     43.3326E-03
             146             914     38.3098E-03     36.4682E-03
             146             915     35.2511E-03     36.5068E-03
             146             963     45.5317E-03     43.3326E-03
             146             964     40.1257E-03     45.2021E-03
             147             915     35.2511E-03     36.5068E-03
             147             916     35.7551E-03     35.8522E-03
             147             964     40.1257E-03     45.2021E-03
             147             965     43.0552E-03     43.5380E-03
             148             916     35.7551E-03     35.8522E-03
             148             917     37.0223E-03     36.3293E-03
             148             965     43.0552E-03     43.5380E-03
             148             966     45.4995E-03     45.1157E-03
             149             917     37.0223E-03     36.3293E-03
             149             918     37.4697E-03     38.0369E-03
             149             966     45.4995E-03     45.1157E-03
             149             967     45.4076E-03     47.5775E-03
             150             918     37.4697E-03     38.0369E-03
             150             919     38.5403E-03     38.6778E-03
             150             967     45.4076E-03     47.5775E-03
             150             968     47.4946E-03     47.6554E-03
             151             919     38.5403E-03     38.6778E-03
             151             920     39.4609E-03     39.5805E-03
             151             968     47.4946E-03     47.6554E-03
             151             969     49.0663E-03     49.0741E-03
             152             920     39.4609E-03     39.5805E-03
             152             921     40.6238E-03     40.3470E-03
             152             969     49.0663E-03     49.0741E-03
             152             970     51.1913E-03     50.4261E-03
             153             921     40.6238E-03     40.3470E-03
             153             922     41.5620E-03     40.6685E-03
             153             970     51.1913E-03     50.4261E-03
             153             971     53.3453E-03     51.5120E-03
             154             922     41.5620E-03     40.6685E-03
             154             923     41.3998E-03     42.3974E-03
             154             971     53.3453E-03     51.5120E-03
             154             972     54.2106E-03     55.6845E-03
             155             923     41.3998E-03     42.3974E-03
             155             924     44.1002E-03     42.2520E-03
             155             972     54.2106E-03     55.6845E-03
             155             973     61.0031E-03     55.9020E-03
             156             924     44.1002E-03     42.2520E-03
             156             925     43.0765E-03     40.4778E-03
             156             973     61.0031E-03     55.9020E-03
             156             974     59.5676E-03     56.5142E-03
             157             925     43.0765E-03     40.4778E-03
             157             926     38.5360E-03     41.3009E-03
             157             974     59.5676E-03     56.5142E-03
             157             975     51.0740E-03     60.1039E-03
             158             926     38.5360E-03     41.3009E-03
             158             927     40.5126E-03     40.4422E-03
             158             975     51.0740E-03     60.1039E-03
             158             976     57.1946E-03     57.2042E-03
             159             927     40.5126E-03     40.4422E-03
             159             928     42.5791E-03     41.1093E-03
             159             976     57.1946E-03     57.2042E-03
             159             977     60.8132E-03     58.8852E-03
             160             928     42.5791E-03     41.1093E-03
             160             929     42.6553E-03     43.6206E-03
             160             977     60.8132E-03     58.8852E-03
             160             978     58.9500E-03     62.0483E-03
             161             929     42.6553E-03     43.6206E-03
             161             930     44.0968E-03     44.0488E-03
             161             978     58.9500E-03     62.0483E-03
             161             979     61.3131E-03     61.0180E-03
             162             930     44.0968E-03     44.0488E-03
             162             931     45.1379E-03     45.0973E-03
             162             979     61.3131E-03     61.0180E-03
             162             980     62.7127E-03     62.4522E-03
             163             931     45.1379E-03     45.0973E-03
             163             932     46.3704E-03     45.9216E-03
             163             980     62.7127E-03     62.4522E-03
             163             981     64.8183E-03     63.7662E-03
             164             932     46.3704E-03     45.9216E-03
             164             933     47.2892E-03     46.1357E-03
             164             981     64.8183E-03     63.7662E-03
             164             982     67.1217E-03     64.7310E-03
             165             933     47.2892E-03     46.1357E-03
             165             934     46.6985E-03     48.1908E-03
             165             982     67.1217E-03     64.7310E-03
             165             983     67.6779E-03     69.8832E-03
             166             934     46.6985E-03     48.1908E-03
             166             935     49.9060E-03     47.4754E-03
             166             983     67.6779E-03     69.8832E-03
             166             984     75.9939E-03     69.4842E-03
             167             935     49.9060E-03     47.4754E-03
             167             936     48.1856E-03     44.9701E-03
             167             984     75.9939E-03     69.4842E-03
             167             985     73.4681E-03     69.7864E-03
             168             936     48.1856E-03     44.9701E-03
             168             937     42.3274E-03     46.4226E-03
             168             985     73.4681E-03     69.7864E-03
             168             986     62.0806E-03     74.4310E-03
             169             937     42.3274E-03     46.4226E-03
             169             938     45.7625E-03     45.4023E-03
             169             986     62.0806E-03     74.4310E-03
             169             987     70.8423E-03     70.2462E-03
             170             938     45.7625E-03     45.4023E-03
             170             939     48.6106E-03     46.3776E-03
             170             987     70.8423E-03     70.2462E-03
             170             988     75.6621E-03     72.0539E-03
             171             939     48.6106E-03     46.3776E-03
             171             940     48.3102E-03     49.5165E-03
             171             988     75.6621E-03     72.0539E-03
             171             989     72.3132E-03     75.7260E-03
             172             940     48.3102E-03     49.5165E-03
             172             941     49.7845E-03     49.9213E-03
             172             989     72.3132E-03     75.7260E-03
             172             990     74.7152E-03     74.2888E-03
             173             941     49.7845E-03     49.9213E-03
             173             942     51.3207E-03     50.8820E-03
             173             990     74.7152E-03     74.2888E-03
             173             991     77.0419E-03     75.3368E-03
             174             942     51.3207E-03     50.8820E-03
             174             943     51.9299E-03     51.2405E-03
             174             991     77.0419E-03     75.3368E-03
             174             992     78.4983E-03     76.3072E-03
             175             943     51.9299E-03     51.2405E-03
             175             944     51.0221E-03     53.2256E-03
             175             992     78.4983E-03     76.3072E-03
             175             993     78.7534E-03     81.4481E-03
             176             944     51.0221E-03     53.2256E-03
             176             945     54.4024E-03     51.8538E-03
             176             993     78.7534E-03     81.4481E-03
             176             994     87.8734E-03     80.3432E-03
             177             945     54.4024E-03     51.8538E-03
             177             946     52.0448E-03     48.5526E-03
             177             994     87.8734E-03     80.3432E-03
             177             995     84.2680E-03     80.1218E-03
             178              97     52.9358E-03     54.9184E-03
             178              98     75.5119E-03     83.2691E-03
             178             946     52.0448E-03     48.5526E-03
             178             995     84.2680E-03     80.1218E-03
             179              34     15.8980E-03     15.7629E-03
             179              35     13.4323E-03     13.5262E-03
             179             947     31.2535E-03     31.0341E-03
             179             996     26.4233E-03     26.7997E-03
             180             947     31.2535E-03     31.0341E-03
             180             948     31.4507E-03     31.5276E-03
             180             996     26.4233E-03     26.7997E-03
             180             997     27.0098E-03     27.4601E-03
             181             948     31.4507E-03     31.5276E-03
             181             949     31.6831E-03     31.8870E-03
             181             997     27.0098E-03     27.4601E-03
             181             998     27.7719E-03     27.8401E-03
             182             949     31.6831E-03     31.8870E-03
             182             950     32.0812E-03     32.5693E-03
             182             998     27.7719E-03     27.8401E-03
             182             999     28.4840E-03     29.1950E-03
             183             950     32.0812E-03     32.5693E-03
             183             951     33.7091E-03     32.8457E-03
             183             999     28.4840E-03     29.1950E-03
             183            1000     31.2609E-03     29.6406E-03
             184             951     33.7091E-03     32.8457E-03
             184             952     33.9570E-03     32.9924E-03
             184            1000     31.2609E-03     29.6406E-03
             184            1001     31.7163E-03     30.9144E-03
             185             952     33.9570E-03     32.9924E-03
             185             953     31.9583E-03     32.8660E-03
             185            1001     31.7163E-03     30.9144E-03
             185            1002     29.7206E-03     32.8173E-03
             186             953     31.9583E-03     32.8660E-03
             186             954     31.8643E-03     32.4909E-03
             186            1002     29.7206E-03     32.8173E-03
             186            1003     31.2874E-03     32.6773E-03
             187             954     31.8643E-03     32.4909E-03
             187             955     32.8690E-03     33.6415E-03
             187            1003     31.2874E-03     32.6773E-03
             187            1004     32.8361E-03     33.8671E-03
             188             955     32.8690E-03     33.6415E-03
             188             956     33.9189E-03     35.0354E-03
             188            1004     32.8361E-03     33.8671E-03
             188            1005     33.8174E-03     35.1835E-03
             189             956     33.9189E-03     35.0354E-03
             189             957     35.3742E-03     35.8344E-03
             189            1005     33.8174E-03     35.1835E-03
             189            1006     35.9144E-03     36.0232E-03
             190             957     35.3742E-03     35.8344E-03
             190             958     36.7509E-03     36.9580E-03
             190            1006     35.9144E-03     36.0232E-03
             190            1007     37.7507E-03     38.2041E-03
             191             958     36.7509E-03     36.9580E-03
             191             959     38.4963E-03     38.0838E-03
             191            1007     37.7507E-03     38.2041E-03
             191            1008     40.5503E-03     40.4624E-03
             192             959     38.4963E-03     38.0838E-03
             192             960     40.1667E-03     39.0739E-03
             192            1008     40.5503E-03     40.4624E-03
             192            1009     43.3075E-03     42.6734E-03
             193             960     40.1667E-03     39.0739E-03
             193             961     41.1224E-03     41.8734E-03
             193            1009     43.3075E-03     42.6734E-03
             193            1010     44.9876E-03     47.8287E-03
             194             961     41.1224E-03     41.8734E-03
             194             962     45.8879E-03     42.5331E-03
             194            1010     44.9876E-03     47.8287E-03
             194            1011     53.1530E-03     48.4313E-03
             195             962     45.8879E-03     42.5331E-03
             195             963     45.5317E-03     43.3326E-03
             195            1011     53.1530E-03     48.4313E-03
             195            1012     53.2554E-03     51.6413E-03
             196             963     45.5317E-03     43.3326E-03
             196             964     40.1257E-03     45.2021E-03
             196            1012     53.2554E-03     51.6413E-03
             196            1013     46.1926E-03     57.4291E-03
             197             964     40.1257E-03     45.2021E-03
             197             965     43.0552E-03     43.5380E-03
             197            1013     46.1926E-03     57.4291E-03
             197            1014     52.5687E-03     53.7816E-03
             198             965     43.0552E-03     43.5380E-03
             198             966     45.4995E-03     45.1157E-03
             198            1014     52.5687E-03     53.7816E-03
             198            1015     55.4480E-03     54.2902E-03
             199             966     45.4995E-03     45.1157E-03
             199             967     45.4076E-03     47.5775E-03
             199            1015     55.4480E-03     54.2902E-03
             199            1016     53.3487E-03     56.6283E-03
             200             967     45.4076E-03     47.5775E-03
             200             968     47.4946E-03     47.6554E-03
             200            1016     53.3487E-03     56.6283E-03
             200            1017     55.9328E-03     56.0263E-03
             201             968     47.4946E-03     47.6554E-03
             201             969     49.0663E-03     49.0741E-03
             201            1017     55.9328E-03     56.0263E-03
             201            1018     57.6206E-03     58.6358E-03
             202             969     49.0663E-03     49.0741E-03
             202             970     51.1913E-03     50.4261E-03
             202            1018     57.6206E-03     58.6358E-03
             202            1019     60.6514E-03     61.0538E-03
             203             970     51.1913E-03     50.4261E-03
             203             971     53.3453E-03     51.5120E-03
             203            1019     60.6514E-03     61.0538E-03
             203            1020     63.9610E-03     63.1354E-03
             204             971     53.3453E-03     51.5120E-03
             204             972     54.2106E-03     55.6845E-03
             204            1020     63.9610E-03     63.1354E-03
             204            1021     65.5176E-03     70.0850E-03
             205             972     54.2106E-03     55.6845E-03
             205             973     61.0031E-03     55.9020E-03
             205            1021     65.5176E-03     70.0850E-03
             205            1022     77.0978E-03     70.0268E-03
             206             973     61.0031E-03     55.9020E-03
             206             974     59.5676E-03     56.5142E-03
             206            1022     77.0978E-03     70.0268E-03
             206            1023     76.2722E-03     74.0982E-03
             207             974     59.5676E-03     56.5142E-03
             207             975     51.0740E-03     60.1039E-03
             207            1023     76.2722E-03     74.0982E-03
             207            1024     64.8888E-03     83.2359E-03
             208             975     51.0740E-03     60.1039E-03
             208             976     57.1946E-03     57.2042E-03
             208            1024     64.8888E-03     83.2359E-03
             208            1025     75.7285E-03     76.6225E-03
             209             976     57.1946E-03     57.2042E-03
             209             977     60.8132E-03     58.8852E-03
             209            1025     75.7285E-03     76.6225E-03
             209            1026     79.5153E-03     76.0993E-03
             210             977     60.8132E-03     58.8852E-03
             210             978     58.9500E-03     62.0483E-03
             210            1026     79.5153E-03     76.0993E-03
             210            1027     73.9698E-03     79.0310E-03
             211             978     58.9500E-03     62.0483E-03
             211             979     61.3131E-03     61.0180E-03
             211            1027     73.9698E-03     79.0310E-03
             211            1028     76.6323E-03     76.6048E-03
             212             979     61.3131E-03     61.0180E-03
             212             980     62.7127E-03     62.4522E-03
             212            1028     76.6323E-03     76.6048E-03
             212            1029     77.8182E-03     79.2424E-03
             213             980     62.7127E-03     62.4522E-03
             213             981     64.8183E-03     63.7662E-03
             213            1029     77.8182E-03     79.2424E-03
             213            1030     80.6879E-03     81.5155E-03
             214             981     64.8183E-03     63.7662E-03
             214             982     67.1217E-03     64.7310E-03
             214            1030     80.6879E-03     81.5155E-03
             214            1031     84.2360E-03     83.2653E-03
             215             982     67.1217E-03     64.7310E-03
             215             983     67.6779E-03     69.8832E-03
             215            1031     84.2360E-03     83.2653E-03
             215            1032     85.4846E-03     91.6228E-03
             216             983     67.6779E-03     69.8832E-03
             216             984     75.9939E-03     69.4842E-03
             216            1032     85.4846E-03     91.6228E-03
             216            1033     99.8703E-03     90.8827E-03
             217             984     75.9939E-03     69.4842E-03
             217             985     73.4681E-03     69.7864E-03
             217            1033     99.8703E-03     90.8827E-03
             217            1034     98.1173E-03     95.6027E-03
             218             985     73.4681E-03     69.7864E-03
             218             986     62.0806E-03     74.4310E-03
             218            1034     98.1173E-03     95.6027E-03
             218            1035     82.5511E-03     106.964E-03
             219             986     62.0806E-03     74.4310E-03
             219             987     70.8423E-03     70.2462E-03
             219            1035     82.5511E-03     106.964E-03
             219            1036     96.7785E-03     97.2919E-03
             220             987     70.8423E-03     70.2462E-03
             220             988     75.6621E-03     72.0539E-03
             220            1036     96.7785E-03     97.2919E-03
             220            1037     101.624E-03     95.9466E-03
             221             988     75.6621E-03     72.0539E-03
             221             989     72.3132E-03     75.7260E-03
             221            1037     101.624E-03     95.9466E-03
             221            1038     93.2563E-03     99.1739E-03
             222             989     72.3132E-03     75.7260E-03
             222             990     74.7152E-03     74.2888E-03
             222            1038     93.2563E-03     99.1739E-03
             222            1039     95.5722E-03     96.1001E-03
             223             990     74.7152E-03     74.2888E-03
             223             991     77.0419E-03     75.3368E-03
             223            1039     95.5722E-03     96.1001E-03
             223            1040     98.2996E-03     98.1337E-03
             224             991     77.0419E-03     75.3368E-03
             224             992     78.4983E-03     76.3072E-03
             224            1040     98.2996E-03     98.1337E-03
             224            1041     100.362E-03     99.7470E-03
             225             992     78.4983E-03     76.3072E-03
             225             993     78.7534E-03     81.4481E-03
             225            1041     100.362E-03     99.7470E-03
             225            1042     101.487E-03     108.222E-03
             226             993     78.7534E-03     81.4481E-03
             226             994     87.8734E-03     80.3432E-03
             226            1042     101.487E-03     108.222E-03
             226            1043     117.676E-03     106.997E-03
             227             994     87.8734E-03     80.3432E-03
             227             995     84.2680E-03     80.1218E-03
             227            1043     117.676E-03     106.997E-03
             227            1044     114.939E-03     112.084E-03
             228              98     75.5119E-03     83.2691E-03
             228              99     99.8567E-03     115.416E-03
             228             995     84.2680E-03     80.1218E-03
             228            1044     114.939E-03     112.084E-03
             229              35     13.4323E-03     13.5262E-03
             229              36     10.6434E-03     10.9851E-03
             229             996     26.4233E-03     26.7997E-03
             229            1045     21.0136E-03     21.4077E-03
             230             996     26.4233E-03     26.7997E-03
             230             997     27.0098E-03     27.4601E-03
             230            1045     21.0136E-03     21.4077E-03
             230            1046     21.0816E-03     21.0781E-03
             231             997     27.0098E-03     27.4601E-03
             231             998     27.7719E-03     27.8401E-03
             231            1046     21.0816E-03     21.0781E-03
             231            1047     21.8257E-03     21.1538E-03
             232             998     27.7719E-03     27.8401E-03
             232             999     28.4840E-03     29.1950E-03
             232            1047     21.8257E-03     21.1538E-03
             232            1048     23.1674E-03     24.3108E-03
             233             999     28.4840E-03     29.1950E-03
             233            1000     31.2609E-03     29.6406E-03
             233            1048     23.1674E-03     24.3108E-03
             233            1049     28.2922E-03     26.4037E-03
             234            1000     31.2609E-03     29.6406E-03
             234            1001     31.7163E-03     30.9144E-03
             234            1049     28.2922E-03     26.4037E-03
             234            1050     29.4204E-03     29.5201E-03
             235            1001     31.7163E-03     30.9144E-03
             235            1002     29.7206E-03     32.8173E-03
             235            1050     29.4204E-03     29.5201E-03
             235            1051     28.0274E-03     33.0766E-03
             236            1002     29.7206E-03     32.8173E-03
             236            1003     31.2874E-03     32.6773E-03
             236            1051     28.0274E-03     33.0766E-03
             236            1052     31.7273E-03     32.2430E-03
             237            1003     31.2874E-03     32.6773E-03
             237            1004     32.8361E-03     33.8671E-03
             237            1052     31.7273E-03     32.2430E-03
             237            1053     32.3679E-03     32.6530E-03
             238            1004     32.8361E-03     33.8671E-03
             238            1005     33.8174E-03     35.1835E-03
             238            1053     32.3679E-03     32.6530E-03
             238            1054     32.7730E-03     34.0724E-03
             239            1005     33.8174E-03     35.1835E-03
             239            1006     35.9144E-03     36.0232E-03
             239            1054     32.7730E-03     34.0724E-03
             239            1055     35.6556E-03     36.0116E-03
             240            1006     35.9144E-03     36.0232E-03
             240            1007     37.7507E-03     38.2041E-03
             240            1055     35.6556E-03     36.0116E-03
             240            1056     38.2168E-03     39.7433E-03
             241            1007     37.7507E-03     38.2041E-03
             241            1008     40.5503E-03     40.4624E-03
             241            1056     38.2168E-03     39.7433E-03
             241            1057     42.2186E-03     43.4794E-03
             242            1008     40.5503E-03     40.4624E-03
             242            1009     43.3075E-03     42.6734E-03
             242            1057     42.2186E-03     43.4794E-03
             242            1058     46.4993E-03     46.9063E-03
             243            1009     43.3075E-03     42.6734E-03
             243            1010     44.9876E-03     47.8287E-03
             243            1058     46.4993E-03     46.9063E-03
             243            1059     48.7447E-03     54.2630E-03
             244            1010     44.9876E-03     47.8287E-03
             244            1011     53.1530E-03     48.4313E-03
             244            1059     48.7447E-03     54.2630E-03
             244            1060     59.8563E-03     55.7294E-03
             245            1011     53.1530E-03     48.4313E-03
             245            1012     53.2554E-03     51.6413E-03
             245            1060     59.8563E-03     55.7294E-03
             245            1061     60.3891E-03     60.2779E-03
             246            1012     53.2554E-03     51.6413E-03
             246            1013     46.1926E-03     57.4291E-03
             246            1061     60.3891E-03     60.2779E-03
             246            1062     52.6017E-03     67.8996E-03
             247            1013     46.1926E-03     57.4291E-03
             247            1014     52.5687E-03     53.7816E-03
             247            1062     52.6017E-03     67.8996E-03
             247            1063     61.5170E-03     62.0344E-03
             248            1014     52.5687E-03     53.7816E-03
             248            1015     55.4480E-03     54.2902E-03
             248            1063     61.5170E-03     62.0344E-03
             248            1064     62.7912E-03     61.1915E-03
             249            1015     55.4480E-03     54.2902E-03
             249            1016     53.3487E-03     56.6283E-03
             249            1064     62.7912E-03     61.1915E-03
             249            1065     59.0801E-03     63.8026E-03
             250            1016     53.3487E-03     56.6283E-03
             250            1017     55.9328E-03     56.0263E-03
             250            1065     59.0801E-03     63.8026E-03
             250            1066     62.8895E-03     63.9868E-03
             251            1017     55.9328E-03     56.0263E-03
             251            1018     57.6206E-03     58.6358E-03
             251            1066     62.8895E-03     63.9868E-03
             251            1067     64.9943E-03     68.2024E-03
             252            1018     57.6206E-03     58.6358E-03
             252            1019     60.6514E-03     61.0538E-03
             252            1067     64.9943E-03     68.2024E-03
             252            1068     68.9624E-03     71.8900E-03
             253            1019     60.6514E-03     61.0538E-03
             253            1020     63.9610E-03     63.1354E-03
             253            1068     68.9624E-03     71.8900E-03
             253            1069     73.6755E-03     74.7647E-03
             254            1020     63.9610E-03     63.1354E-03
             254            1021     65.5176E-03     70.0850E-03
             254            1069     73.6755E-03     74.7647E-03
             254            1070     75.1026E-03     83.7980E-03
             255            1021     65.5176E-03     70.0850E-03
             255            1022     77.0978E-03     70.0268E-03
             255            1070     75.1026E-03     83.7980E-03
             255            1071     90.1851E-03     84.2825E-03
             256            1022     77.0978E-03     70.0268E-03
             256            1023     76.2722E-03     74.0982E-03
             256            1071     90.1851E-03     84.2825E-03
             256            1072     90.2422E-03     90.0779E-03
             257            1023     76.2722E-03     74.0982E-03
             257            1024     64.8888E-03     83.2359E-03
             257            1072     90.2422E-03     90.0779E-03
             257            1073     77.5845E-03     101.928E-03
             258            1024     64.8888E-03     83.2359E-03
             258            1025     75.7285E-03     76.6225E-03
             258            1073     77.5845E-03     101.928E-03
             258            1074     91.6047E-03     92.1417E-03
             259            1025     75.7285E-03     76.6225E-03
             259            1026     79.5153E-03     76.0993E-03
             259            1074     91.6047E-03     92.1417E-03
             259            1075     93.1708E-03     89.7117E-03
             260            1026     79.5153E-03     76.0993E-03
             260            1027     73.9698E-03     79.0310E-03
             260            1075     93.1708E-03     89.7117E-03
             260            1076     85.0901E-03     92.9366E-03
             261            1027     73.9698E-03     79.0310E-03
             261            1028     76.6323E-03     76.6048E-03
             261            1076     85.0901E-03     92.9366E-03
             261            1077     89.3289E-03     91.0208E-03
             262            1028     76.6323E-03     76.6048E-03
             262            1029     77.8182E-03     79.2424E-03
             262            1077     89.3289E-03     91.0208E-03
             262            1078     90.6891E-03     95.3424E-03
             263            1029     77.8182E-03     79.2424E-03
             263            1030     80.6879E-03     81.5155E-03
             263            1078     90.6891E-03     95.3424E-03
             263            1079     94.3578E-03     98.7532E-03
             264            1030     80.6879E-03     81.5155E-03
             264            1031     84.2360E-03     83.2653E-03
             264            1079     94.3578E-03     98.7532E-03
             264            1080     99.3046E-03     100.984E-03
             265            1031     84.2360E-03     83.2653E-03
             265            1032     85.4846E-03     91.6228E-03
             265            1080     99.3046E-03     100.984E-03
             265            1081     99.9048E-03     111.413E-03
             266            1032     85.4846E-03     91.6228E-03
             266            1033     99.8703E-03     90.8827E-03
             266            1081     99.9048E-03     111.413E-03
             266            1082     118.464E-03     111.039E-03
             267            1033     99.8703E-03     90.8827E-03
             267            1034     98.1173E-03     95.6027E-03
             267            1082     118.464E-03     111.039E-03
             267            1083     118.096E-03     117.952E-03
             268            1034     98.1173E-03     95.6027E-03
             268            1035     82.5511E-03     106.964E-03
             268            1083     118.096E-03     117.952E-03
             268            1084     100.624E-03     132.940E-03
             269            1035     82.5511E-03     106.964E-03
             269            1036     96.7785E-03     97.2919E-03
             269            1084     100.624E-03     132.940E-03
             269            1085     118.627E-03     119.161E-03
             270            1036     96.7785E-03     97.2919E-03
             270            1037     101.624E-03     95.9466E-03
             270            1085     118.627E-03     119.161E-03
             270            1086     120.524E-03     115.497E-03
             271            1037     101.624E-03     95.9466E-03
             271            1038     93.2563E-03     99.1739E-03
             271            1086     120.524E-03     115.497E-03
             271            1087     109.019E-03     118.923E-03
             272            1038     93.2563E-03     99.1739E-03
             272            1039     95.5722E-03     96.1001E-03
             272            1087     109.019E-03     118.923E-03
             272            1088     112.738E-03     116.078E-03
             273            1039     95.5722E-03     96.1001E-03
             273            1040     98.2996E-03     98.1337E-03
             273            1088     112.738E-03     116.078E-03
             273            1089     115.610E-03     120.114E-03
             274            1040     98.2996E-03     98.1337E-03
             274            1041     100.362E-03     99.7470E-03
             274            1089     115.610E-03     120.114E-03
             274            1090     119.009E-03     121.849E-03
             275            1041     100.362E-03     99.7470E-03
             275            1042     101.487E-03     108.222E-03
             275            1090     119.009E-03     121.849E-03
             275            1091     119.469E-03     132.564E-03
             276            1042     101.487E-03     108.222E-03
             276            1043     117.676E-03     106.997E-03
             276            1091     119.469E-03     132.564E-03
             276            1092     140.378E-03     131.793E-03
             277            1043     117.676E-03     106.997E-03
             277            1044     114.939E-03     112.084E-03
             277            1092     140.378E-03     131.793E-03
             277            1093     139.689E-03     139.579E-03
             278              99     99.8567E-03     115.416E-03
             278             100     120.710E-03     142.267E-03
             278            1044     114.939E-03     112.084E-03
             278            1093     139.689E-03     139.579E-03
             279              36     10.6434E-03     10.9851E-03
             279              37     8.05259E-03     9.28938E-03
             279            1045     21.0136E-03     21.4077E-03
             279            1094     14.5181E-03     15.1026E-03
             280            1045     21.0136E-03     21.4077E-03
             280            1046     21.0816E-03     21.0781E-03
             280            1094     14.5181E-03     15.1026E-03
             280            1095     12.8372E-03     11.5222E-03
             281            1046     21.0816E-03     21.0781E-03
             281            1047     21.8257E-03     21.1538E-03
             281            1095     12.8372E-03     11.5222E-03
             281            1096     14.2223E-03     12.9627E-03
             282            1047     21.8257E-03     21.1538E-03
             282            1048     23.1674E-03     24.3108E-03
             282            1096     14.2223E-03     12.9627E-03
             282            1097     17.6587E-03     19.2576E-03
             283            1048     23.1674E-03     24.3108E-03
             283            1049     28.2922E-03     26.4037E-03
             283            1097     17.6587E-03     19.2576E-03
             283            1098     25.8571E-03     23.8619E-03
             284            1049     28.2922E-03     26.4037E-03
             284            1050     29.4204E-03     29.5201E-03
             284            1098     25.8571E-03     23.8619E-03
             284            1099     30.3220E-03     30.8100E-03
             285            1050     29.4204E-03     29.5201E-03
             285            1051     28.0274E-03     33.0766E-03
             285            1099     30.3220E-03     30.8100E-03
             285            1100     27.9659E-03     32.1410E-03
             286            1051     28.0274E-03     33.0766E-03
             286            1052     31.7273E-03     32.2430E-03
             286            1100     27.9659E-03     32.1410E-03
             286            1101     28.7853E-03     26.9900E-03
             287            1052     31.7273E-03     32.2430E-03
             287            1053     32.3679E-03     32.6530E-03
             287            1101     28.7853E-03     26.9900E-03
             287            1102     29.5631E-03     28.5486E-03
             288            1053     32.3679E-03     32.6530E-03
             288            1054     32.7730E-03     34.0724E-03
             288            1102     29.5631E-03     28.5486E-03
             288            1103     31.5654E-03     31.8824E-03
             289            1054     32.7730E-03     34.0724E-03
             289            1055     35.6556E-03     36.0116E-03
             289            1103     31.5654E-03     31.8824E-03
             289            1104     35.7781E-03     35.9093E-03
             290            1055     35.6556E-03     36.0116E-03
             290            1056     38.2168E-03     39.7433E-03
             290            1104     35.7781E-03     35.9093E-03
             290            1105     39.9515E-03     40.7955E-03
             291            1056     38.2168E-03     39.7433E-03
             291            1057     42.2186E-03     43.4794E-03
             291            1105     39.9515E-03     40.7955E-03
             291            1106     44.7605E-03     45.8521E-03
             292            1057     42.2186E-03     43.4794E-03
             292            1058     46.4993E-03     46.9063E-03
             292            1106     44.7605E-03     45.8521E-03
             292            1107     50.3028E-03     50.1359E-03
             293            1058     46.4993E-03     46.9063E-03
             293            1059     48.7447E-03     54.2630E-03
             293            1107     50.3028E-03     50.1359E-03
             293            1108     53.6261E-03     58.1242E-03
             294            1059     48.7447E-03     54.2630E-03
             294            1060     59.8563E-03     55.7294E-03
             294            1108     53.6261E-03     58.1242E-03
             294            1109     65.0029E-03     61.4857E-03
             295            1060     59.8563E-03     55.7294E-03
             295            1061     60.3891E-03     60.2779E-03
             295            1109     65.0029E-03     61.4857E-03
             295            1110     68.6494E-03     68.3617E-03
             296            1061     60.3891E-03     60.2779E-03
             296            1062     52.6017E-03     67.8996E-03
             296            1110     68.6494E-03     68.3617E-03
             296            1111     60.3486E-03     71.7275E-03
             297            1062     52.6017E-03     67.8996E-03
             297            1063     61.5170E-03     62.0344E-03
             297            1111     60.3486E-03     71.7275E-03
             297            1112     64.6001E-03     61.8870E-03
             298            1063     61.5170E-03     62.0344E-03
             298            1064     62.7912E-03     61.1915E-03
             298            1112     64.6001E-03     61.8870E-03
             298            1113     65.5326E-03     62.9548E-03
             299            1064     62.7912E-03     61.1915E-03
             299            1065     59.0801E-03     63.8026E-03
             299            1113     65.5326E-03     62.9548E-03
             299            1114     64.3322E-03     67.2298E-03
             300            1065     59.0801E-03     63.8026E-03
             300            1066     62.8895E-03     63.9868E-03
             300            1114     64.3322E-03     67.2298E-03
             300            1115     69.4009E-03     69.6446E-03
             301            1066     62.8895E-03     63.9868E-03
             301            1067     64.9943E-03     68.2024E-03
             301            1115     69.4009E-03     69.6446E-03
             301            1116     72.9354E-03     74.7508E-03
             302            1067     64.9943E-03     68.2024E-03
             302            1068     68.9624E-03     71.8900E-03
             302            1116     72.9354E-03     74.7508E-03
             302            1117     77.4482E-03     79.4988E-03
             303            1068     68.9624E-03     71.8900E-03
             303            1069     73.6755E-03     74.7647E-03
             303            1117     77.4482E-03     79.4988E-03
             303            1118     83.0763E-03     83.0418E-03
             304            1069     73.6755E-03     74.7647E-03
             304            1070     75.1026E-03     83.7980E-03
             304            1118     83.0763E-03     83.0418E-03
             304            1119     85.2425E-03     91.9962E-03
             305            1070     75.1026E-03     83.7980E-03
             305            1071     90.1851E-03     84.2825E-03
             305            1119     85.2425E-03     91.9962E-03
             305            1120     99.3333E-03     94.2991E-03
             306            1071     90.1851E-03     84.2825E-03
             306            1072     90.2422E-03     90.0779E-03
             306            1120     99.3333E-03     94.2991E-03
             306            1121     102.918E-03     101.904E-03
             307            1072     90.2422E-03     90.0779E-03
             307            1073     77.5845E-03     101.928E-03
             307            1121     102.918E-03     101.904E-03
             307            1122     91.1402E-03     109.107E-03
             308            1073     77.5845E-03     101.928E-03
             308            1074     91.6047E-03     92.1417E-03
             308            1122     91.1402E-03     109.107E-03
             308            1123     99.5687E-03     96.1493E-03
             309            1074     91.6047E-03     92.1417E-03
             309            1075     93.1708E-03     89.7117E-03
             309            1123     99.5687E-03     96.1493E-03
             309            1124     100.010E-03     95.8169E-03
             310            1075     93.1708E-03     89.7117E-03
             310            1076     85.0901E-03     92.9366E-03
             310            1124     100.010E-03     95.8169E-03
             310            1125     95.2700E-03     100.455E-03
             311            1076     85.0901E-03     92.9366E-03
             311            1077     89.3289E-03     91.0208E-03
             311            1125     95.2700E-03     100.455E-03
             311            1126     100.802E-03     101.110E-03
             312            1077     89.3289E-03     91.0208E-03
             312            1078     90.6891E-03     95.3424E-03
             312            1126     100.802E-03     101.110E-03
             312            1127     103.562E-03     106.241E-03
             313            1078     90.6891E-03     95.3424E-03
             313            1079     94.3578E-03     98.7532E-03
             313            1127     103.562E-03     106.241E-03
             313            1128     107.691E-03     110.596E-03
             314            1079     94.3578E-03     98.7532E-03
             314            1080     99.3046E-03     100.984E-03
             314            1128     107.691E-03     110.596E-03
             314            1129     113.322E-03     113.403E-03
             315            1080     99.3046E-03     100.984E-03
             315            1081     99.9048E-03     111.413E-03
             315            1129     113.322E-03     113.403E-03
             315            1130     114.425E-03     123.178E-03
             316            1081     99.9048E-03     111.413E-03
             316            1082     118.464E-03     111.039E-03
             316            1130     114.425E-03     123.178E-03
             316            1131     130.967E-03     124.538E-03
             317            1082     118.464E-03     111.039E-03
             317            1083     118.096E-03     117.952E-03
             317            1131     130.967E-03     124.538E-03
             317            1132     134.566E-03     132.851E-03
             318            1083     118.096E-03     117.952E-03
             318            1084     100.624E-03     132.940E-03
             318            1132     134.566E-03     132.851E-03
             318            1133     119.324E-03     143.211E-03
             319            1084     100.624E-03     132.940E-03
             319            1085     118.627E-03     119.161E-03
             319            1133     119.324E-03     143.211E-03
             319            1134     131.127E-03     127.198E-03
             320            1085     118.627E-03     119.161E-03
             320            1086     120.524E-03     115.497E-03
             320            1134     131.127E-03     127.198E-03
             320            1135     131.185E-03     125.621E-03
             321            1086     120.524E-03     115.497E-03
             321            1087     109.019E-03     118.923E-03
             321            1135     131.185E-03     125.621E-03
             321            1136     123.457E-03     130.499E-03
             322            1087     109.019E-03     118.923E-03
             322            1088     112.738E-03     116.078E-03
             322            1136     123.457E-03     130.499E-03
             322            1137     129.064E-03     129.979E-03
             323            1088     112.738E-03     116.078E-03
             323            1089     115.610E-03     120.114E-03
             323            1137     129.064E-03     129.979E-03
             323            1138     131.923E-03     135.430E-03
             324            1089     115.610E-03     120.114E-03
             324            1090     119.009E-03     121.849E-03
             324            1138     131.923E-03     135.430E-03
             324            1139     136.875E-03     137.434E-03
             325            1090     119.009E-03     121.849E-03
             325            1091     119.469E-03     132.564E-03
             325            1139     136.875E-03     137.434E-03
             325            1140     137.392E-03     147.513E-03
             326            1091     119.469E-03     132.564E-03
             326            1092     140.378E-03     131.793E-03
             326            1140     137.392E-03     147.513E-03
             326            1141     155.731E-03     148.238E-03
             327            1092     140.378E-03     131.793E-03
             327            1093     139.689E-03     139.579E-03
             327            1141     155.731E-03     148.238E-03
             327            1142     159.375E-03     157.184E-03
             328             100     120.710E-03     142.267E-03
             328             101     140.929E-03     158.643E-03
             328            1093     139.689E-03     139.579E-03
             328            1142     159.375E-03     157.184E-03
             329               3     6.71824E-03     8.81196E-03
             329              37     8.05259E-03     9.28938E-03
             329             150     10.4709E-03     11.6788E-03
             329            1094     14.5181E-03     15.1026E-03
             330             149     7.99011E-03     5.97101E-03
             330             150     10.4709E-03     11.6788E-03
             330            1094     14.5181E-03     15.1026E-03
             330            1095     12.8372E-03     11.5222E-03
             331             148     10.2749E-03     8.78642E-03
             331             149     7.99011E-03     5.97101E-03
             331            1095     12.8372E-03     11.5222E-03
             331            1096     14.2223E-03     12.9627E-03
             332             147     15.2897E-03     16.9644E-03
             332             148     10.2749E-03     8.78642E-03
             332            1096     14.2223E-03     12.9627E-03
             332            1097     17.6587E-03     19.2576E-03
             333             146     24.8367E-03     22.7726E-03
             333             147     15.2897E-03     16.9644E-03
             333            1097     17.6587E-03     19.2576E-03
             333            1098     25.8571E-03     23.8619E-03
             334             145     31.8689E-03     32.2238E-03
             334             146     24.8367E-03     22.7726E-03
             334            1098     25.8571E-03     23.8619E-03
             334            1099     30.3220E-03     30.8100E-03
             335             144     28.1952E-03     31.1187E-03
             335             145     31.8689E-03     32.2238E-03
             335            1099     30.3220E-03     30.8100E-03
             335            1100     27.9659E-03     32.1410E-03
             336             143     25.3739E-03     22.4472E-03
             336             144     28.1952E-03     31.1187E-03
             336            1100     27.9659E-03     32.1410E-03
             336            1101     28.7853E-03     26.9900E-03
             337             142     27.4680E-03     25.6061E-03
             337             143     25.3739E-03     22.4472E-03
             337            1101     28.7853E-03     26.9900E-03
             337            1102     29.5631E-03     28.5486E-03
             338             141     31.1664E-03     30.4362E-03
             338             142     27.4680E-03     25.6061E-03
             338            1102     29.5631E-03     28.5486E-03
             338            1103     31.5654E-03     31.8824E-03
             339             140     36.2116E-03     35.6139E-03
             339             141     31.1664E-03     30.4362E-03
             339            1103     31.5654E-03     31.8824E-03
             339            1104     35.7781E-03     35.9093E-03
             340             139     41.3872E-03     40.8958E-03
             340             140     36.2116E-03     35.6139E-03
             340            1104     35.7781E-03     35.9093E-03
             340            1105     39.9515E-03     40.7955E-03
             341             138     46.4615E-03     46.5360E-03
             341             139     41.3872E-03     40.8958E-03
             341            1105     39.9515E-03     40.7955E-03
             341            1106     44.7605E-03     45.8521E-03
             342             137     52.3662E-03     51.1375E-03
             342             138     46.4615E-03     46.5360E-03
             342            1106     44.7605E-03     45.8521E-03
             342            1107     50.3028E-03     50.1359E-03
             343             136     56.4837E-03     58.9603E-03
             343             137     52.3662E-03     51.1375E-03
             343            1107     50.3028E-03     50.1359E-03
             343            1108     53.6261E-03     58.1242E-03
             344             135     66.8506E-03     63.0767E-03
             344             136     56.4837E-03     58.9603E-03
             344            1108     53.6261E-03     58.1242E-03
             344            1109     65.0029E-03     61.4857E-03
             345             134     73.2403E-03     71.9420E-03
             345             135     66.8506E-03     63.0767E-03
             345            1109     65.0029E-03     61.4857E-03
             345            1110     68.6494E-03     68.3617E-03
             346             133     64.7410E-03     71.8174E-03
             346             134     73.2403E-03     71.9420E-03
             346            1110     68.6494E-03     68.3617E-03
             346            1111     60.3486E-03     71.7275E-03
             347             132     63.7228E-03     58.8343E-03
             347             133     64.7410E-03     71.8174E-03
             347            1111     60.3486E-03     71.7275E-03
             347            1112     64.6001E-03     61.8870E-03
             348             131     65.8271E-03     61.8993E-03
             348             132     63.7228E-03     58.8343E-03
             348            1112     64.6001E-03     61.8870E-03
             348            1113     65.5326E-03     62.9548E-03
             349             130     67.2572E-03     67.4499E-03
             349             131     65.8271E-03     61.8993E-03
             349            1113     65.5326E-03     62.9548E-03
             349            1114     64.3322E-03     67.2298E-03
             350             129     72.7074E-03     71.2670E-03
             350             130     67.2572E-03     67.4499E-03
             350            1114     64.3322E-03     67.2298E-03
             350            1115     69.4009E-03     69.6446E-03
             351             128     77.2308E-03     76.5650E-03
             351             129     72.7074E-03     71.2670E-03
             351            1115     69.4009E-03     69.6446E-03
             351            1116     72.9354E-03     74.7508E-03
             352             127     81.9176E-03     81.7825E-03
             352             128     77.2308E-03     76.5650E-03
             352            1116     72.9354E-03     74.7508E-03
             352            1117     77.4482E-03     79.4988E-03
             353             126     87.6323E-03     85.6521E-03
             353             127     81.9176E-03     81.7825E-03
             353            1117     77.4482E-03     79.4988E-03
             353            1118     83.0763E-03     83.0418E-03
             354             125     90.7485E-03     93.9226E-03
             354             126     87.6323E-03     85.6521E-03
             354            1118     83.0763E-03     83.0418E-03
             354            1119     85.2425E-03     91.9962E-03
             355             124     102.657E-03     96.8718E-03
             355             125     90.7485E-03     93.9226E-03
             355            1119     85.2425E-03     91.9962E-03
             355            1120     99.3333E-03     94.2991E-03
             356             123     109.142E-03     106.188E-03
             356             124     102.657E-03     96.8718E-03
             356            1120     99.3333E-03     94.2991E-03
             356            1121     102.918E-03     101.904E-03
             357             122     98.7042E-03     109.743E-03
             357             123     109.142E-03     106.188E-03
             357            1121     102.918E-03     101.904E-03
             357            1122     91.1402E-03     109.107E-03
             358             121     100.692E-03     94.2177E-03
             358             122     98.7042E-03     109.743E-03
             358            1122     91.1402E-03     109.107E-03
             358            1123     99.5687E-03     96.1493E-03
             359             120     101.859E-03     95.8931E-03
             359             121     100.692E-03     94.2177E-03
             359            1123     99.5687E-03     96.1493E-03
             359            1124     100.010E-03     95.8169E-03
             360             119     100.710E-03     101.729E-03
             360             120     101.859E-03     95.8931E-03
             360            1124     100.010E-03     95.8169E-03
             360            1125     95.2700E-03     100.455E-03
             361             118     106.359E-03     104.152E-03
             361             119     100.710E-03     101.729E-03
             361            1125     95.2700E-03     100.455E-03
             361            1126     100.802E-03     101.110E-03
             362             117     110.205E-03     109.382E-03
             362             118     106.359E-03     104.152E-03
             362            1126     100.802E-03     101.110E-03
             362            1127     103.562E-03     106.241E-03
             363             116     114.488E-03     114.159E-03
             363             117     110.205E-03     109.382E-03
             363            1127     103.562E-03     106.241E-03
             363            1128     107.691E-03     110.596E-03
             364             115     119.988E-03     117.324E-03
             364             116     114.488E-03     114.159E-03
             364            1128     107.691E-03     110.596E-03
             364            1129     113.322E-03     113.403E-03
             365             114     122.176E-03     125.968E-03
             365             115     119.988E-03     117.324E-03
             365            1129     113.322E-03     113.403E-03
             365            1130     114.425E-03     123.178E-03
             366             113     135.490E-03     127.846E-03
             366             114     122.176E-03     125.968E-03
             366            1130     114.425E-03     123.178E-03
             366            1131     130.967E-03     124.538E-03
             367             112     142.113E-03     137.604E-03
             367             113     135.490E-03     127.846E-03
             367            1131     130.967E-03     124.538E-03
             367            1132     134.566E-03     132.851E-03
             368             111     129.677E-03     144.341E-03
             368             112     142.113E-03     137.604E-03
             368            1132     134.566E-03     132.851E-03
             368            1133     119.324E-03     143.211E-03
             369             110     134.142E-03     126.435E-03
             369             111     129.677E-03     144.341E-03
             369            1133     119.324E-03     143.211E-03
             369            1134     131.127E-03     127.198E-03
             370             109     134.607E-03     126.711E-03
             370             110     134.142E-03     126.435E-03
             370            1134     131.127E-03     127.198E-03
             370            1135     131.185E-03     125.621E-03
             371             108     131.072E-03     133.041E-03
             371             109     134.607E-03     126.711E-03
             371            1135     131.185E-03     125.621E-03
             371            1136     123.457E-03     130.499E-03
             372             107     137.087E-03     134.170E-03
             372             108     131.072E-03     133.041E-03
             372            1136     123.457E-03     130.499E-03
             372            1137     129.064E-03     129.979E-03
             373             106     140.246E-03     140.018E-03
             373             107     137.087E-03     134.170E-03
             373            1137     129.064E-03     129.979E-03
             373            1138     131.923E-03     135.430E-03
             374             105     145.568E-03     142.321E-03
             374             106     140.246E-03     140.018E-03
             374            1138     131.923E-03     135.430E-03
             374            1139     136.875E-03     137.434E-03
             375             104     146.959E-03     151.231E-03
             375             105     145.568E-03     142.321E-03
             375            1139     136.875E-03     137.434E-03
             375            1140     137.392E-03     147.513E-03
             376             103     161.455E-03     152.162E-03
             376             104     146.959E-03     151.231E-03
             376            1140     137.392E-03     147.513E-03
             376            1141     155.731E-03     148.238E-03
             377             102     168.073E-03     162.361E-03
             377             103     161.455E-03     152.162E-03
             377            1141     155.731E-03     148.238E-03
             377            1142     159.375E-03     157.184E-03
             378               6     151.931E-03     164.349E-03
             378             101     140.929E-03     158.643E-03
             378             102     168.073E-03     162.361E-03
             378            1142     159.375E-03     157.184E-03
             379               5     61.4291E-03     66.1281E-03
             379              96     46.6041E-03     48.8527E-03
             379             151     94.8957E-03     99.6971E-03
             379            1143     74.0390E-03     79.9938E-03
             380             151     94.8957E-03     99.6971E-03
             380             152     104.624E-03     108.146E-03
             380            1143     74.0390E-03     79.9938E-03
             380            1144     85.7273E-03     89.7676E-03
             381             152     104.624E-03     108.146E-03
             381             153     102.929E-03     106.313E-03
             381            1144     85.7273E-03     89.7676E-03
             381            1145     87.3497E-03     90.6899E-03
             382             153     102.929E-03     106.313E-03
             382             154     104.810E-03     105.638E-03
             382            1145     87.3497E-03     90.6899E-03
             382            1146     94.9241E-03     92.6374E-03
             383             154     104.810E-03     105.638E-03
             383             155     104.018E-03     102.632E-03
             383            1146     94.9241E-03     92.6374E-03
             383            1147     95.2656E-03     95.3710E-03
             384               7     77.4734E-03     81.1887E-03
             384             155     104.018E-03     102.632E-03
             384             156     71.3075E-03     77.7179E-03
             384            1147     95.2656E-03     95.3710E-03
             385              96     46.6041E-03     48.8527E-03
             385              97     52.9358E-03     54.9184E-03
             385            1143     74.0390E-03     79.9938E-03
             385            1148     71.1002E-03     73.0581E-03
             386            1143     74.0390E-03     79.9938E-03
             386            1144     85.7273E-03     89.7676E-03
             386            1148     71.1002E-03     73.0581E-03
             386            1149     83.7638E-03     85.1645E-03
             387            1144     85.7273E-03     89.7676E-03
             387            1145     87.3497E-03     90.6899E-03
             387            1149     83.7638E-03     85.1645E-03
             387            1150     88.7891E-03     93.8095E-03
             388            1145     87.3497E-03     90.6899E-03
             388            1146     94.9241E-03     92.6374E-03
             388            1150     88.7891E-03     93.8095E-03
             388            1151     103.046E-03     98.0774E-03
             389            1146     94.9241E-03     92.6374E-03
             389            1147     95.2656E-03     95.3710E-03
             389            1151     103.046E-03     98.0774E-03
             389            1152     102.523E-03     103.696E-03
             390             156     71.3075E-03     77.7179E-03
             390             157     81.9728E-03     96.3778E-03
             390            1147     95.2656E-03     95.3710E-03
             390            1152     102.523E-03     103.696E-03
             391              97     52.9358E-03     54.9184E-03
             391              98     75.5119E-03     83.2691E-03
             391            1148     71.1002E-03     73.0581E-03
             391            1153     84.1748E-03     87.0577E-03
             392            1148     71.1002E-03     73.0581E-03
             392            1149     83.7638E-03     85.1645E-03
             392            1153     84.1748E-03     87.0577E-03
             392            1154     98.6442E-03     95.5677E-03
             393            1149     83.7638E-03     85.1645E-03
             393            1150     88.7891E-03     93.8095E-03
             393            1154     98.6442E-03     95.5677E-03
             393            1155     107.761E-03     111.765E-03
             394            1150     88.7891E-03     93.8095E-03
             394            1151     103.046E-03     98.0774E-03
             394            1155     107.761E-03     111.765E-03
             394            1156     124.082E-03     116.203E-03
             395            1151     103.046E-03     98.0774E-03
             395            1152     102.523E-03     103.696E-03
             395            1156     124.082E-03     116.203E-03
             395            1157     122.056E-03     121.230E-03
             396             157     81.9728E-03     96.3778E-03
             396             158     100.989E-03     125.117E-03
             396            1152     102.523E-03     103.696E-03
             396            1157     122.056E-03     121.230E-03
             397              98     75.5119E-03     83.2691E-03
             397              99     99.8567E-03     115.416E-03
             397            1153     84.1748E-03     87.0577E-03
             397            1158     103.664E-03     112.681E-03
             398            1153     84.1748E-03     87.0577E-03
             398            1154     98.6442E-03     95.5677E-03
             398            1158     103.664E-03     112.681E-03
             398            1159     121.219E-03     117.179E-03
             399            1154     98.6442E-03     95.5677E-03
             399            1155     107.761E-03     111.765E-03
             399            1159     121.219E-03     117.179E-03
             399            1160     132.622E-03     132.225E-03
             400            1155     107.761E-03     111.765E-03
             400            1156     124.082E-03     116.203E-03
             400            1160     132.622E-03     132.225E-03
             400            1161     147.620E-03     135.072E-03
             401            1156     124.082E-03     116.203E-03
             401            1157     122.056E-03     121.230E-03
             401            1161     147.620E-03     135.072E-03
             401            1162     143.835E-03     140.989E-03
             402             158     100.989E-03     125.117E-03
             402             159     121.552E-03     158.887E-03
             402            1157     122.056E-03     121.230E-03
             402            1162     143.835E-03     140.989E-03
             403              99     99.8567E-03     115.416E-03
             403             100     120.710E-03     142.267E-03
             403            1158     103.664E-03     112.681E-03
             403            1163     123.179E-03     138.575E-03
             404            1158     103.664E-03     112.681E-03
             404            1159     121.219E-03     117.179E-03
             404            1163     123.179E-03     138.575E-03
             404            1164     143.928E-03     140.094E-03
             405            1159     121.219E-03     117.179E-03
             405            1160     132.622E-03     132.225E-03
             405            1164     143.928E-03     140.094E-03
             405            1165     151.263E-03     151.717E-03
             406            1160     132.622E-03     132.225E-03
             406            1161     147.620E-03     135.072E-03
             406            1165     151.263E-03     151.717E-03
             406            1166     163.925E-03     154.190E-03
             407            1161     147.620E-03     135.072E-03
             407            1162     143.835E-03     140.989E-03
             407            1166     163.925E-03     154.190E-03
             407            1167     162.585E-03     160.473E-03
             408             159     121.552E-03     158.887E-03
             408             160     139.089E-03     188.886E-03
             408            1162     143.835E-03     140.989E-03
             408            1167     162.585E-03     160.473E-03
             409             100     120.710E-03     142.267E-03
             409             101     140.929E-03     158.643E-03
             409            1163     123.179E-03     138.575E-03
             409            1168     140.033E-03     153.870E-03
             410            1163     123.179E-03     138.575E-03
             410            1164     143.928E-03     140.094E-03
             410            1168     140.033E-03     153.870E-03
             410            1169     159.579E-03     153.675E-03
             411            1164     143.928E-03     140.094E-03
             411            1165     151.263E-03     151.717E-03
             411            1169     159.579E-03     153.675E-03
             411            1170     162.955E-03     162.953E-03
             412            1165     151.263E-03     151.717E-03
             412            1166     163.925E-03     154.190E-03
             412            1170     162.955E-03     162.953E-03
             412            1171     174.328E-03     167.449E-03
             413            1166     163.925E-03     154.190E-03
             413            1167     162.585E-03     160.473E-03
             413            1171     174.328E-03     167.449E-03
             413            1172     179.985E-03     175.335E-03
             414             160     139.089E-03     188.886E-03
             414             161     165.369E-03     206.655E-03
             414            1167     162.585E-03     160.473E-03
             414            1172     179.985E-03     175.335E-03
             415               6     151.931E-03     164.349E-03
             415             101     140.929E-03     158.643E-03
             415             166     148.070E-03     158.126E-03
             415            1168     140.033E-03     153.870E-03
             416             165     164.661E-03     156.693E-03
             416             166     148.070E-03     158.126E-03
             416            1168     140.033E-03     153.870E-03
             416            1169     159.579E-03     153.675E-03
             417             164     167.822E-03     164.262E-03
             417             165     164.661E-03     156.693E-03
             417            1169     159.579E-03     153.675E-03
             417            1170     162.955E-03     162.953E-03
             418             163     178.982E-03     169.975E-03
             418             164     167.822E-03     164.262E-03
             418            1170     162.955E-03     162.953E-03
             418            1171     174.328E-03     167.449E-03
             419             162     188.570E-03     180.324E-03
             419             163     178.982E-03     169.975E-03
             419            1171     174.328E-03     167.449E-03
             419            1172     179.985E-03     175.335E-03
             420               8     183.885E-03     212.809E-03
             420             161     165.369E-03     206.655E-03
             420             162     188.570E-03     180.324E-03
             420            1172     179.985E-03     175.335E-03
             421               7     77.4734E-03     81.1887E-03
             421             156     71.3075E-03     77.7179E-03
             421             167     53.5972E-03     59.1359E-03
             421            1173     57.3011E-03     57.8175E-03
             422             167     53.5972E-03     59.1359E-03
             422             168     54.7366E-03     56.4612E-03
             422            1173     57.3011E-03     57.8175E-03
             422            1174     62.4149E-03     63.5196E-03
             423             168     54.7366E-03     56.4612E-03
             423             169     57.6379E-03     60.8398E-03
             423            1174     62.4149E-03     63.5196E-03
             423            1175     67.0946E-03     74.1064E-03
             424             169     57.6379E-03     60.8398E-03
             424             170     65.4870E-03     63.0175E-03
             424            1175     67.0946E-03     74.1064E-03
             424            1176     82.8084E-03     76.1757E-03
             425             170     65.4870E-03     63.0175E-03
             425             171     66.3593E-03     67.1383E-03
             425            1176     82.8084E-03     76.1757E-03
             425            1177     82.6149E-03     83.5459E-03
             426               9     50.9249E-03     57.2740E-03
             426             171     66.3593E-03     67.1383E-03
             426             172     70.1231E-03     82.8908E-03
             426            1177     82.6149E-03     83.5459E-03
             427             156     71.3075E-03     77.7179E-03
             427             157     81.9728E-03     96.3778E-03
             427            1173     57.3011E-03     57.8175E-03
             427            1178     84.8717E-03     80.3681E-03
             428            1173     57.3011E-03     57.8175E-03
             428            1174     62.4149E-03     63.5196E-03
             428            1178     84.8717E-03     80.3681E-03
             428            1179     93.6245E-03     90.7952E-03
             429            1174     62.4149E-03     63.5196E-03
             429            1175     67.0946E-03     74.1064E-03
             429            1179     93.6245E-03     90.7952E-03
             429            1180     94.1967E-03     105.720E-03
             430            1175     67.0946E-03     74.1064E-03
             430            1176     82.8084E-03     76.1757E-03
             430            1180     94.1967E-03     105.720E-03
             430            1181     112.840E-03     103.210E-03
             431            1176     82.8084E-03     76.1757E-03
             431            1177     82.6149E-03     83.5459E-03
             431            1181     112.840E-03     103.210E-03
             431            1182     109.501E-03     108.725E-03
             432             172     70.1231E-03     82.8908E-03
             432             173     95.1427E-03     111.295E-03
             432            1177     82.6149E-03     83.5459E-03
             432            1182     109.501E-03     108.725E-03
             433             157     81.9728E-03     96.3778E-03
             433             158     100.989E-03     125.117E-03
             433            1178     84.8717E-03     80.3681E-03
             433            1183     118.351E-03     111.630E-03
             434            1178     84.8717E-03     80.3681E-03
             434            1179     93.6245E-03     90.7952E-03
             434            1183     118.351E-03     111.630E-03
             434            1184     129.490E-03     121.131E-03
             435            1179     93.6245E-03     90.7952E-03
             435            1180     94.1967E-03     105.720E-03
             435            1184     129.490E-03     121.131E-03
             435            1185     124.216E-03     137.631E-03
             436            1180     94.1967E-03     105.720E-03
             436            1181     112.840E-03     103.210E-03
             436            1185     124.216E-03     137.631E-03
             436            1186     143.788E-03     130.507E-03
             437            1181     112.840E-03     103.210E-03
             437            1182     109.501E-03     108.725E-03
             437            1186     143.788E-03     130.507E-03
             437            1187     136.815E-03     133.736E-03
             438             173     95.1427E-03     111.295E-03
             438             174     119.012E-03     137.268E-03
             438            1182     109.501E-03     108.725E-03
             438            1187     136.815E-03     133.736E-03
             439             158     100.989E-03     125.117E-03
             439             159     121.552E-03     158.887E-03
             439            1183     118.351E-03     111.630E-03
             439            1188     149.478E-03     142.766E-03
             440            1183     118.351E-03     111.630E-03
             440            1184     129.490E-03     121.131E-03
             440            1188     149.478E-03     142.766E-03
             440            1189     160.109E-03     145.204E-03
             441            1184     129.490E-03     121.131E-03
             441            1185     124.216E-03     137.631E-03
             441            1189     160.109E-03     145.204E-03
             441            1190     146.551E-03     162.550E-03
             442            1185     124.216E-03     137.631E-03
             442            1186     143.788E-03     130.507E-03
             442            1190     146.551E-03     162.550E-03
             442            1191     168.107E-03     150.849E-03
             443            1186     143.788E-03     130.507E-03
             443            1187     136.815E-03     133.736E-03
             443            1191     168.107E-03     150.849E-03
             443            1192     159.679E-03     155.658E-03
             444             174     119.012E-03     137.268E-03
             444             175     138.368E-03     160.910E-03
             444            1187     136.815E-03     133.736E-03
             444            1192     159.679E-03     155.658E-03
             445             159     121.552E-03     158.887E-03
             445             160     139.089E-03     188.886E-03
             445            1188     149.478E-03     142.766E-03
             445            1193     174.596E-03     171.106E-03
             446            1188     149.478E-03     142.766E-03
             446            1189     160.109E-03     145.204E-03
             446            1193     174.596E-03     171.106E-03
             446            1194     181.895E-03     166.619E-03
             447            1189     160.109E-03     145.204E-03
             447            1190     146.551E-03     162.550E-03
             447            1194     181.895E-03     166.619E-03
             447            1195     158.617E-03     181.580E-03
             448            1190     146.551E-03     162.550E-03
             448            1191     168.107E-03     150.849E-03
             448            1195     158.617E-03     181.580E-03
             448            1196     181.946E-03     166.219E-03
             449            1191     168.107E-03     150.849E-03
             449            1192     159.679E-03     155.658E-03
             449            1196     181.946E-03     166.219E-03
             449            1197     175.079E-03     172.463E-03
             450             175     138.368E-03     160.910E-03
             450             176     152.330E-03     177.760E-03
             450            1192     159.679E-03     155.658E-03
             450            1197     175.079E-03     172.463E-03
             451             160     139.089E-03     188.886E-03
             451             161     165.369E-03     206.655E-03
             451            1193     174.596E-03     171.106E-03
             451            1198     195.117E-03     191.513E-03
             452            1193     174.596E-03     171.106E-03
             452            1194     181.895E-03     166.619E-03
             452            1198     195.117E-03     191.513E-03
             452            1199     194.479E-03     181.142E-03
             453            1194     181.895E-03     166.619E-03
             453            1195     158.617E-03     181.580E-03
             453            1199     194.479E-03     181.142E-03
             453            1200     170.060E-03     188.733E-03
             454            1195     158.617E-03     181.580E-03
             454            1196     181.946E-03     166.219E-03
             454            1200     170.060E-03     188.733E-03
             454            1201     185.914E-03     172.431E-03
             455            1196     181.946E-03     166.219E-03
             455            1197     175.079E-03     172.463E-03
             455            1201     185.914E-03     172.431E-03
             455            1202     180.334E-03     175.698E-03
             456             176     152.330E-03     177.760E-03
             456             177     162.523E-03     180.492E-03
             456            1197     175.079E-03     172.463E-03
             456            1202     180.334E-03     175.698E-03
             457               8     183.885E-03     212.809E-03
             457             161     165.369E-03     206.655E-03
             457             182     204.668E-03     198.383E-03
             457            1198     195.117E-03     191.513E-03
             458             181     198.234E-03     183.999E-03
             458             182     204.668E-03     198.383E-03
             458            1198     195.117E-03     191.513E-03
             458            1199     194.479E-03     181.142E-03
             459             180     177.590E-03     187.679E-03
             459             181     198.234E-03     183.999E-03
             459            1199     194.479E-03     181.142E-03
             459            1200     170.060E-03     188.733E-03
             460             179     185.622E-03     171.032E-03
             460             180     177.590E-03     187.679E-03
             460            1200     170.060E-03     188.733E-03
             460            1201     185.914E-03     172.431E-03
             461             178     180.121E-03     171.924E-03
             461             179     185.622E-03     171.032E-03
             461            1201     185.914E-03     172.431E-03
             461            1202     180.334E-03     175.698E-03
             462              10     167.033E-03     177.784E-03
             462             177     162.523E-03     180.492E-03
             462             178     180.121E-03     171.924E-03
             462            1202     180.334E-03     175.698E-03
             463              11     991.862E-06     985.630E-06
             463             183     1.00083E-03     990.685E-06
             463             204     965.966E-06     958.406E-06
             463            1203     973.352E-06     961.760E-06
             464             183     1.00083E-03     990.685E-06
             464             184     1.00464E-03     994.789E-06
             464            1203     973.352E-06     961.760E-06
             464            1204     978.294E-06     967.050E-06
             465             184     1.00464E-03     994.789E-06
             465             185     996.756E-06     997.263E-06
             465            1204     978.294E-06     967.050E-06
             465            1205     973.348E-06     974.642E-06
             466             185     996.756E-06     997.263E-06
             466             186     1.00802E-03     998.531E-06
             466            1205     973.348E-06     974.642E-06
             466            1206     988.504E-06     977.527E-06
             467             186     1.00802E-03     998.531E-06
             467             187     1.00491E-03     979.713E-06
             467            1206     988.504E-06     977.527E-06
             467            1207     987.780E-06     966.273E-06
             468              12     20.0550E-03     19.9916E-03
             468             187     1.00491E-03     979.713E-06
             468             188     21.0230E-03     20.9022E-03
             468            1207     987.780E-06     966.273E-06
             469             203     879.063E-06     870.398E-06
             469             204     965.966E-06     958.406E-06
             469            1203     973.352E-06     961.760E-06
             469            1208     888.975E-06     877.610E-06
             470            1203     973.352E-06     961.760E-06
             470            1204     978.294E-06     967.050E-06
             470            1208     888.975E-06     877.610E-06
             470            1209     897.829E-06     886.997E-06
             471            1204     978.294E-06     967.050E-06
             471            1205     973.348E-06     974.642E-06
             471            1209     897.829E-06     886.997E-06
             471            1210     901.046E-06     906.230E-06
             472            1205     973.348E-06     974.642E-06
             472            1206     988.504E-06     977.527E-06
             472            1210     901.046E-06     906.230E-06
             472            1211     937.278E-06     919.843E-06
             473            1206     988.504E-06     977.527E-06
             473            1207     987.780E-06     966.273E-06
             473            1211     937.278E-06     919.843E-06
             473            1212     939.866E-06     925.796E-06
             474             188     21.0230E-03     20.9022E-03
             474             189     20.9120E-03     20.7928E-03
             474            1207     987.780E-06     966.273E-06
             474            1212     939.866E-06     925.796E-06
             475             202     744.632E-06     732.364E-06
             475             203     879.063E-06     870.398E-06
             475            1208     888.975E-06     877.610E-06
             475            1213     749.889E-06     743.214E-06
             476            1208     888.975E-06     877.610E-06
             476            1209     897.829E-06     886.997E-06
             476            1213     749.889E-06     743.214E-06
             476            1214     761.541E-06     762.714E-06
             477            1209     897.829E-06     886.997E-06
             477            1210     901.046E-06     906.230E-06
             477            1214     761.541E-06     762.714E-06
             477            1215     782.007E-06     801.057E-06
             478            1210     901.046E-06     906.230E-06
             478            1211     937.278E-06     919.843E-06
             478            1215     782.007E-06     801.057E-06
             478            1216     861.678E-06     822.795E-06
             479            1211     937.278E-06     919.843E-06
             479            1212     939.866E-06     925.796E-06
             479            1216     861.678E-06     822.795E-06
             479            1217     878.455E-06     860.587E-06
             480             189     20.9120E-03     20.7928E-03
             480             190     19.7765E-03     19.6361E-03
             480            1212     939.866E-06     925.796E-06
             480            1217     878.455E-06     860.587E-06
             481             201     541.756E-06     541.457E-06
             481             202     744.632E-06     732.364E-06
             481            1213     749.889E-06     743.214E-06
             481            1218     554.603E-06     563.142E-06
             482            1213     749.889E-06     743.214E-06
             482            1214     761.541E-06     762.714E-06
             482            1218     554.603E-06     563.142E-06
             482            1219     584.011E-06     598.129E-06
             483            1214     761.541E-06     762.714E-06
             483            1215     782.007E-06     801.057E-06
             483            1219     584.011E-06     598.129E-06
             483            1220     630.525E-06     664.498E-06
             484            1215     782.007E-06     801.057E-06
             484            1216     861.678E-06     822.795E-06
             484            1220     630.525E-06     664.498E-06
             484            1221     766.302E-06     694.753E-06
             485            1216     861.678E-06     822.795E-06
             485            1217     878.455E-06     860.587E-06
             485            1221     766.302E-06     694.753E-06
             485            1222     796.494E-06     785.104E-06
             486             190     19.7765E-03     19.6361E-03
             486             191     17.4467E-03     17.3505E-03
             486            1217     878.455E-06     860.587E-06
             486            1222     796.494E-06     785.104E-06
             487             200     321.215E-06     338.721E-06
             487             201     541.756E-06     541.457E-06
             487            1218     554.603E-06     563.142E-06
             487            1223     324.378E-06     351.833E-06
             488            1218     554.603E-06     563.142E-06
             488            1219     584.011E-06     598.129E-06
             488            1223     324.378E-06     351.833E-06
             488            1224     372.452E-06     371.058E-06
             489            1219     584.011E-06     598.129E-06
             489            1220     630.525E-06     664.498E-06
             489            1224     372.452E-06     371.058E-06
             489            1225     465.403E-06     504.841E-06
             490            1220     630.525E-06     664.498E-06
             490            1221     766.302E-06     694.753E-06
             490            1225     465.403E-06     504.841E-06
             490            1226     695.029E-06     615.553E-06
             491            1221     766.302E-06     694.753E-06
             491            1222     796.494E-06     785.104E-06
             491            1226     695.029E-06     615.553E-06
             491            1227     757.575E-06     768.728E-06
             492             191     17.4467E-03     17.3505E-03
             492             192     14.0758E-03     14.2775E-03
             492            1222     796.494E-06     785.104E-06
             492            1227     757.575E-06     768.728E-06
             493             199     255.524E-06     342.715E-06
             493             200     321.215E-06     338.721E-06
             493            1223     324.378E-06     351.833E-06
             493            1228     236.255E-06     296.341E-06
             494            1223     324.378E-06     351.833E-06
             494            1224     372.452E-06     371.058E-06
             494            1228     236.255E-06     296.341E-06
             494            1229     293.954E-06     268.611E-06
             495            1224     372.452E-06     371.058E-06
             495            1225     465.403E-06     504.841E-06
             495            1229     293.954E-06     268.611E-06
             495            1230     425.483E-06     468.954E-06
             496            1225     465.403E-06     504.841E-06
             496            1226     695.029E-06     615.553E-06
             496            1230     425.483E-06     468.954E-06
             496            1231     729.856E-06     671.989E-06
             497            1226     695.029E-06     615.553E-06
             497            1227     757.575E-06     768.728E-06
             497            1231     729.856E-06     671.989E-06
             497            1232     911.026E-06     917.507E-06
             498             192     14.0758E-03     14.2775E-03
             498             193     10.0354E-03     11.3790E-03
             498            1227     757.575E-06     768.728E-06
             498            1232     911.026E-06     917.507E-06
             499              14     280.922E-06     435.786E-06
             499             198     265.262E-06     351.258E-06
             499             199     255.524E-06     342.715E-06
             499            1228     236.255E-06     296.341E-06
             500             197     331.658E-06     300.620E-06
             500             198     265.262E-06     351.258E-06
             500            1228     236.255E-06     296.341E-06
             500            1229     293.954E-06     268.611E-06
             501             196     469.348E-06     515.547E-06
             501             197     331.658E-06     300.620E-06
             501            1229     293.954E-06     268.611E-06
             501            1230     425.483E-06     468.954E-06
             502             195     784.470E-06     739.948E-06
             502             196     469.348E-06     515.547E-06
             502            1230     425.483E-06     468.954E-06
             502            1231     729.856E-06     671.989E-06
             503             194     1.05207E-03     1.04535E-03
             503             195     784.470E-06     739.948E-06
             503            1231     729.856E-06     671.989E-06
             503            1232     911.026E-06     917.507E-06
             504              13     7.81494E-03     10.1250E-03
             504             193     10.0354E-03     11.3790E-03
             504             194     1.05207E-03     1.04535E-03
             504            1232     911.026E-06     917.507E-06
             505               9     50.9249E-03     57.2740E-03
             505             172     70.1231E-03     82.8908E-03
             505             205     44.5597E-03     47.1534E-03
             505            1233     69.5384E-03     76.4498E-03
             506             205     44.5597E-03     47.1534E-03
             506             206     53.4399E-03     51.6287E-03
             506            1233     69.5384E-03     76.4498E-03
             506            1234     80.2957E-03     77.5121E-03
             507             206     53.4399E-03     51.6287E-03
             507             207     54.5476E-03     53.3376E-03
             507            1234     80.2957E-03     77.5121E-03
             507            1235     83.3864E-03     78.6775E-03
             508             207     54.5476E-03     53.3376E-03
             508             208     50.0487E-03     53.5800E-03
             508            1235     83.3864E-03     78.6775E-03
             508            1236     75.6307E-03     80.6532E-03
             509             208     50.0487E-03     53.5800E-03
             509             209     50.5619E-03     51.0683E-03
             509            1236     75.6307E-03     80.6532E-03
             509            1237     76.0938E-03     76.0840E-03
             510             209     50.5619E-03     51.0683E-03
             510             210     49.9557E-03     50.4443E-03
             510            1237     76.0938E-03     76.0840E-03
             510            1238     74.2145E-03     74.8030E-03
             511             210     49.9557E-03     50.4443E-03
             511             211     49.2044E-03     49.0601E-03
             511            1238     74.2145E-03     74.8030E-03
             511            1239     71.6732E-03     72.3433E-03
             512             211     49.2044E-03     49.0601E-03
             512             212     48.6926E-03     47.6210E-03
             512            1239     71.6732E-03     72.3433E-03
             512            1240     69.4178E-03     68.8784E-03
             513             212     48.6926E-03     47.6210E-03
             513             213     47.7076E-03     46.9510E-03
             513            1240     69.4178E-03     68.8784E-03
             513            1241     65.8076E-03     67.2876E-03
             514             213     47.7076E-03     46.9510E-03
             514             214     47.2838E-03     44.9249E-03
             514            1241     65.8076E-03     67.2876E-03
             514            1242     65.4407E-03     62.4148E-03
             515             214     47.2838E-03     44.9249E-03
             515             215     45.3788E-03     44.7462E-03
             515            1242     65.4407E-03     62.4148E-03
             515            1243     60.9317E-03     58.7187E-03
             516             215     45.3788E-03     44.7462E-03
             516             216     43.6582E-03     46.4742E-03
             516            1243     60.9317E-03     58.7187E-03
             516            1244     55.4997E-03     62.6861E-03
             517             216     43.6582E-03     46.4742E-03
             517             217     47.8277E-03     46.3179E-03
             517            1244     55.4997E-03     62.6861E-03
             517            1245     64.3037E-03     62.2250E-03
             518             217     47.8277E-03     46.3179E-03
             518             218     48.3513E-03     47.7211E-03
             518            1245     64.3037E-03     62.2250E-03
             518            1246     65.9690E-03     62.5383E-03
             519             218     48.3513E-03     47.7211E-03
             519             219     44.9084E-03     47.6182E-03
             519            1246     65.9690E-03     62.5383E-03
             519            1247     59.6198E-03     63.2679E-03
             520             219     44.9084E-03     47.6182E-03
             520             220     45.0869E-03     45.7265E-03
             520            1247     59.6198E-03     63.2679E-03
             520            1248     59.4219E-03     59.3894E-03
             521             220     45.0869E-03     45.7265E-03
             521             221     44.5201E-03     45.0892E-03
             521            1248     59.4219E-03     59.3894E-03
             521            1249     57.6831E-03     57.7993E-03
             522             221     44.5201E-03     45.0892E-03
             522             222     43.8165E-03     43.9575E-03
             522            1249     57.6831E-03     57.7993E-03
             522            1250     55.2382E-03     55.7541E-03
             523             222     43.8165E-03     43.9575E-03
             523             223     43.4803E-03     42.7171E-03
             523            1250     55.2382E-03     55.7541E-03
             523            1251     53.4102E-03     53.1099E-03
             524             223     43.4803E-03     42.7171E-03
             524             224     42.8681E-03     41.7850E-03
             524            1251     53.4102E-03     53.1099E-03
             524            1252     51.2202E-03     50.6192E-03
             525             224     42.8681E-03     41.7850E-03
             525             225     42.2616E-03     41.0885E-03
             525            1252     51.2202E-03     50.6192E-03
             525            1253     48.6494E-03     48.7249E-03
             526             225     42.2616E-03     41.0885E-03
             526             226     41.5802E-03     39.9773E-03
             526            1253     48.6494E-03     48.7249E-03
             526            1254     47.3396E-03     45.6824E-03
             527             226     41.5802E-03     39.9773E-03
             527             227     40.5213E-03     39.9794E-03
             527            1254     47.3396E-03     45.6824E-03
             527            1255     44.6772E-03     43.3889E-03
             528             227     40.5213E-03     39.9794E-03
             528             228     40.2847E-03     41.1545E-03
             528            1255     44.6772E-03     43.3889E-03
             528            1256     42.8900E-03     46.0246E-03
             529             228     40.2847E-03     41.1545E-03
             529             229     42.8226E-03     41.7455E-03
             529            1256     42.8900E-03     46.0246E-03
             529            1257     47.8780E-03     46.6927E-03
             530             229     42.8226E-03     41.7455E-03
             530             230     42.9389E-03     42.5888E-03
             530            1257     47.8780E-03     46.6927E-03
             530            1258     48.1727E-03     46.3410E-03
             531             230     42.9389E-03     42.5888E-03
             531             231     40.9637E-03     42.2353E-03
             531            1258     48.1727E-03     46.3410E-03
             531            1259     44.0693E-03     46.0119E-03
             532             231     40.9637E-03     42.2353E-03
             532             232     41.0098E-03     41.1396E-03
             532            1259     44.0693E-03     46.0119E-03
             532            1260     43.4031E-03     43.3664E-03
             533             232     41.0098E-03     41.1396E-03
             533             233     40.7105E-03     40.7420E-03
             533            1260     43.4031E-03     43.3664E-03
             533            1261     41.9911E-03     42.0082E-03
             534             233     40.7105E-03     40.7420E-03
             534             234     40.3599E-03     40.1262E-03
             534            1261     41.9911E-03     42.0082E-03
             534            1262     40.3672E-03     40.4662E-03
             535             234     40.3599E-03     40.1262E-03
             535             235     40.1690E-03     39.6206E-03
             535            1262     40.3672E-03     40.4662E-03
             535            1263     39.1694E-03     38.8483E-03
             536             235     40.1690E-03     39.6206E-03
             536             236     39.9195E-03     39.2917E-03
             536            1263     39.1694E-03     38.8483E-03
             536            1264     38.0076E-03     37.6019E-03
             537             236     39.9195E-03     39.2917E-03
             537             237     39.6806E-03     38.9713E-03
             537            1264     38.0076E-03     37.6019E-03
             537            1265     36.9482E-03     36.4855E-03
             538             237     39.6806E-03     38.9713E-03
             538             238     39.3169E-03     38.8581E-03
             538            1265     36.9482E-03     36.4855E-03
             538            1266     36.1435E-03     35.6540E-03
             539             238     39.3169E-03     38.8581E-03
             539             239     39.1243E-03     38.9168E-03
             539            1266     36.1435E-03     35.6540E-03
             539            1267     35.7547E-03     35.9417E-03
             540             239     39.1243E-03     38.9168E-03
             540             240     39.7028E-03     39.0808E-03
             540            1267     35.7547E-03     35.9417E-03
             540            1268     36.4811E-03     36.1183E-03
             541             240     39.7028E-03     39.0808E-03
             541             241     39.7211E-03     39.4159E-03
             541            1268     36.4811E-03     36.1183E-03
             541            1269     36.3681E-03     35.8513E-03
             542             241     39.7211E-03     39.4159E-03
             542             242     39.3205E-03     39.2894E-03
             542            1269     36.3681E-03     35.8513E-03
             542            1270     35.5284E-03     35.6235E-03
             543             242     39.3205E-03     39.2894E-03
             543             243     39.2962E-03     39.0192E-03
             543            1270     35.5284E-03     35.6235E-03
             543            1271     35.4238E-03     35.2052E-03
             544              12     20.0550E-03     19.9916E-03
             544             243     39.2962E-03     39.0192E-03
             544             244     18.1276E-03     18.0477E-03
             544            1271     35.4238E-03     35.2052E-03
             545             172     70.1231E-03     82.8908E-03
             545             173     95.1427E-03     111.295E-03
             545            1233     69.5384E-03     76.4498E-03
             545            1272     96.2263E-03     107.384E-03
             546            1233     69.5384E-03     76.4498E-03
             546            1234     80.2957E-03     77.5121E-03
             546            1272     96.2263E-03     107.384E-03
             546            1273     110.035E-03     106.167E-03
             547            1234     80.2957E-03     77.5121E-03
             547            1235     83.3864E-03     78.6775E-03
             547            1273     110.035E-03     106.167E-03
             547            1274     115.010E-03     106.671E-03
             548            1235     83.3864E-03     78.6775E-03
             548            1236     75.6307E-03     80.6532E-03
             548            1274     115.010E-03     106.671E-03
             548            1275     103.451E-03     109.668E-03
             549            1236     75.6307E-03     80.6532E-03
             549            1237     76.0938E-03     76.0840E-03
             549            1275     103.451E-03     109.668E-03
             549            1276     103.454E-03     102.123E-03
             550            1237     76.0938E-03     76.0840E-03
             550            1238     74.2145E-03     74.8030E-03
             550            1276     103.454E-03     102.123E-03
             550            1277     100.173E-03     99.9253E-03
             551            1238     74.2145E-03     74.8030E-03
             551            1239     71.6732E-03     72.3433E-03
             551            1277     100.173E-03     99.9253E-03
             551            1278     96.1626E-03     96.6887E-03
             552            1239     71.6732E-03     72.3433E-03
             552            1240     69.4178E-03     68.8784E-03
             552            1278     96.1626E-03     96.6887E-03
             552            1279     92.7535E-03     92.1374E-03
             553            1240     69.4178E-03     68.8784E-03
             553            1241     65.8076E-03     67.2876E-03
             553            1279     92.7535E-03     92.1374E-03
             553            1280     87.0816E-03     90.7377E-03
             554            1241     65.8076E-03     67.2876E-03
             554            1242     65.4407E-03     62.4148E-03
             554            1280     87.0816E-03     90.7377E-03
             554            1281     87.5173E-03     83.4985E-03
             555            1242     65.4407E-03     62.4148E-03
             555            1243     60.9317E-03     58.7187E-03
             555            1281     87.5173E-03     83.4985E-03
             555            1282     80.4919E-03     77.0964E-03
             556            1243     60.9317E-03     58.7187E-03
             556            1244     55.4997E-03     62.6861E-03
             556            1282     80.4919E-03     77.0964E-03
             556            1283     70.9199E-03     83.2751E-03
             557            1244     55.4997E-03     62.6861E-03
             557            1245     64.3037E-03     62.2250E-03
             557            1283     70.9199E-03     83.2751E-03
             557            1284     84.1658E-03     81.3957E-03
             558            1245     64.3037E-03     62.2250E-03
             558            1246     65.9690E-03     62.5383E-03
             558            1284     84.1658E-03     81.3957E-03
             558            1285     87.0984E-03     80.6006E-03
             559            1246     65.9690E-03     62.5383E-03
             559            1247     59.6198E-03     63.2679E-03
             559            1285     87.0984E-03     80.6006E-03
             559            1286     77.3198E-03     81.7784E-03
             560            1247     59.6198E-03     63.2679E-03
             560            1248     59.4219E-03     59.3894E-03
             560            1286     77.3198E-03     81.7784E-03
             560            1287     76.3407E-03     75.1656E-03
             561            1248     59.4219E-03     59.3894E-03
             561            1249     57.6831E-03     57.7993E-03
             561            1287     76.3407E-03     75.1656E-03
             561            1288     73.1697E-03     72.4000E-03
             562            1249     57.6831E-03     57.7993E-03
             562            1250     55.2382E-03     55.7541E-03
             562            1288     73.1697E-03     72.4000E-03
             562            1289     68.9052E-03     69.4382E-03
             563            1250     55.2382E-03     55.7541E-03
             563            1251     53.4102E-03     53.1099E-03
             563            1289     68.9052E-03     69.4382E-03
             563            1290     65.8700E-03     65.6838E-03
             564            1251     53.4102E-03     53.1099E-03
             564            1252     51.2202E-03     50.6192E-03
             564            1290     65.8700E-03     65.6838E-03
             564            1291     62.2448E-03     62.1095E-03
             565            1252     51.2202E-03     50.6192E-03
             565            1253     48.6494E-03     48.7249E-03
             565            1291     62.2448E-03     62.1095E-03
             565            1292     57.7975E-03     59.6012E-03
             566            1253     48.6494E-03     48.7249E-03
             566            1254     47.3396E-03     45.6824E-03
             566            1292     57.7975E-03     59.6012E-03
             566            1293     56.2446E-03     54.5186E-03
             567            1254     47.3396E-03     45.6824E-03
             567            1255     44.6772E-03     43.3889E-03
             567            1293     56.2446E-03     54.5186E-03
             567            1294     51.7428E-03     49.7876E-03
             568            1255     44.6772E-03     43.3889E-03
             568            1256     42.8900E-03     46.0246E-03
             568            1294     51.7428E-03     49.7876E-03
             568            1295     47.4570E-03     53.8417E-03
             569            1256     42.8900E-03     46.0246E-03
             569            1257     47.8780E-03     46.6927E-03
             569            1295     47.4570E-03     53.8417E-03
             569            1296     55.1114E-03     53.6874E-03
             570            1257     47.8780E-03     46.6927E-03
             570            1258     48.1727E-03     46.3410E-03
             570            1296     55.1114E-03     53.6874E-03
             570            1297     55.8280E-03     51.9268E-03
             571            1258     48.1727E-03     46.3410E-03
             571            1259     44.0693E-03     46.0119E-03
             571            1297     55.8280E-03     51.9268E-03
             571            1298     48.8893E-03     51.3803E-03
             572            1259     44.0693E-03     46.0119E-03
             572            1260     43.4031E-03     43.3664E-03
             572            1298     48.8893E-03     51.3803E-03
             572            1299     47.1193E-03     46.5298E-03
             573            1260     43.4031E-03     43.3664E-03
             573            1261     41.9911E-03     42.0082E-03
             573            1299     47.1193E-03     46.5298E-03
             573            1300     44.2318E-03     44.0203E-03
             574            1261     41.9911E-03     42.0082E-03
             574            1262     40.3672E-03     40.4662E-03
             574            1300     44.2318E-03     44.0203E-03
             574            1301     40.9261E-03     41.4024E-03
             575            1262     40.3672E-03     40.4662E-03
             575            1263     39.1694E-03     38.8483E-03
             575            1301     40.9261E-03     41.4024E-03
             575            1302     38.3751E-03     38.4734E-03
             576            1263     39.1694E-03     38.8483E-03
             576            1264     38.0076E-03     37.6019E-03
             576            1302     38.3751E-03     38.4734E-03
             576            1303     35.7429E-03     35.9602E-03
             577            1264     38.0076E-03     37.6019E-03
             577            1265     36.9482E-03     36.4855E-03
             577            1303     35.7429E-03     35.9602E-03
             577            1304     33.5129E-03     33.5891E-03
             578            1265     36.9482E-03     36.4855E-03
             578            1266     36.1435E-03     35.6540E-03
             578            1304     33.5129E-03     33.5891E-03
             578            1305     31.8712E-03     31.3824E-03
             579            1266     36.1435E-03     35.6540E-03
             579            1267     35.7547E-03     35.9417E-03
             579            1305     31.8712E-03     31.3824E-03
             579            1306     30.9986E-03     31.9085E-03
             580            1267     35.7547E-03     35.9417E-03
             580            1268     36.4811E-03     36.1183E-03
             580            1306     30.9986E-03     31.9085E-03
             580            1307     32.0355E-03     32.0665E-03
             581            1268     36.4811E-03     36.1183E-03
             581            1269     36.3681E-03     35.8513E-03
             581            1307     32.0355E-03     32.0665E-03
             581            1308     31.7755E-03     30.8371E-03
             582            1269     36.3681E-03     35.8513E-03
             582            1270     35.5284E-03     35.6235E-03
             582            1308     31.7755E-03     30.8371E-03
             582            1309     30.1204E-03     30.3505E-03
             583            1270     35.5284E-03     35.6235E-03
             583            1271     35.4238E-03     35.2052E-03
             583            1309     30.1204E-03     30.3505E-03
             583            1310     29.7663E-03     29.6317E-03
             584             244     18.1276E-03     18.0477E-03
             584             245     15.2784E-03     15.2305E-03
             584            1271     35.4238E-03     35.2052E-03
             584            1310     29.7663E-03     29.6317E-03
             585             173     95.1427E-03     111.295E-03
             585             174     119.012E-03     137.268E-03
             585            1272     96.2263E-03     107.384E-03
             585            1311     120.701E-03     136.933E-03
             586            1272     96.2263E-03     107.384E-03
             586            1273     110.035E-03     106.167E-03
             586            1311     120.701E-03     136.933E-03
             586            1312     138.795E-03     134.731E-03
             587            1273     110.035E-03     106.167E-03
             587            1274     115.010E-03     106.671E-03
             587            1312     138.795E-03     134.731E-03
             587            1313     144.559E-03     132.612E-03
             588            1274     115.010E-03     106.671E-03
             588            1275     103.451E-03     109.668E-03
             588            1313     144.559E-03     132.612E-03
             588            1314     127.535E-03     134.861E-03
             589            1275     103.451E-03     109.668E-03
             589            1276     103.454E-03     102.123E-03
             589            1314     127.535E-03     134.861E-03
             589            1315     126.252E-03     123.891E-03
             590            1276     103.454E-03     102.123E-03
             590            1277     100.173E-03     99.9253E-03
             590            1315     126.252E-03     123.891E-03
             590            1316     121.554E-03     120.722E-03
             591            1277     100.173E-03     99.9253E-03
             591            1278     96.1626E-03     96.6887E-03
             591            1316     121.554E-03     120.722E-03
             591            1317     116.712E-03     116.834E-03
             592            1278     96.1626E-03     96.6887E-03
             592            1279     92.7535E-03     92.1374E-03
             592            1317     116.712E-03     116.834E-03
             592            1318     113.134E-03     111.874E-03
             593            1279     92.7535E-03     92.1374E-03
             593            1280     87.0816E-03     90.7377E-03
             593            1318     113.134E-03     111.874E-03
             593            1319     107.017E-03     112.116E-03
             594            1280     87.0816E-03     90.7377E-03
             594            1281     87.5173E-03     83.4985E-03
             594            1319     107.017E-03     112.116E-03
             594            1320     109.948E-03     104.498E-03
             595            1281     87.5173E-03     83.4985E-03
             595            1282     80.4919E-03     77.0964E-03
             595            1320     109.948E-03     104.498E-03
             595            1321     101.359E-03     97.7733E-03
             596            1282     80.4919E-03     77.0964E-03
             596            1283     70.9199E-03     83.2751E-03
             596            1321     101.359E-03     97.7733E-03
             596            1322     87.1030E-03     106.266E-03
             597            1283     70.9199E-03     83.2751E-03
             597            1284     84.1658E-03     81.3957E-03
             597            1322     87.1030E-03     106.266E-03
             597            1323     104.196E-03     101.396E-03
             598            1284     84.1658E-03     81.3957E-03
             598            1285     87.0984E-03     80.6006E-03
             598            1323     104.196E-03     101.396E-03
             598            1324     107.587E-03     98.2660E-03
             599            1285     87.0984E-03     80.6006E-03
             599            1286     77.3198E-03     81.7784E-03
             599            1324     107.587E-03     98.2660E-03
             599            1325     93.2632E-03     98.7965E-03
             600            1286     77.3198E-03     81.7784E-03
             600            1287     76.3407E-03     75.1656E-03
             600            1325     93.2632E-03     98.7965E-03
             600            1326     91.0170E-03     89.3631E-03
             601            1287     76.3407E-03     75.1656E-03
             601            1288     73.1697E-03     72.4000E-03
             601            1326     91.0170E-03     89.3631E-03
             601            1327     86.4302E-03     85.3705E-03
             602            1288     73.1697E-03     72.4000E-03
             602            1289     68.9052E-03     69.4382E-03
             602            1327     86.4302E-03     85.3705E-03
             602            1328     80.8048E-03     81.5127E-03
             603            1289     68.9052E-03     69.4382E-03
             603            1290     65.8700E-03     65.6838E-03
             603            1328     80.8048E-03     81.5127E-03
             603            1329     77.1597E-03     76.8159E-03
             604            1290     65.8700E-03     65.6838E-03
             604            1291     62.2448E-03     62.1095E-03
             604            1329     77.1597E-03     76.8159E-03
             604            1330     73.0285E-03     72.7780E-03
             605            1291     62.2448E-03     62.1095E-03
             605            1292     57.7975E-03     59.6012E-03
             605            1330     73.0285E-03     72.7780E-03
             605            1331     67.7608E-03     70.8865E-03
             606            1292     57.7975E-03     59.6012E-03
             606            1293     56.2446E-03     54.5186E-03
             606            1331     67.7608E-03     70.8865E-03
             606            1332     67.1914E-03     65.0315E-03
             607            1293     56.2446E-03     54.5186E-03
             607            1294     51.7428E-03     49.7876E-03
             607            1332     67.1914E-03     65.0315E-03
             607            1333     61.3092E-03     59.2947E-03
             608            1294     51.7428E-03     49.7876E-03
             608            1295     47.4570E-03     53.8417E-03
             608            1333     61.3092E-03     59.2947E-03
             608            1334     53.6044E-03     64.3959E-03
             609            1295     47.4570E-03     53.8417E-03
             609            1296     55.1114E-03     53.6874E-03
             609            1334     53.6044E-03     64.3959E-03
             609            1335     63.4279E-03     61.9902E-03
             610            1296     55.1114E-03     53.6874E-03
             610            1297     55.8280E-03     51.9268E-03
             610            1335     63.4279E-03     61.9902E-03
             610            1336     64.1249E-03     58.1088E-03
             611            1297     55.8280E-03     51.9268E-03
             611            1298     48.8893E-03     51.3803E-03
             611            1336     64.1249E-03     58.1088E-03
             611            1337     53.7531E-03     56.8821E-03
             612            1298     48.8893E-03     51.3803E-03
             612            1299     47.1193E-03     46.5298E-03
             612            1337     53.7531E-03     56.8821E-03
             612            1338     50.7858E-03     49.8058E-03
             613            1299     47.1193E-03     46.5298E-03
             613            1300     44.2318E-03     44.0203E-03
             613            1338     50.7858E-03     49.8058E-03
             613            1339     46.5556E-03     46.0956E-03
             614            1300     44.2318E-03     44.0203E-03
             614            1301     40.9261E-03     41.4024E-03
             614            1339     46.5556E-03     46.0956E-03
             614            1340     41.8663E-03     42.3680E-03
             615            1301     40.9261E-03     41.4024E-03
             615            1302     38.3751E-03     38.4734E-03
             615            1340     41.8663E-03     42.3680E-03
             615            1341     38.1219E-03     38.3002E-03
             616            1302     38.3751E-03     38.4734E-03
             616            1303     35.7429E-03     35.9602E-03
             616            1341     38.1219E-03     38.3002E-03
             616            1342     34.1174E-03     34.9979E-03
             617            1303     35.7429E-03     35.9602E-03
             617            1304     33.5129E-03     33.5891E-03
             617            1342     34.1174E-03     34.9979E-03
             617            1343     30.6878E-03     31.4580E-03
             618            1304     33.5129E-03     33.5891E-03
             618            1305     31.8712E-03     31.3824E-03
             618            1343     30.6878E-03     31.4580E-03
             618            1344     27.9419E-03     27.5625E-03
             619            1305     31.8712E-03     31.3824E-03
             619            1306     30.9986E-03     31.9085E-03
             619            1344     27.9419E-03     27.5625E-03
             619            1345     25.9593E-03     27.9562E-03
             620            1306     30.9986E-03     31.9085E-03
             620            1307     32.0355E-03     32.0665E-03
             620            1345     25.9593E-03     27.9562E-03
             620            1346     27.2838E-03     27.4660E-03
             621            1307     32.0355E-03     32.0665E-03
             621            1308     31.7755E-03     30.8371E-03
             621            1346     27.2838E-03     27.4660E-03
             621            1347     26.4226E-03     24.8135E-03
             622            1308     31.7755E-03     30.8371E-03
             622            1309     30.1204E-03     30.3505E-03
             622            1347     26.4226E-03     24.8135E-03
             622            1348     23.1651E-03     23.9574E-03
             623            1309     30.1204E-03     30.3505E-03
             623            1310     29.7663E-03     29.6317E-03
             623            1348     23.1651E-03     23.9574E-03
             623            1349     22.6222E-03     22.7385E-03
             624             245     15.2784E-03     15.2305E-03
             624             246     11.7149E-03     11.6613E-03
             624            1310     29.7663E-03     29.6317E-03
             624            1349     22.6222E-03     22.7385E-03
             625             174     119.012E-03     137.268E-03
             625             175     138.368E-03     160.910E-03
             625            1311     120.701E-03     136.933E-03
             625            1350     141.061E-03     163.891E-03
             626            1311     120.701E-03     136.933E-03
             626            1312     138.795E-03     134.731E-03
             626            1350     141.061E-03     163.891E-03
             626            1351     163.352E-03     160.442E-03
             627            1312     138.795E-03     134.731E-03
             627            1313     144.559E-03     132.612E-03
             627            1351     163.352E-03     160.442E-03
             627            1352     168.196E-03     153.469E-03
             628            1313     144.559E-03     132.612E-03
             628            1314     127.535E-03     134.861E-03
             628            1352     168.196E-03     153.469E-03
             628            1353     145.065E-03     155.988E-03
             629            1314     127.535E-03     134.861E-03
             629            1315     126.252E-03     123.891E-03
             629            1353     145.065E-03     155.988E-03
             629            1354     142.903E-03     142.036E-03
             630            1315     126.252E-03     123.891E-03
             630            1316     121.554E-03     120.722E-03
             630            1354     142.903E-03     142.036E-03
             630            1355     136.990E-03     138.196E-03
             631            1316     121.554E-03     120.722E-03
             631            1317     116.712E-03     116.834E-03
             631            1355     136.990E-03     138.196E-03
             631            1356     131.320E-03     133.451E-03
             632            1317     116.712E-03     116.834E-03
             632            1318     113.134E-03     111.874E-03
             632            1356     131.320E-03     133.451E-03
             632            1357     127.839E-03     127.332E-03
             633            1318     113.134E-03     111.874E-03
             633            1319     107.017E-03     112.116E-03
             633            1357     127.839E-03     127.332E-03
             633            1358     121.586E-03     128.924E-03
             634            1319     107.017E-03     112.116E-03
             634            1320     109.948E-03     104.498E-03
             634            1358     121.586E-03     128.924E-03
             634            1359     128.648E-03     121.241E-03
             635            1320     109.948E-03     104.498E-03
             635            1321     101.359E-03     97.7733E-03
             635            1359     128.648E-03     121.241E-03
             635            1360     120.257E-03     117.455E-03
             636            1321     101.359E-03     97.7733E-03
             636            1322     87.1030E-03     106.266E-03
             636            1360     120.257E-03     117.455E-03
             636            1361     101.643E-03     130.285E-03
             637            1322     87.1030E-03     106.266E-03
             637            1323     104.196E-03     101.396E-03
             637            1361     101.643E-03     130.285E-03
             637            1362     121.599E-03     119.686E-03
             638            1323     104.196E-03     101.396E-03
             638            1324     107.587E-03     98.2660E-03
             638            1362     121.599E-03     119.686E-03
             638            1363     124.333E-03     112.935E-03
             639            1324     107.587E-03     98.2660E-03
             639            1325     93.2632E-03     98.7965E-03
             639            1363     124.333E-03     112.935E-03
             639            1364     105.344E-03     113.763E-03
             640            1325     93.2632E-03     98.7965E-03
             640            1326     91.0170E-03     89.3631E-03
             640            1364     105.344E-03     113.763E-03
             640            1365     102.262E-03     101.986E-03
             641            1326     91.0170E-03     89.3631E-03
             641            1327     86.4302E-03     85.3705E-03
             641            1365     102.262E-03     101.986E-03
             641            1366     96.6617E-03     97.0437E-03
             642            1327     86.4302E-03     85.3705E-03
             642            1328     80.8048E-03     81.5127E-03
             642            1366     96.6617E-03     97.0437E-03
             642            1367     89.7021E-03     92.2431E-03
             643            1328     80.8048E-03     81.5127E-03
             643            1329     77.1597E-03     76.8159E-03
             643            1367     89.7021E-03     92.2431E-03
             643            1368     85.6925E-03     86.3796E-03
             644            1329     77.1597E-03     76.8159E-03
             644            1330     73.0285E-03     72.7780E-03
             644            1368     85.6925E-03     86.3796E-03
             644            1369     81.2051E-03     81.4348E-03
             645            1330     73.0285E-03     72.7780E-03
             645            1331     67.7608E-03     70.8865E-03
             645            1369     81.2051E-03     81.4348E-03
             645            1370     75.5501E-03     79.9547E-03
             646            1331     67.7608E-03     70.8865E-03
             646            1332     67.1914E-03     65.0315E-03
             646            1370     75.5501E-03     79.9547E-03
             646            1371     77.3487E-03     74.0093E-03
             647            1332     67.1914E-03     65.0315E-03
             647            1333     61.3092E-03     59.2947E-03
             647            1371     77.3487E-03     74.0093E-03
             647            1372     71.2003E-03     69.6885E-03
             648            1333     61.3092E-03     59.2947E-03
             648            1334     53.6044E-03     64.3959E-03
             648            1372     71.2003E-03     69.6885E-03
             648            1373     60.2248E-03     76.9356E-03
             649            1334     53.6044E-03     64.3959E-03
             649            1335     63.4279E-03     61.9902E-03
             649            1373     60.2248E-03     76.9356E-03
             649            1374     71.4018E-03     70.4986E-03
             650            1335     63.4279E-03     61.9902E-03
             650            1336     64.1249E-03     58.1088E-03
             650            1374     71.4018E-03     70.4986E-03
             650            1375     71.5591E-03     64.1230E-03
             651            1336     64.1249E-03     58.1088E-03
             651            1337     53.7531E-03     56.8821E-03
             651            1375     71.5591E-03     64.1230E-03
             651            1376     57.9713E-03     62.9790E-03
             652            1337     53.7531E-03     56.8821E-03
             652            1338     50.7858E-03     49.8058E-03
             652            1376     57.9713E-03     62.9790E-03
             652            1377     54.1237E-03     53.7588E-03
             653            1338     50.7858E-03     49.8058E-03
             653            1339     46.5556E-03     46.0956E-03
             653            1377     54.1237E-03     53.7588E-03
             653            1378     48.7142E-03     48.7490E-03
             654            1339     46.5556E-03     46.0956E-03
             654            1340     41.8663E-03     42.3680E-03
             654            1378     48.7142E-03     48.7490E-03
             654            1379     42.6697E-03     43.6962E-03
             655            1340     41.8663E-03     42.3680E-03
             655            1341     38.1219E-03     38.3002E-03
             655            1379     42.6697E-03     43.6962E-03
             655            1380     38.1020E-03     38.1435E-03
             656            1341     38.1219E-03     38.3002E-03
             656            1342     34.1174E-03     34.9979E-03
             656            1380     38.1020E-03     38.1435E-03
             656            1381     33.0642E-03     34.2322E-03
             657            1342     34.1174E-03     34.9979E-03
             657            1343     30.6878E-03     31.4580E-03
             657            1381     33.0642E-03     34.2322E-03
             657            1382     29.4171E-03     30.1624E-03
             658            1343     30.6878E-03     31.4580E-03
             658            1344     27.9419E-03     27.5625E-03
             658            1382     29.4171E-03     30.1624E-03
             658            1383     25.8317E-03     25.5229E-03
             659            1344     27.9419E-03     27.5625E-03
             659            1345     25.9593E-03     27.9562E-03
             659            1383     25.8317E-03     25.5229E-03
             659            1384     21.5456E-03     25.7641E-03
             660            1345     25.9593E-03     27.9562E-03
             660            1346     27.2838E-03     27.4660E-03
             660            1384     21.5456E-03     25.7641E-03
             660            1385     22.6885E-03     22.8741E-03
             661            1346     27.2838E-03     27.4660E-03
             661            1347     26.4226E-03     24.8135E-03
             661            1385     22.6885E-03     22.8741E-03
             661            1386     21.1463E-03     18.3959E-03
             662            1347     26.4226E-03     24.8135E-03
             662            1348     23.1651E-03     23.9574E-03
             662            1386     21.1463E-03     18.3959E-03
             662            1387     15.4812E-03     17.5400E-03
             663            1348     23.1651E-03     23.9574E-03
             663            1349     22.6222E-03     22.7385E-03
             663            1387     15.4812E-03     17.5400E-03
             663            1388     14.1792E-03     14.9498E-03
             664             246     11.7149E-03     11.6613E-03
             664             247     7.49175E-03     7.41743E-03
             664            1349     22.6222E-03     22.7385E-03
             664            1388     14.1792E-03     14.9498E-03
             665             175     138.368E-03     160.910E-03
             665             176     152.330E-03     177.760E-03
             665            1350     141.061E-03     163.891E-03
             665            1389     156.164E-03     182.981E-03
             666            1350     141.061E-03     163.891E-03
             666            1351     163.352E-03     160.442E-03
             666            1389     156.164E-03     182.981E-03
             666            1390     181.935E-03     180.589E-03
             667            1351     163.352E-03     160.442E-03
             667            1352     168.196E-03     153.469E-03
             667            1390     181.935E-03     180.589E-03
             667            1391     184.363E-03     171.436E-03
             668            1352     168.196E-03     153.469E-03
             668            1353     145.065E-03     155.988E-03
             668            1391     184.363E-03     171.436E-03
             668            1392     156.966E-03     173.120E-03
             669            1353     145.065E-03     155.988E-03
             669            1354     142.903E-03     142.036E-03
             669            1392     156.966E-03     173.120E-03
             669            1393     155.654E-03     157.311E-03
             670            1354     142.903E-03     142.036E-03
             670            1355     136.990E-03     138.196E-03
             670            1393     155.654E-03     157.311E-03
             670            1394     148.282E-03     153.308E-03
             671            1355     136.990E-03     138.196E-03
             671            1356     131.320E-03     133.451E-03
             671            1394     148.282E-03     153.308E-03
             671            1395     141.770E-03     147.561E-03
             672            1356     131.320E-03     133.451E-03
             672            1357     127.839E-03     127.332E-03
             672            1395     141.770E-03     147.561E-03
             672            1396     138.099E-03     139.998E-03
             673            1357     127.839E-03     127.332E-03
             673            1358     121.586E-03     128.924E-03
             673            1396     138.099E-03     139.998E-03
             673            1397     129.863E-03     141.060E-03
             674            1358     121.586E-03     128.924E-03
             674            1359     128.648E-03     121.241E-03
             674            1397     129.863E-03     141.060E-03
             674            1398     139.163E-03     132.669E-03
             675            1359     128.648E-03     121.241E-03
             675            1360     120.257E-03     117.455E-03
             675            1398     139.163E-03     132.669E-03
             675            1399     132.624E-03     131.089E-03
             676            1360     120.257E-03     117.455E-03
             676            1361     101.643E-03     130.285E-03
             676            1399     132.624E-03     131.089E-03
             676            1400     112.800E-03     147.329E-03
             677            1361     101.643E-03     130.285E-03
             677            1362     121.599E-03     119.686E-03
             677            1400     112.800E-03     147.329E-03
             677            1401     135.314E-03     134.441E-03
             678            1362     121.599E-03     119.686E-03
             678            1363     124.333E-03     112.935E-03
             678            1401     135.314E-03     134.441E-03
             678            1402     136.388E-03     126.278E-03
             679            1363     124.333E-03     112.935E-03
             679            1364     105.344E-03     113.763E-03
             679            1402     136.388E-03     126.278E-03
             679            1403     114.177E-03     126.277E-03
             680            1364     105.344E-03     113.763E-03
             680            1365     102.262E-03     101.986E-03
             680            1403     114.177E-03     126.277E-03
             680            1404     111.461E-03     112.847E-03
             681            1365     102.262E-03     101.986E-03
             681            1366     96.6617E-03     97.0437E-03
             681            1404     111.461E-03     112.847E-03
             681            1405     104.751E-03     107.604E-03
             682            1366     96.6617E-03     97.0437E-03
             682            1367     89.7021E-03     92.2431E-03
             682            1405     104.751E-03     107.604E-03
             682            1406     96.9786E-03     101.737E-03
             683            1367     89.7021E-03     92.2431E-03
             683            1368     85.6925E-03     86.3796E-03
             683            1406     96.9786E-03     101.737E-03
             683            1407     92.2876E-03     95.0665E-03
             684            1368     85.6925E-03     86.3796E-03
             684            1369     81.2051E-03     81.4348E-03
             684            1407     92.2876E-03     95.0665E-03
             684            1408     86.9132E-03     88.8097E-03
             685            1369     81.2051E-03     81.4348E-03
             685            1370     75.5501E-03     79.9547E-03
             685            1408     86.9132E-03     88.8097E-03
             685            1409     79.9793E-03     86.3513E-03
             686            1370     75.5501E-03     79.9547E-03
             686            1371     77.3487E-03     74.0093E-03
             686            1409     79.9793E-03     86.3513E-03
             686            1410     82.6496E-03     79.6839E-03
             687            1371     77.3487E-03     74.0093E-03
             687            1372     71.2003E-03     69.6885E-03
             687            1410     82.6496E-03     79.6839E-03
             687            1411     77.5835E-03     76.6871E-03
             688            1372     71.2003E-03     69.6885E-03
             688            1373     60.2248E-03     76.9356E-03
             688            1411     77.5835E-03     76.6871E-03
             688            1412     66.0147E-03     86.3688E-03
             689            1373     60.2248E-03     76.9356E-03
             689            1374     71.4018E-03     70.4986E-03
             689            1412     66.0147E-03     86.3688E-03
             689            1413     79.1095E-03     78.8222E-03
             690            1374     71.4018E-03     70.4986E-03
             690            1375     71.5591E-03     64.1230E-03
             690            1413     79.1095E-03     78.8222E-03
             690            1414     78.3523E-03     71.6543E-03
             691            1375     71.5591E-03     64.1230E-03
             691            1376     57.9713E-03     62.9790E-03
             691            1414     78.3523E-03     71.6543E-03
             691            1415     62.2910E-03     69.5723E-03
             692            1376     57.9713E-03     62.9790E-03
             692            1377     54.1237E-03     53.7588E-03
             692            1415     62.2910E-03     69.5723E-03
             692            1416     58.1332E-03     58.5827E-03
             693            1377     54.1237E-03     53.7588E-03
             693            1378     48.7142E-03     48.7490E-03
             693            1416     58.1332E-03     58.5827E-03
             693            1417     51.3781E-03     52.7176E-03
             694            1378     48.7142E-03     48.7490E-03
             694            1379     42.6697E-03     43.6962E-03
             694            1417     51.3781E-03     52.7176E-03
             694            1418     44.1672E-03     46.3363E-03
             695            1379     42.6697E-03     43.6962E-03
             695            1380     38.1020E-03     38.1435E-03
             695            1418     44.1672E-03     46.3363E-03
             695            1419     38.6677E-03     39.3800E-03
             696            1380     38.1020E-03     38.1435E-03
             696            1381     33.0642E-03     34.2322E-03
             696            1419     38.6677E-03     39.3800E-03
             696            1420     32.2959E-03     34.0519E-03
             697            1381     33.0642E-03     34.2322E-03
             697            1382     29.4171E-03     30.1624E-03
             697            1420     32.2959E-03     34.0519E-03
             697            1421     28.2572E-03     28.7869E-03
             698            1382     29.4171E-03     30.1624E-03
             698            1383     25.8317E-03     25.5229E-03
             698            1421     28.2572E-03     28.7869E-03
             698            1422     24.5288E-03     24.2321E-03
             699            1383     25.8317E-03     25.5229E-03
             699            1384     21.5456E-03     25.7641E-03
             699            1422     24.5288E-03     24.2321E-03
             699            1423     19.4281E-03     25.7262E-03
             700            1384     21.5456E-03     25.7641E-03
             700            1385     22.6885E-03     22.8741E-03
             700            1423     19.4281E-03     25.7262E-03
             700            1424     21.2392E-03     21.7704E-03
             701            1385     22.6885E-03     22.8741E-03
             701            1386     21.1463E-03     18.3959E-03
             701            1424     21.2392E-03     21.7704E-03
             701            1425     18.6094E-03     15.1158E-03
             702            1386     21.1463E-03     18.3959E-03
             702            1387     15.4812E-03     17.5400E-03
             702            1425     18.6094E-03     15.1158E-03
             702            1426     8.64518E-03     12.0908E-03
             703            1387     15.4812E-03     17.5400E-03
             703            1388     14.1792E-03     14.9498E-03
             703            1426     8.64518E-03     12.0908E-03
             703            1427     5.87513E-03     8.04783E-03
             704             247     7.49175E-03     7.41743E-03
             704             248     3.59431E-03     4.12539E-03
             704            1388     14.1792E-03     14.9498E-03
             704            1427     5.87513E-03     8.04783E-03
             705             176     152.330E-03     177.760E-03
             705             177     162.523E-03     180.492E-03
             705            1389     156.164E-03     182.981E-03
             705            1428     171.352E-03     191.986E-03
             706            1389     156.164E-03     182.981E-03
             706            1390     181.935E-03     180.589E-03
             706            1428     171.352E-03     191.986E-03
             706            1429     196.820E-03     192.550E-03
             707            1390     181.935E-03     180.589E-03
             707            1391     184.363E-03     171.436E-03
             707            1429     196.820E-03     192.550E-03
             707            1430     192.008E-03     181.433E-03
             708            1391     184.363E-03     171.436E-03
             708            1392     156.966E-03     173.120E-03
             708            1430     192.008E-03     181.433E-03
             708            1431     167.857E-03     179.726E-03
             709            1392     156.966E-03     173.120E-03
             709            1393     155.654E-03     157.311E-03
             709            1431     167.857E-03     179.726E-03
             709            1432     166.157E-03     165.581E-03
             710            1393     155.654E-03     157.311E-03
             710            1394     148.282E-03     153.308E-03
             710            1432     166.157E-03     165.581E-03
             710            1433     158.051E-03     161.361E-03
             711            1394     148.282E-03     153.308E-03
             711            1395     141.770E-03     147.561E-03
             711            1433     158.051E-03     161.361E-03
             711            1434     151.488E-03     154.838E-03
             712            1395     141.770E-03     147.561E-03
             712            1396     138.099E-03     139.998E-03
             712            1434     151.488E-03     154.838E-03
             712            1435     146.452E-03     146.926E-03
             713            1396     138.099E-03     139.998E-03
             713            1397     129.863E-03     141.060E-03
             713            1435     146.452E-03     146.926E-03
             713            1436     137.162E-03     144.954E-03
             714            1397     129.863E-03     141.060E-03
             714            1398     139.163E-03     132.669E-03
             714            1436     137.162E-03     144.954E-03
             714            1437     141.167E-03     135.257E-03
             715            1398     139.163E-03     132.669E-03
             715            1399     132.624E-03     131.089E-03
             715            1437     141.167E-03     135.257E-03
             715            1438     135.188E-03     131.769E-03
             716            1399     132.624E-03     131.089E-03
             716            1400     112.800E-03     147.329E-03
             716            1438     135.188E-03     131.769E-03
             716            1439     125.555E-03     151.323E-03
             717            1400     112.800E-03     147.329E-03
             717            1401     135.314E-03     134.441E-03
             717            1439     125.555E-03     151.323E-03
             717            1440     147.776E-03     144.742E-03
             718            1401     135.314E-03     134.441E-03
             718            1402     136.388E-03     126.278E-03
             718            1440     147.776E-03     144.742E-03
             718            1441     142.726E-03     134.590E-03
             719            1402     136.388E-03     126.278E-03
             719            1403     114.177E-03     126.277E-03
             719            1441     142.726E-03     134.590E-03
             719            1442     122.501E-03     131.464E-03
             720            1403     114.177E-03     126.277E-03
             720            1404     111.461E-03     112.847E-03
             720            1442     122.501E-03     131.464E-03
             720            1443     119.415E-03     118.917E-03
             721            1404     111.461E-03     112.847E-03
             721            1405     104.751E-03     107.604E-03
             721            1443     119.415E-03     118.917E-03
             721            1444     111.735E-03     113.723E-03
             722            1405     104.751E-03     107.604E-03
             722            1406     96.9786E-03     101.737E-03
             722            1444     111.735E-03     113.723E-03
             722            1445     104.617E-03     107.007E-03
             723            1406     96.9786E-03     101.737E-03
             723            1407     92.2876E-03     95.0665E-03
             723            1445     104.617E-03     107.007E-03
             723            1446     98.6253E-03     100.314E-03
             724            1407     92.2876E-03     95.0665E-03
             724            1408     86.9132E-03     88.8097E-03
             724            1446     98.6253E-03     100.314E-03
             724            1447     92.4115E-03     93.1402E-03
             725            1408     86.9132E-03     88.8097E-03
             725            1409     79.9793E-03     86.3513E-03
             725            1447     92.4115E-03     93.1402E-03
             725            1448     84.2767E-03     88.5887E-03
             726            1409     79.9793E-03     86.3513E-03
             726            1410     82.6496E-03     79.6839E-03
             726            1448     84.2767E-03     88.5887E-03
             726            1449     82.9555E-03     80.0310E-03
             727            1410     82.6496E-03     79.6839E-03
             727            1411     77.5835E-03     76.6871E-03
             727            1449     82.9555E-03     80.0310E-03
             727            1450     76.8585E-03     74.8340E-03
             728            1411     77.5835E-03     76.6871E-03
             728            1412     66.0147E-03     86.3688E-03
             728            1450     76.8585E-03     74.8340E-03
             728            1451     73.6017E-03     88.7880E-03
             729            1412     66.0147E-03     86.3688E-03
             729            1413     79.1095E-03     78.8222E-03
             729            1451     73.6017E-03     88.7880E-03
             729            1452     89.0829E-03     87.5507E-03
             730            1413     79.1095E-03     78.8222E-03
             730            1414     78.3523E-03     71.6543E-03
             730            1452     89.0829E-03     87.5507E-03
             730            1453     83.5836E-03     78.4258E-03
             731            1414     78.3523E-03     71.6543E-03
             731            1415     62.2910E-03     69.5723E-03
             731            1453     83.5836E-03     78.4258E-03
             731            1454     67.9674E-03     73.5480E-03
             732            1415     62.2910E-03     69.5723E-03
             732            1416     58.1332E-03     58.5827E-03
             732            1454     67.9674E-03     73.5480E-03
             732            1455     63.2441E-03     62.6866E-03
             733            1416     58.1332E-03     58.5827E-03
             733            1417     51.3781E-03     52.7176E-03
             733            1455     63.2441E-03     62.6866E-03
             733            1456     55.5122E-03     56.6169E-03
             734            1417     51.3781E-03     52.7176E-03
             734            1418     44.1672E-03     46.3363E-03
             734            1456     55.5122E-03     56.6169E-03
             734            1457     48.3135E-03     49.4617E-03
             735            1418     44.1672E-03     46.3363E-03
             735            1419     38.6677E-03     39.3800E-03
             735            1457     48.3135E-03     49.4617E-03
             735            1458     41.6409E-03     42.2272E-03
             736            1419     38.6677E-03     39.3800E-03
             736            1420     32.2959E-03     34.0519E-03
             736            1458     41.6409E-03     42.2272E-03
             736            1459     34.3131E-03     35.4118E-03
             737            1420     32.2959E-03     34.0519E-03
             737            1421     28.2572E-03     28.7869E-03
             737            1459     34.3131E-03     35.4118E-03
             737            1460     27.6152E-03     27.9909E-03
             738            1421     28.2572E-03     28.7869E-03
             738            1422     24.5288E-03     24.2321E-03
             738            1460     27.6152E-03     27.9909E-03
             738            1461     20.9835E-03     20.6574E-03
             739            1422     24.5288E-03     24.2321E-03
             739            1423     19.4281E-03     25.7262E-03
             739            1461     20.9835E-03     20.6574E-03
             739            1462     21.9587E-03     26.9476E-03
             740            1423     19.4281E-03     25.7262E-03
             740            1424     21.2392E-03     21.7704E-03
             740            1462     21.9587E-03     26.9476E-03
             740            1463     28.8272E-03     29.2696E-03
             741            1424     21.2392E-03     21.7704E-03
             741            1425     18.6094E-03     15.1158E-03
             741            1463     28.8272E-03     29.2696E-03
             741            1464     23.0279E-03     20.4892E-03
             742            1425     18.6094E-03     15.1158E-03
             742            1426     8.64518E-03     12.0908E-03
             742            1464     23.0279E-03     20.4892E-03
             742            1465     12.4350E-03     15.2790E-03
             743            1426     8.64518E-03     12.0908E-03
             743            1427     5.87513E-03     8.04783E-03
             743            1465     12.4350E-03     15.2790E-03
             743            1466     9.72570E-03     12.0128E-03
             744             248     3.59431E-03     4.12539E-03
             744             249     5.23769E-03     6.74177E-03
             744            1427     5.87513E-03     8.04783E-03
             744            1466     9.72570E-03     12.0128E-03
             745              10     167.033E-03     177.784E-03
             745             177     162.523E-03     180.492E-03
             745             288     180.432E-03     194.664E-03
             745            1428     171.352E-03     191.986E-03
             746             287     203.609E-03     195.818E-03
             746             288     180.432E-03     194.664E-03
             746            1428     171.352E-03     191.986E-03
             746            1429     196.820E-03     192.550E-03
             747             286     193.398E-03     182.243E-03
             747             287     203.609E-03     195.818E-03
             747            1429     196.820E-03     192.550E-03
             747            1430     192.008E-03     181.433E-03
             748             285     173.811E-03     179.155E-03
             748             286     193.398E-03     182.243E-03
             748            1430     192.008E-03     181.433E-03
             748            1431     167.857E-03     179.726E-03
             749             284     170.802E-03     167.010E-03
             749             285     173.811E-03     179.155E-03
             749            1431     167.857E-03     179.726E-03
             749            1432     166.157E-03     165.581E-03
             750             283     162.913E-03     162.598E-03
             750             284     170.802E-03     167.010E-03
             750            1432     166.157E-03     165.581E-03
             750            1433     158.051E-03     161.361E-03
             751             282     156.551E-03     155.788E-03
             751             283     162.913E-03     162.598E-03
             751            1433     158.051E-03     161.361E-03
             751            1434     151.488E-03     154.838E-03
             752             281     150.396E-03     148.067E-03
             752             282     156.551E-03     155.788E-03
             752            1434     151.488E-03     154.838E-03
             752            1435     146.452E-03     146.926E-03
             753             280     141.554E-03     143.920E-03
             753             281     150.396E-03     148.067E-03
             753            1435     146.452E-03     146.926E-03
             753            1436     137.162E-03     144.954E-03
             754             279     140.453E-03     133.061E-03
             754             280     141.554E-03     143.920E-03
             754            1436     137.162E-03     144.954E-03
             754            1437     141.167E-03     135.257E-03
             755             278     133.743E-03     127.773E-03
             755             279     140.453E-03     133.061E-03
             755            1437     141.167E-03     135.257E-03
             755            1438     135.188E-03     131.769E-03
             756             277     133.813E-03     150.448E-03
             756             278     133.743E-03     127.773E-03
             756            1438     135.188E-03     131.769E-03
             756            1439     125.555E-03     151.323E-03
             757             276     153.966E-03     148.421E-03
             757             277     133.813E-03     150.448E-03
             757            1439     125.555E-03     151.323E-03
             757            1440     147.776E-03     144.742E-03
             758             275     144.134E-03     135.856E-03
             758             276     153.966E-03     148.421E-03
             758            1440     147.776E-03     144.742E-03
             758            1441     142.726E-03     134.590E-03
             759             274     127.011E-03     131.370E-03
             759             275     144.134E-03     135.856E-03
             759            1441     142.726E-03     134.590E-03
             759            1442     122.501E-03     131.464E-03
             760             273     122.994E-03     120.147E-03
             760             274     127.011E-03     131.370E-03
             760            1442     122.501E-03     131.464E-03
             760            1443     119.415E-03     118.917E-03
             761             272     115.159E-03     115.018E-03
             761             273     122.994E-03     120.147E-03
             761            1443     119.415E-03     118.917E-03
             761            1444     111.735E-03     113.723E-03
             762             271     108.660E-03     108.000E-03
             762             272     115.159E-03     115.018E-03
             762            1444     111.735E-03     113.723E-03
             762            1445     104.617E-03     107.007E-03
             763             270     101.996E-03     101.485E-03
             763             271     108.660E-03     108.000E-03
             763            1445     104.617E-03     107.007E-03
             763            1446     98.6253E-03     100.314E-03
             764             269     95.3867E-03     93.9932E-03
             764             270     101.996E-03     101.485E-03
             764            1446     98.6253E-03     100.314E-03
             764            1447     92.4115E-03     93.1402E-03
             765             268     87.0775E-03     88.1998E-03
             765             269     95.3867E-03     93.9932E-03
             765            1447     92.4115E-03     93.1402E-03
             765            1448     84.2767E-03     88.5887E-03
             766             267     82.3087E-03     78.2459E-03
             766             268     87.0775E-03     88.1998E-03
             766            1448     84.2767E-03     88.5887E-03
             766            1449     82.9555E-03     80.0310E-03
             767             266     74.3584E-03     70.8861E-03
             767             267     82.3087E-03     78.2459E-03
             767            1449     82.9555E-03     80.0310E-03
             767            1450     76.8585E-03     74.8340E-03
             768             265     78.6329E-03     88.4268E-03
             768             266     74.3584E-03     70.8861E-03
             768            1450     76.8585E-03     74.8340E-03
             768            1451     73.6017E-03     88.7880E-03
             769             264     94.8844E-03     91.9604E-03
             769             265     78.6329E-03     88.4268E-03
             769            1451     73.6017E-03     88.7880E-03
             769            1452     89.0829E-03     87.5507E-03
             770             263     85.4253E-03     80.6014E-03
             770             264     94.8844E-03     91.9604E-03
             770            1452     89.0829E-03     87.5507E-03
             770            1453     83.5836E-03     78.4258E-03
             771             262     71.3305E-03     74.3753E-03
             771             263     85.4253E-03     80.6014E-03
             771            1453     83.5836E-03     78.4258E-03
             771            1454     67.9674E-03     73.5480E-03
             772             261     65.9989E-03     64.2242E-03
             772             262     71.3305E-03     74.3753E-03
             772            1454     67.9674E-03     73.5480E-03
             772            1455     63.2441E-03     62.6866E-03
             773             260     58.0951E-03     58.1947E-03
             773             261     65.9989E-03     64.2242E-03
             773            1455     63.2441E-03     62.6866E-03
             773            1456     55.5122E-03     56.6169E-03
             774             259     51.2472E-03     50.8555E-03
             774             260     58.0951E-03     58.1947E-03
             774            1456     55.5122E-03     56.6169E-03
             774            1457     48.3135E-03     49.4617E-03
             775             258     44.0388E-03     43.8266E-03
             775             259     51.2472E-03     50.8555E-03
             775            1457     48.3135E-03     49.4617E-03
             775            1458     41.6409E-03     42.2272E-03
             776             257     36.5475E-03     36.4595E-03
             776             258     44.0388E-03     43.8266E-03
             776            1458     41.6409E-03     42.2272E-03
             776            1459     34.3131E-03     35.4118E-03
             777             256     27.9453E-03     28.0164E-03
             777             257     36.5475E-03     36.4595E-03
             777            1459     34.3131E-03     35.4118E-03
             777            1460     27.6152E-03     27.9909E-03
             778             255     18.2789E-03     17.9022E-03
             778             256     27.9453E-03     28.0164E-03
             778            1460     27.6152E-03     27.9909E-03
             778            1461     20.9835E-03     20.6574E-03
             779             254     24.5957E-03     27.7867E-03
             779             255     18.2789E-03     17.9022E-03
             779            1461     20.9835E-03     20.6574E-03
             779            1462     21.9587E-03     26.9476E-03
             780             253     35.5511E-03     35.6278E-03
             780             254     24.5957E-03     27.7867E-03
             780            1462     21.9587E-03     26.9476E-03
             780            1463     28.8272E-03     29.2696E-03
             781             252     27.5357E-03     25.9190E-03
             781             253     35.5511E-03     35.6278E-03
             781            1463     28.8272E-03     29.2696E-03
             781            1464     23.0279E-03     20.4892E-03
             782             251     19.2643E-03     20.8671E-03
             782             252     27.5357E-03     25.9190E-03
             782            1464     23.0279E-03     20.4892E-03
             782            1465     12.4350E-03     15.2790E-03
             783             250     17.3169E-03     18.7812E-03
             783             251     19.2643E-03     20.8671E-03
             783            1465     12.4350E-03     15.2790E-03
             783            1466     9.72570E-03     12.0128E-03
             784              15     8.47474E-03     10.3818E-03
             784             249     5.23769E-03     6.74177E-03
             784             250     17.3169E-03     18.7812E-03
             784            1466     9.72570E-03     12.0128E-03
            1757               2     17.2798E-03     17.1917E-03
            1757              31     972.131E-06     954.554E-06
            1757             423     15.8859E-03     15.8105E-03
            1757            2351     948.820E-06     932.450E-06
            1758              30     981.220E-06     967.898E-06
            1758              31     972.131E-06     954.554E-06
            1758            2351     948.820E-06     932.450E-06
            1758            2352     954.547E-06     940.972E-06
            1759              29     967.701E-06     961.468E-06
            1759              30     981.220E-06     967.898E-06
            1759            2352     954.547E-06     940.972E-06
            1759            2353     942.261E-06     936.124E-06
            1760               1     959.525E-06     954.172E-06
            1760              29     967.701E-06     961.468E-06
            1760             412     937.169E-06     930.208E-06
            1760            2353     942.261E-06     936.124E-06
            1761             422     13.6285E-03     13.5791E-03
            1761             423     15.8859E-03     15.8105E-03
            1761            2351     948.820E-06     932.450E-06
            1761            2354     875.229E-06     865.219E-06
            1762            2351     948.820E-06     932.450E-06
            1762            2352     954.547E-06     940.972E-06
            1762            2354     875.229E-06     865.219E-06
            1762            2355     881.947E-06     866.775E-06
            1763            2352     954.547E-06     940.972E-06
            1763            2353     942.261E-06     936.124E-06
            1763            2355     881.947E-06     866.775E-06
            1763            2356     863.268E-06     858.550E-06
            1764             412     937.169E-06     930.208E-06
            1764             413     855.693E-06     847.351E-06
            1764            2353     942.261E-06     936.124E-06
            1764            2356     863.268E-06     858.550E-06
            1765             421     10.6067E-03     10.6260E-03
            1765             422     13.6285E-03     13.5791E-03
            1765            2354     875.229E-06     865.219E-06
            1765            2357     766.296E-06     761.861E-06
            1766            2354     875.229E-06     865.219E-06
            1766            2355     881.947E-06     866.775E-06
            1766            2357     766.296E-06     761.861E-06
            1766            2358     765.812E-06     744.024E-06
            1767            2355     881.947E-06     866.775E-06
            1767            2356     863.268E-06     858.550E-06
            1767            2358     765.812E-06     744.024E-06
            1767            2359     737.197E-06     735.070E-06
            1768             413     855.693E-06     847.351E-06
            1768             414     732.260E-06     722.452E-06
            1768            2356     863.268E-06     858.550E-06
            1768            2359     737.197E-06     735.070E-06
            1769             420     6.84558E-03     7.13471E-03
            1769             421     10.6067E-03     10.6260E-03
            1769            2357     766.296E-06     761.861E-06
            1769            2360     622.556E-06     628.048E-06
            1770            2357     766.296E-06     761.861E-06
            1770            2358     765.812E-06     744.024E-06
            1770            2360     622.556E-06     628.048E-06
            1770            2361     615.380E-06     594.206E-06
            1771            2358     765.812E-06     744.024E-06
            1771            2359     737.197E-06     735.070E-06
            1771            2361     615.380E-06     594.206E-06
            1771            2362     566.707E-06     578.147E-06
            1772             414     732.260E-06     722.452E-06
            1772             415     559.539E-06     546.024E-06
            1772            2359     737.197E-06     735.070E-06
            1772            2362     566.707E-06     578.147E-06
            1773             419     2.94836E-03     4.15544E-03
            1773             420     6.84558E-03     7.13471E-03
            1773            2360     622.556E-06     628.048E-06
            1773            2363     474.731E-06     486.953E-06
            1774            2360     622.556E-06     628.048E-06
            1774            2361     615.380E-06     594.206E-06
            1774            2363     474.731E-06     486.953E-06
            1774            2364     454.108E-06     413.190E-06
            1775            2361     615.380E-06     594.206E-06
            1775            2362     566.707E-06     578.147E-06
            1775            2364     454.108E-06     413.190E-06
            1775            2365     361.985E-06     389.345E-06
            1776             415     559.539E-06     546.024E-06
            1776             416     364.182E-06     333.512E-06
            1776            2362     566.707E-06     578.147E-06
            1776            2365     361.985E-06     389.345E-06
            1777             418     3.58282E-03     5.56994E-03
            1777             419     2.94836E-03     4.15544E-03
            1777            2363     474.731E-06     486.953E-06
            1777            2366     520.211E-06     534.714E-06
            1778            2363     474.731E-06     486.953E-06
            1778            2364     454.108E-06     413.190E-06
            1778            2366     520.211E-06     534.714E-06
            1778            2367     400.847E-06     341.408E-06
            1779            2364     454.108E-06     413.190E-06
            1779            2365     361.985E-06     389.345E-06
            1779            2367     400.847E-06     341.408E-06
            1779            2368     245.695E-06     324.588E-06
            1780             416     364.182E-06     333.512E-06
            1780             417     253.097E-06     310.833E-06
            1780            2365     361.985E-06     389.345E-06
            1780            2368     245.695E-06     324.588E-06
            1781              17     6.03678E-03     8.10973E-03
            1781             306     628.428E-06     647.988E-06
            1781             418     3.58282E-03     5.56994E-03
            1781            2366     520.211E-06     534.714E-06
            1782             306     628.428E-06     647.988E-06
            1782             307     428.634E-06     376.302E-06
            1782            2366     520.211E-06     534.714E-06
            1782            2367     400.847E-06     341.408E-06
            1783             307     428.634E-06     376.302E-06
            1783             308     236.155E-06     362.961E-06
            1783            2367     400.847E-06     341.408E-06
            1783            2368     245.695E-06     324.588E-06
            1784              18     228.961E-06     390.242E-06
            1784             308     236.155E-06     362.961E-06
            1784             417     253.097E-06     310.833E-06
            1784            2368     245.695E-06     324.588E-06
            2343               7     77.4734E-03     81.1887E-03
            2343             155     104.018E-03     102.632E-03
            2343             530     100.252E-03     106.363E-03
            2343            2836     126.484E-03     124.368E-03
            2344             154     104.810E-03     105.638E-03
            2344             155     104.018E-03     102.632E-03
            2344            2836     126.484E-03     124.368E-03
            2344            2837     129.701E-03     132.041E-03
            2345             153     102.929E-03     106.313E-03
            2345             154     104.810E-03     105.638E-03
            2345            2837     129.701E-03     132.041E-03
            2345            2838     131.884E-03     132.956E-03
            2346             152     104.624E-03     108.146E-03
            2346             153     102.929E-03     106.313E-03
            2346            2838     131.884E-03     132.956E-03
            2346            2839     135.860E-03     138.960E-03
            2347             151     94.8957E-03     99.6971E-03
            2347             152     104.624E-03     108.146E-03
            2347            2839     135.860E-03     138.960E-03
            2347            2840     121.385E-03     126.217E-03
            2348               5     61.4291E-03     66.1281E-03
            2348             151     94.8957E-03     99.6971E-03
            2348             514     84.3119E-03     90.5366E-03
            2348            2840     121.385E-03     126.217E-03
            2349             529     129.332E-03     140.100E-03
            2349             530     100.252E-03     106.363E-03
            2349            2836     126.484E-03     124.368E-03
            2349            2841     156.875E-03     153.643E-03
            2350            2836     126.484E-03     124.368E-03
            2350            2837     129.701E-03     132.041E-03
            2350            2841     156.875E-03     153.643E-03
            2350            2842     162.218E-03     165.033E-03
            2351            2837     129.701E-03     132.041E-03
            2351            2838     131.884E-03     132.956E-03
            2351            2842     162.218E-03     165.033E-03
            2351            2843     168.159E-03     165.693E-03
            2352            2838     131.884E-03     132.956E-03
            2352            2839     135.860E-03     138.960E-03
            2352            2843     168.159E-03     165.693E-03
            2352            2844     170.292E-03     172.175E-03
            2353            2839     135.860E-03     138.960E-03
            2353            2840     121.385E-03     126.217E-03
            2353            2844     170.292E-03     172.175E-03
            2353            2845     146.574E-03     157.076E-03
            2354             514     84.3119E-03     90.5366E-03
            2354             515     109.746E-03     119.936E-03
            2354            2840     121.385E-03     126.217E-03
            2354            2845     146.574E-03     157.076E-03
            2355             528     158.818E-03     175.307E-03
            2355             529     129.332E-03     140.100E-03
            2355            2841     156.875E-03     153.643E-03
            2355            2846     190.588E-03     184.343E-03
            2356            2841     156.875E-03     153.643E-03
            2356            2842     162.218E-03     165.033E-03
            2356            2846     190.588E-03     184.343E-03
            2356            2847     196.815E-03     197.237E-03
            2357            2842     162.218E-03     165.033E-03
            2357            2843     168.159E-03     165.693E-03
            2357            2847     196.815E-03     197.237E-03
            2357            2848     200.856E-03     197.979E-03
            2358            2843     168.159E-03     165.693E-03
            2358            2844     170.292E-03     172.175E-03
            2358            2848     200.856E-03     197.979E-03
            2358            2849     197.735E-03     199.361E-03
            2359            2844     170.292E-03     172.175E-03
            2359            2845     146.574E-03     157.076E-03
            2359            2849     197.735E-03     199.361E-03
            2359            2850     169.583E-03     183.040E-03
            2360             515     109.746E-03     119.936E-03
            2360             516     135.548E-03     150.669E-03
            2360            2845     146.574E-03     157.076E-03
            2360            2850     169.583E-03     183.040E-03
            2361             527     185.061E-03     211.285E-03
            2361             528     158.818E-03     175.307E-03
            2361            2846     190.588E-03     184.343E-03
            2361            2851     218.969E-03     208.841E-03
            2362            2846     190.588E-03     184.343E-03
            2362            2847     196.815E-03     197.237E-03
            2362            2851     218.969E-03     208.841E-03
            2362            2852     225.230E-03     220.787E-03
            2363            2847     196.815E-03     197.237E-03
            2363            2848     200.856E-03     197.979E-03
            2363            2852     225.230E-03     220.787E-03
            2363            2853     226.098E-03     222.936E-03
            2364            2848     200.856E-03     197.979E-03
            2364            2849     197.735E-03     199.361E-03
            2364            2853     226.098E-03     222.936E-03
            2364            2854     220.887E-03     224.265E-03
            2365            2849     197.735E-03     199.361E-03
            2365            2850     169.583E-03     183.040E-03
            2365            2854     220.887E-03     224.265E-03
            2365            2855     189.531E-03     207.631E-03
            2366             516     135.548E-03     150.669E-03
            2366             517     156.885E-03     178.781E-03
            2366            2850     169.583E-03     183.040E-03
            2366            2855     189.531E-03     207.631E-03
            2367             526     207.631E-03     242.062E-03
            2367             527     185.061E-03     211.285E-03
            2367            2851     218.969E-03     208.841E-03
            2367            2856     231.782E-03     225.840E-03
            2368            2851     218.969E-03     208.841E-03
            2368            2852     225.230E-03     220.787E-03
            2368            2856     231.782E-03     225.840E-03
            2368            2857     239.437E-03     236.632E-03
            2369            2852     225.230E-03     220.787E-03
            2369            2853     226.098E-03     222.936E-03
            2369            2857     239.437E-03     236.632E-03
            2369            2858     244.093E-03     242.628E-03
            2370            2853     226.098E-03     222.936E-03
            2370            2854     220.887E-03     224.265E-03
            2370            2858     244.093E-03     242.628E-03
            2370            2859     245.785E-03     245.647E-03
            2371            2854     220.887E-03     224.265E-03
            2371            2855     189.531E-03     207.631E-03
            2371            2859     245.785E-03     245.647E-03
            2371            2860     208.357E-03     226.856E-03
            2372             517     156.885E-03     178.781E-03
            2372             518     172.380E-03     198.640E-03
            2372            2855     189.531E-03     207.631E-03
            2372            2860     208.357E-03     226.856E-03
            2373             525     229.028E-03     259.687E-03
            2373             526     207.631E-03     242.062E-03
            2373            2856     231.782E-03     225.840E-03
            2373            2861     230.094E-03     232.733E-03
            2374            2856     231.782E-03     225.840E-03
            2374            2857     239.437E-03     236.632E-03
            2374            2861     230.094E-03     232.733E-03
            2374            2862     241.299E-03     240.379E-03
            2375            2857     239.437E-03     236.632E-03
            2375            2858     244.093E-03     242.628E-03
            2375            2862     241.299E-03     240.379E-03
            2375            2863     253.757E-03     251.131E-03
            2376            2858     244.093E-03     242.628E-03
            2376            2859     245.785E-03     245.647E-03
            2376            2863     253.757E-03     251.131E-03
            2376            2864     265.393E-03     256.313E-03
            2377            2859     245.785E-03     245.647E-03
            2377            2860     208.357E-03     226.856E-03
            2377            2864     265.393E-03     256.313E-03
            2377            2865     223.717E-03     233.737E-03
            2378             518     172.380E-03     198.640E-03
            2378             519     186.713E-03     206.952E-03
            2378            2860     208.357E-03     226.856E-03
            2378            2865     223.717E-03     233.737E-03
            2379              22     239.521E-03     264.647E-03
            2379             524     226.506E-03     232.164E-03
            2379             525     229.028E-03     259.687E-03
            2379            2861     230.094E-03     232.733E-03
            2380             523     240.351E-03     237.017E-03
            2380             524     226.506E-03     232.164E-03
            2380            2861     230.094E-03     232.733E-03
            2380            2862     241.299E-03     240.379E-03
            2381             522     256.382E-03     250.389E-03
            2381             523     240.351E-03     237.017E-03
            2381            2862     241.299E-03     240.379E-03
            2381            2863     253.757E-03     251.131E-03
            2382             521     271.497E-03     258.349E-03
            2382             522     256.382E-03     250.389E-03
            2382            2863     253.757E-03     251.131E-03
            2382            2864     265.393E-03     256.313E-03
            2383             520     229.521E-03     233.893E-03
            2383             521     271.497E-03     258.349E-03
            2383            2864     265.393E-03     256.313E-03
            2383            2865     223.717E-03     233.737E-03
            2384              21     194.926E-03     208.730E-03
            2384             519     186.713E-03     206.952E-03
            2384             520     229.521E-03     233.893E-03
            2384            2865     223.717E-03     233.737E-03
            3501               5     61.4291E-03     66.1281E-03
            3501              95     43.7941E-03     42.0525E-03
            3501             514     84.3119E-03     90.5366E-03
            3501            3869     74.0880E-03     71.3676E-03
            3502              94     44.8935E-03     44.0554E-03
            3502              95     43.7941E-03     42.0525E-03
            3502            3869     74.0880E-03     71.3676E-03
            3502            3870     77.3793E-03     73.3436E-03
            3503              93     41.2874E-03     44.3566E-03
            3503              94     44.8935E-03     44.0554E-03
            3503            3870     77.3793E-03     73.3436E-03
            3503            3871     70.8264E-03     75.6389E-03
            3504              92     42.1497E-03     42.4735E-03
            3504              93     41.2874E-03     44.3566E-03
            3504            3871     70.8264E-03     75.6389E-03
            3504            3872     71.7529E-03     72.1364E-03
            3505              91     42.0220E-03     42.1110E-03
            3505              92     42.1497E-03     42.4735E-03
            3505            3872     71.7529E-03     72.1364E-03
            3505            3873     70.6682E-03     71.1736E-03
            3506              90     41.4713E-03     41.1406E-03
            3506              91     42.0220E-03     42.1110E-03
            3506            3873     70.6682E-03     71.1736E-03
            3506            3874     68.3978E-03     68.7573E-03
            3507              89     41.0725E-03     40.6643E-03
            3507              90     41.4713E-03     41.1406E-03
            3507            3874     68.3978E-03     68.7573E-03
            3507            3875     65.4069E-03     67.5899E-03
            3508              88     41.0147E-03     38.7173E-03
            3508              89     41.0725E-03     40.6643E-03
            3508            3875     65.4069E-03     67.5899E-03
            3508            3876     66.1440E-03     62.8956E-03
            3509              87     39.2000E-03     38.8785E-03
            3509              88     41.0147E-03     38.7173E-03
            3509            3876     66.1440E-03     62.8956E-03
            3509            3877     61.4881E-03     59.3534E-03
            3510              86     36.8001E-03     39.9666E-03
            3510              87     39.2000E-03     38.8785E-03
            3510            3877     61.4881E-03     59.3534E-03
            3510            3878     54.4593E-03     62.4838E-03
            3511              85     40.5869E-03     39.0700E-03
            3511              86     36.8001E-03     39.9666E-03
            3511            3878     54.4593E-03     62.4838E-03
            3511            3879     63.3528E-03     60.9800E-03
            3512              84     41.2759E-03     40.9489E-03
            3512              85     40.5869E-03     39.0700E-03
            3512            3879     63.3528E-03     60.9800E-03
            3512            3880     65.6567E-03     62.3554E-03
            3513              83     38.1867E-03     41.0183E-03
            3513              84     41.2759E-03     40.9489E-03
            3513            3880     65.6567E-03     62.3554E-03
            3513            3881     59.8969E-03     63.8533E-03
            3514              82     38.8298E-03     39.3739E-03
            3514              83     38.1867E-03     41.0183E-03
            3514            3881     59.8969E-03     63.8533E-03
            3514            3882     60.5450E-03     60.4677E-03
            3515              81     38.5562E-03     39.0575E-03
            3515              82     38.8298E-03     39.3739E-03
            3515            3882     60.5450E-03     60.4677E-03
            3515            3883     59.1599E-03     59.6711E-03
            3516              80     38.2199E-03     38.0150E-03
            3516              81     38.5562E-03     39.0575E-03
            3516            3883     59.1599E-03     59.6711E-03
            3516            3884     57.3250E-03     57.7996E-03
            3517              79     38.0184E-03     37.0166E-03
            3517              80     38.2199E-03     38.0150E-03
            3517            3884     57.3250E-03     57.7996E-03
            3517            3885     55.7012E-03     55.1372E-03
            3518              78     37.4740E-03     36.5426E-03
            3518              79     38.0184E-03     37.0166E-03
            3518            3885     55.7012E-03     55.1372E-03
            3518            3886     52.9299E-03     53.9677E-03
            3519              77     37.1022E-03     35.0855E-03
            3519              78     37.4740E-03     36.5426E-03
            3519            3886     52.9299E-03     53.9677E-03
            3519            3887     52.6679E-03     50.1854E-03
            3520              76     35.7234E-03     35.3472E-03
            3520              77     37.1022E-03     35.0855E-03
            3520            3887     52.6679E-03     50.1854E-03
            3520            3888     49.1822E-03     47.4765E-03
            3521              75     34.5585E-03     36.3140E-03
            3521              76     35.7234E-03     35.3472E-03
            3521            3888     49.1822E-03     47.4765E-03
            3521            3889     44.8204E-03     50.1672E-03
            3522              74     37.4026E-03     36.1274E-03
            3522              75     34.5585E-03     36.3140E-03
            3522            3889     44.8204E-03     50.1672E-03
            3522            3890     51.4781E-03     49.6854E-03
            3523              73     37.7411E-03     37.6389E-03
            3523              74     37.4026E-03     36.1274E-03
            3523            3890     51.4781E-03     49.6854E-03
            3523            3891     52.7201E-03     50.4102E-03
            3524              72     35.4100E-03     37.4731E-03
            3524              73     37.7411E-03     37.6389E-03
            3524            3891     52.7201E-03     50.4102E-03
            3524            3892     48.0416E-03     50.9796E-03
            3525              71     35.8133E-03     36.2260E-03
            3525              72     35.4100E-03     37.4731E-03
            3525            3892     48.0416E-03     50.9796E-03
            3525            3893     48.1290E-03     48.0990E-03
            3526              70     35.5883E-03     35.9023E-03
            3526              71     35.8133E-03     36.2260E-03
            3526            3893     48.1290E-03     48.0990E-03
            3526            3894     46.7783E-03     47.0723E-03
            3527              69     35.3013E-03     35.0625E-03
            3527              70     35.5883E-03     35.9023E-03
            3527            3894     46.7783E-03     47.0723E-03
            3527            3895     45.0705E-03     45.3407E-03
            3528              68     35.1395E-03     34.3321E-03
            3528              69     35.3013E-03     35.0625E-03
            3528            3895     45.0705E-03     45.3407E-03
            3528            3896     43.6310E-03     43.1673E-03
            3529              67     34.8054E-03     33.8655E-03
            3529              68     35.1395E-03     34.3321E-03
            3529            3896     43.6310E-03     43.1673E-03
            3529            3897     41.6305E-03     41.8081E-03
            3530              66     34.3394E-03     32.9795E-03
            3530              67     34.8054E-03     33.8655E-03
            3530            3897     41.6305E-03     41.8081E-03
            3530            3898     40.6739E-03     39.2416E-03
            3531              65     33.5079E-03     33.1999E-03
            3531              66     34.3394E-03     32.9795E-03
            3531            3898     40.6739E-03     39.2416E-03
            3531            3899     38.4603E-03     37.4148E-03
            3532              64     33.3879E-03     33.9751E-03
            3532              65     33.5079E-03     33.1999E-03
            3532            3899     38.4603E-03     37.4148E-03
            3532            3900     36.7327E-03     39.3741E-03
            3533              63     35.3798E-03     34.3880E-03
            3533              64     33.3879E-03     33.9751E-03
            3533            3900     36.7327E-03     39.3741E-03
            3533            3901     40.9515E-03     39.7692E-03
            3534              62     35.4618E-03     35.4289E-03
            3534              63     35.3798E-03     34.3880E-03
            3534            3901     40.9515E-03     39.7692E-03
            3534            3902     41.2467E-03     39.8851E-03
            3535              61     33.9645E-03     35.1395E-03
            3535              62     35.4618E-03     35.4289E-03
            3535            3902     41.2467E-03     39.8851E-03
            3535            3903     37.9579E-03     39.6877E-03
            3536              60     34.1568E-03     34.3447E-03
            3536              61     33.9645E-03     35.1395E-03
            3536            3903     37.9579E-03     39.6877E-03
            3536            3904     37.6206E-03     37.5789E-03
            3537              59     34.0007E-03     34.0967E-03
            3537              60     34.1568E-03     34.3447E-03
            3537            3904     37.6206E-03     37.5789E-03
            3537            3905     36.5042E-03     36.5779E-03
            3538              58     33.8173E-03     33.5818E-03
            3538              59     34.0007E-03     34.0967E-03
            3538            3905     36.5042E-03     36.5779E-03
            3538            3906     35.2146E-03     35.2939E-03
            3539              57     33.7372E-03     33.1889E-03
            3539              58     33.8173E-03     33.5818E-03
            3539            3906     35.2146E-03     35.2939E-03
            3539            3907     34.2357E-03     33.9145E-03
            3540              56     33.5870E-03     32.9294E-03
            3540              57     33.7372E-03     33.1889E-03
            3540            3907     34.2357E-03     33.9145E-03
            3540            3908     33.2097E-03     32.8578E-03
            3541              55     33.3640E-03     32.6212E-03
            3541              56     33.5870E-03     32.9294E-03
            3541            3908     33.2097E-03     32.8578E-03
            3541            3909     32.2856E-03     31.7492E-03
            3542              54     33.0182E-03     32.6519E-03
            3542              55     33.3640E-03     32.6212E-03
            3542            3909     32.2856E-03     31.7492E-03
            3542            3910     31.4434E-03     30.9721E-03
            3543              53     33.2312E-03     33.0519E-03
            3543              54     33.0182E-03     32.6519E-03
            3543            3910     31.4434E-03     30.9721E-03
            3543            3911     31.3841E-03     31.7141E-03
            3544              52     34.2444E-03     33.5642E-03
            3544              53     33.2312E-03     33.0519E-03
            3544            3911     31.3841E-03     31.7141E-03
            3544            3912     32.7476E-03     32.2907E-03
            3545              51     34.3285E-03     34.0385E-03
            3545              52     34.2444E-03     33.5642E-03
            3545            3912     32.7476E-03     32.2907E-03
            3545            3913     32.6261E-03     32.1443E-03
            3546              50     33.7999E-03     33.8940E-03
            3546              51     34.3285E-03     34.0385E-03
            3546            3913     32.6261E-03     32.1443E-03
            3546            3914     31.5259E-03     31.7931E-03
            3547              49     33.8630E-03     33.7517E-03
            3547              50     33.7999E-03     33.8940E-03
            3547            3914     31.5259E-03     31.7931E-03
            3547            3915     31.3818E-03     31.1920E-03
            3548              48     33.9502E-03     33.7769E-03
            3548              49     33.8630E-03     33.7517E-03
            3548            3915     31.3818E-03     31.1920E-03
            3548            3916     31.2201E-03     31.0200E-03
            3549              47     33.8101E-03     33.5517E-03
            3549              48     33.9502E-03     33.7769E-03
            3549            3916     31.2201E-03     31.0200E-03
            3549            3917     31.0100E-03     30.8116E-03
            3550               2     17.2798E-03     17.1917E-03
            3550              47     33.8101E-03     33.5517E-03
            3550             423     15.8859E-03     15.8105E-03
            3550            3917     31.0100E-03     30.8116E-03
            3551             514     84.3119E-03     90.5366E-03
            3551             515     109.746E-03     119.936E-03
            3551            3869     74.0880E-03     71.3676E-03
            3551            3918     107.022E-03     103.028E-03
            3552            3869     74.0880E-03     71.3676E-03
            3552            3870     77.3793E-03     73.3436E-03
            3552            3918     107.022E-03     103.028E-03
            3552            3919     112.357E-03     104.916E-03
            3553            3870     77.3793E-03     73.3436E-03
            3553            3871     70.8264E-03     75.6389E-03
            3553            3919     112.357E-03     104.916E-03
            3553            3920     102.341E-03     108.431E-03
            3554            3871     70.8264E-03     75.6389E-03
            3554            3872     71.7529E-03     72.1364E-03
            3554            3920     102.341E-03     108.431E-03
            3554            3921     103.070E-03     102.397E-03
            3555            3872     71.7529E-03     72.1364E-03
            3555            3873     70.6682E-03     71.1736E-03
            3555            3921     103.070E-03     102.397E-03
            3555            3922     101.231E-03     100.776E-03
            3556            3873     70.6682E-03     71.1736E-03
            3556            3874     68.3978E-03     68.7573E-03
            3556            3922     101.231E-03     100.776E-03
            3556            3923     97.5911E-03     97.6741E-03
            3557            3874     68.3978E-03     68.7573E-03
            3557            3875     65.4069E-03     67.5899E-03
            3557            3923     97.5911E-03     97.6741E-03
            3557            3924     92.8193E-03     97.0166E-03
            3558            3875     65.4069E-03     67.5899E-03
            3558            3876     66.1440E-03     62.8956E-03
            3558            3924     92.8193E-03     97.0166E-03
            3558            3925     94.8694E-03     90.1280E-03
            3559            3876     66.1440E-03     62.8956E-03
            3559            3877     61.4881E-03     59.3534E-03
            3559            3925     94.8694E-03     90.1280E-03
            3559            3926     87.6112E-03     84.0504E-03
            3560            3877     61.4881E-03     59.3534E-03
            3560            3878     54.4593E-03     62.4838E-03
            3560            3926     87.6112E-03     84.0504E-03
            3560            3927     75.8929E-03     89.4682E-03
            3561            3878     54.4593E-03     62.4838E-03
            3561            3879     63.3528E-03     60.9800E-03
            3561            3927     75.8929E-03     89.4682E-03
            3561            3928     89.7328E-03     86.3425E-03
            3562            3879     63.3528E-03     60.9800E-03
            3562            3880     65.6567E-03     62.3554E-03
            3562            3928     89.7328E-03     86.3425E-03
            3562            3929     93.6211E-03     87.1880E-03
            3563            3880     65.6567E-03     62.3554E-03
            3563            3881     59.8969E-03     63.8533E-03
            3563            3929     93.6211E-03     87.1880E-03
            3563            3930     84.5748E-03     89.5152E-03
            3564            3881     59.8969E-03     63.8533E-03
            3564            3882     60.5450E-03     60.4677E-03
            3564            3930     84.5748E-03     89.5152E-03
            3564            3931     84.8839E-03     83.5277E-03
            3565            3882     60.5450E-03     60.4677E-03
            3565            3883     59.1599E-03     59.6711E-03
            3565            3931     84.8839E-03     83.5277E-03
            3565            3932     82.2327E-03     82.0168E-03
            3566            3883     59.1599E-03     59.6711E-03
            3566            3884     57.3250E-03     57.7996E-03
            3566            3932     82.2327E-03     82.0168E-03
            3566            3933     79.1418E-03     79.5113E-03
            3567            3884     57.3250E-03     57.7996E-03
            3567            3885     55.7012E-03     55.1372E-03
            3567            3933     79.1418E-03     79.5113E-03
            3567            3934     76.5808E-03     75.9251E-03
            3568            3885     55.7012E-03     55.1372E-03
            3568            3886     52.9299E-03     53.9677E-03
            3568            3934     76.5808E-03     75.9251E-03
            3568            3935     71.9949E-03     75.0198E-03
            3569            3886     52.9299E-03     53.9677E-03
            3569            3887     52.6679E-03     50.1854E-03
            3569            3935     71.9949E-03     75.0198E-03
            3569            3936     72.5094E-03     69.2501E-03
            3570            3887     52.6679E-03     50.1854E-03
            3570            3888     49.1822E-03     47.4765E-03
            3570            3936     72.5094E-03     69.2501E-03
            3570            3937     66.8984E-03     64.1731E-03
            3571            3888     49.1822E-03     47.4765E-03
            3571            3889     44.8204E-03     50.1672E-03
            3571            3937     66.8984E-03     64.1731E-03
            3571            3938     58.8334E-03     68.6256E-03
            3572            3889     44.8204E-03     50.1672E-03
            3572            3890     51.4781E-03     49.6854E-03
            3572            3938     58.8334E-03     68.6256E-03
            3572            3939     69.3088E-03     66.8216E-03
            3573            3890     51.4781E-03     49.6854E-03
            3573            3891     52.7201E-03     50.4102E-03
            3573            3939     69.3088E-03     66.8216E-03
            3573            3940     71.6216E-03     66.6908E-03
            3574            3891     52.7201E-03     50.4102E-03
            3574            3892     48.0416E-03     50.9796E-03
            3574            3940     71.6216E-03     66.6908E-03
            3574            3941     64.0078E-03     67.6504E-03
            3575            3892     48.0416E-03     50.9796E-03
            3575            3893     48.1290E-03     48.0990E-03
            3575            3941     64.0078E-03     67.6504E-03
            3575            3942     63.4815E-03     62.4365E-03
            3576            3893     48.1290E-03     48.0990E-03
            3576            3894     46.7783E-03     47.0723E-03
            3576            3942     63.4815E-03     62.4365E-03
            3576            3943     60.8062E-03     60.5808E-03
            3577            3894     46.7783E-03     47.0723E-03
            3577            3895     45.0705E-03     45.3407E-03
            3577            3943     60.8062E-03     60.5808E-03
            3577            3944     57.6946E-03     58.0719E-03
            3578            3895     45.0705E-03     45.3407E-03
            3578            3896     43.6310E-03     43.1673E-03
            3578            3944     57.6946E-03     58.0719E-03
            3578            3945     55.1357E-03     54.8299E-03
            3579            3896     43.6310E-03     43.1673E-03
            3579            3897     41.6305E-03     41.8081E-03
            3579            3945     55.1357E-03     54.8299E-03
            3579            3946     51.4093E-03     53.0871E-03
            3580            3897     41.6305E-03     41.8081E-03
            3580            3898     40.6739E-03     39.2416E-03
            3580            3946     51.4093E-03     53.0871E-03
            3580            3947     50.3682E-03     48.7657E-03
            3581            3898     40.6739E-03     39.2416E-03
            3581            3899     38.4603E-03     37.4148E-03
            3581            3947     50.3682E-03     48.7657E-03
            3581            3948     46.4836E-03     44.7844E-03
            3582            3899     38.4603E-03     37.4148E-03
            3582            3900     36.7327E-03     39.3741E-03
            3582            3948     46.4836E-03     44.7844E-03
            3582            3949     42.3671E-03     48.0019E-03
            3583            3900     36.7327E-03     39.3741E-03
            3583            3901     40.9515E-03     39.7692E-03
            3583            3949     42.3671E-03     48.0019E-03
            3583            3950     49.1129E-03     47.6014E-03
            3584            3901     40.9515E-03     39.7692E-03
            3584            3902     41.2467E-03     39.8851E-03
            3584            3950     49.1129E-03     47.6014E-03
            3584            3951     49.8486E-03     46.5753E-03
            3585            3902     41.2467E-03     39.8851E-03
            3585            3903     37.9579E-03     39.6877E-03
            3585            3951     49.8486E-03     46.5753E-03
            3585            3952     44.0512E-03     46.2414E-03
            3586            3903     37.9579E-03     39.6877E-03
            3586            3904     37.6206E-03     37.5789E-03
            3586            3952     44.0512E-03     46.2414E-03
            3586            3953     42.8352E-03     42.1684E-03
            3587            3904     37.6206E-03     37.5789E-03
            3587            3905     36.5042E-03     36.5779E-03
            3587            3953     42.8352E-03     42.1684E-03
            3587            3954     40.4186E-03     40.2417E-03
            3588            3905     36.5042E-03     36.5779E-03
            3588            3906     35.2146E-03     35.2939E-03
            3588            3954     40.4186E-03     40.2417E-03
            3588            3955     37.6825E-03     38.0634E-03
            3589            3906     35.2146E-03     35.2939E-03
            3589            3907     34.2357E-03     33.9145E-03
            3589            3955     37.6825E-03     38.0634E-03
            3589            3956     35.5337E-03     35.5743E-03
            3590            3907     34.2357E-03     33.9145E-03
            3590            3908     33.2097E-03     32.8578E-03
            3590            3956     35.5337E-03     35.5743E-03
            3590            3957     33.1422E-03     33.5235E-03
            3591            3908     33.2097E-03     32.8578E-03
            3591            3909     32.2856E-03     31.7492E-03
            3591            3957     33.1422E-03     33.5235E-03
            3591            3958     31.2992E-03     31.1990E-03
            3592            3909     32.2856E-03     31.7492E-03
            3592            3910     31.4434E-03     30.9721E-03
            3592            3958     31.2992E-03     31.1990E-03
            3592            3959     29.5735E-03     29.0157E-03
            3593            3910     31.4434E-03     30.9721E-03
            3593            3911     31.3841E-03     31.7141E-03
            3593            3959     29.5735E-03     29.0157E-03
            3593            3960     28.8062E-03     30.0573E-03
            3594            3911     31.3841E-03     31.7141E-03
            3594            3912     32.7476E-03     32.2907E-03
            3594            3960     28.8062E-03     30.0573E-03
            3594            3961     30.7507E-03     30.4724E-03
            3595            3912     32.7476E-03     32.2907E-03
            3595            3913     32.6261E-03     32.1443E-03
            3595            3961     30.7507E-03     30.4724E-03
            3595            3962     30.4206E-03     29.4812E-03
            3596            3913     32.6261E-03     32.1443E-03
            3596            3914     31.5259E-03     31.7931E-03
            3596            3962     30.4206E-03     29.4812E-03
            3596            3963     28.1075E-03     28.7175E-03
            3597            3914     31.5259E-03     31.7931E-03
            3597            3915     31.3818E-03     31.1920E-03
            3597            3963     28.1075E-03     28.7175E-03
            3597            3964     27.4480E-03     27.2437E-03
            3598            3915     31.3818E-03     31.1920E-03
            3598            3916     31.2201E-03     31.0200E-03
            3598            3964     27.4480E-03     27.2437E-03
            3598            3965     26.9326E-03     26.7737E-03
            3599            3916     31.2201E-03     31.0200E-03
            3599            3917     31.0100E-03     30.8116E-03
            3599            3965     26.9326E-03     26.7737E-03
            3599            3966     26.5477E-03     26.4460E-03
            3600             422     13.6285E-03     13.5791E-03
            3600             423     15.8859E-03     15.8105E-03
            3600            3917     31.0100E-03     30.8116E-03
            3600            3966     26.5477E-03     26.4460E-03
            3601             515     109.746E-03     119.936E-03
            3601             516     135.548E-03     150.669E-03
            3601            3918     107.022E-03     103.028E-03
            3601            3967     138.464E-03     134.042E-03
            3602            3918     107.022E-03     103.028E-03
            3602            3919     112.357E-03     104.916E-03
            3602            3967     138.464E-03     134.042E-03
            3602            3968     144.691E-03     133.479E-03
            3603            3919     112.357E-03     104.916E-03
            3603            3920     102.341E-03     108.431E-03
            3603            3968     144.691E-03     133.479E-03
            3603            3969     129.319E-03     136.244E-03
            3604            3920     102.341E-03     108.431E-03
            3604            3921     103.070E-03     102.397E-03
            3604            3969     129.319E-03     136.244E-03
            3604            3970     129.030E-03     127.107E-03
            3605            3921     103.070E-03     102.397E-03
            3605            3922     101.231E-03     100.776E-03
            3605            3970     129.030E-03     127.107E-03
            3605            3971     126.482E-03     124.777E-03
            3606            3922     101.231E-03     100.776E-03
            3606            3923     97.5911E-03     97.6741E-03
            3606            3971     126.482E-03     124.777E-03
            3606            3972     122.365E-03     121.543E-03
            3607            3923     97.5911E-03     97.6741E-03
            3607            3924     92.8193E-03     97.0166E-03
            3607            3972     122.365E-03     121.543E-03
            3607            3973     117.313E-03     122.728E-03
            3608            3924     92.8193E-03     97.0166E-03
            3608            3925     94.8694E-03     90.1280E-03
            3608            3973     117.313E-03     122.728E-03
            3608            3974     122.590E-03     115.770E-03
            3609            3925     94.8694E-03     90.1280E-03
            3609            3926     87.6112E-03     84.0504E-03
            3609            3974     122.590E-03     115.770E-03
            3609            3975     113.815E-03     109.936E-03
            3610            3926     87.6112E-03     84.0504E-03
            3610            3927     75.8929E-03     89.4682E-03
            3610            3975     113.815E-03     109.936E-03
            3610            3976     97.0631E-03     118.172E-03
            3611            3927     75.8929E-03     89.4682E-03
            3611            3928     89.7328E-03     86.3425E-03
            3611            3976     97.0631E-03     118.172E-03
            3611            3977     115.506E-03     111.884E-03
            3612            3928     89.7328E-03     86.3425E-03
            3612            3929     93.6211E-03     87.1880E-03
            3612            3977     115.506E-03     111.884E-03
            3612            3978     119.963E-03     110.472E-03
            3613            3929     93.6211E-03     87.1880E-03
            3613            3930     84.5748E-03     89.5152E-03
            3613            3978     119.963E-03     110.472E-03
            3613            3979     106.107E-03     112.092E-03
            3614            3930     84.5748E-03     89.5152E-03
            3614            3931     84.8839E-03     83.5277E-03
            3614            3979     106.107E-03     112.092E-03
            3614            3980     105.342E-03     103.073E-03
            3615            3931     84.8839E-03     83.5277E-03
            3615            3932     82.2327E-03     82.0168E-03
            3615            3980     105.342E-03     103.073E-03
            3615            3981     101.402E-03     100.768E-03
            3616            3932     82.2327E-03     82.0168E-03
            3616            3933     79.1418E-03     79.5113E-03
            3616            3981     101.402E-03     100.768E-03
            3616            3982     97.5986E-03     97.6994E-03
            3617            3933     79.1418E-03     79.5113E-03
            3617            3934     76.5808E-03     75.9251E-03
            3617            3982     97.5986E-03     97.6994E-03
            3617            3983     94.9683E-03     93.7407E-03
            3618            3934     76.5808E-03     75.9251E-03
            3618            3935     71.9949E-03     75.0198E-03
            3618            3983     94.9683E-03     93.7407E-03
            3618            3984     89.9862E-03     94.3580E-03
            3619            3935     71.9949E-03     75.0198E-03
            3619            3936     72.5094E-03     69.2501E-03
            3619            3984     89.9862E-03     94.3580E-03
            3619            3985     92.7829E-03     88.3451E-03
            3620            3936     72.5094E-03     69.2501E-03
            3620            3937     66.8984E-03     64.1731E-03
            3620            3985     92.7829E-03     88.3451E-03
            3620            3986     85.9032E-03     83.0246E-03
            3621            3937     66.8984E-03     64.1731E-03
            3621            3938     58.8334E-03     68.6256E-03
            3621            3986     85.9032E-03     83.0246E-03
            3621            3987     73.6466E-03     89.3996E-03
            3622            3938     58.8334E-03     68.6256E-03
            3622            3939     69.3088E-03     66.8216E-03
            3622            3987     73.6466E-03     89.3996E-03
            3622            3988     87.4371E-03     84.7816E-03
            3623            3939     69.3088E-03     66.8216E-03
            3623            3940     71.6216E-03     66.6908E-03
            3623            3988     87.4371E-03     84.7816E-03
            3623            3989     90.0637E-03     82.5967E-03
            3624            3940     71.6216E-03     66.6908E-03
            3624            3941     64.0078E-03     67.6504E-03
            3624            3989     90.0637E-03     82.5967E-03
            3624            3990     78.4785E-03     82.9210E-03
            3625            3941     64.0078E-03     67.6504E-03
            3625            3942     63.4815E-03     62.4365E-03
            3625            3990     78.4785E-03     82.9210E-03
            3625            3991     76.9319E-03     75.2007E-03
            3626            3942     63.4815E-03     62.4365E-03
            3626            3943     60.8062E-03     60.5808E-03
            3626            3991     76.9319E-03     75.2007E-03
            3626            3992     73.0529E-03     72.5091E-03
            3627            3943     60.8062E-03     60.5808E-03
            3627            3944     57.6946E-03     58.0719E-03
            3627            3992     73.0529E-03     72.5091E-03
            3627            3993     69.0836E-03     69.3166E-03
            3628            3944     57.6946E-03     58.0719E-03
            3628            3945     55.1357E-03     54.8299E-03
            3628            3993     69.0836E-03     69.3166E-03
            3628            3994     66.1081E-03     65.4952E-03
            3629            3945     55.1357E-03     54.8299E-03
            3629            3946     51.4093E-03     53.0871E-03
            3629            3994     66.1081E-03     65.4952E-03
            3629            3995     61.6765E-03     64.4364E-03
            3630            3946     51.4093E-03     53.0871E-03
            3630            3947     50.3682E-03     48.7657E-03
            3630            3995     61.6765E-03     64.4364E-03
            3630            3996     61.6389E-03     59.5699E-03
            3631            3947     50.3682E-03     48.7657E-03
            3631            3948     46.4836E-03     44.7844E-03
            3631            3996     61.6389E-03     59.5699E-03
            3631            3997     56.5641E-03     54.7795E-03
            3632            3948     46.4836E-03     44.7844E-03
            3632            3949     42.3671E-03     48.0019E-03
            3632            3997     56.5641E-03     54.7795E-03
            3632            3998     49.3990E-03     59.1475E-03
            3633            3949     42.3671E-03     48.0019E-03
            3633            3950     49.1129E-03     47.6014E-03
            3633            3998     49.3990E-03     59.1475E-03
            3633            3999     58.3065E-03     56.7138E-03
            3634            3950     49.1129E-03     47.6014E-03
            3634            3951     49.8486E-03     46.5753E-03
            3634            3999     58.3065E-03     56.7138E-03
            3634            4000     59.0241E-03     53.8238E-03
            3635            3951     49.8486E-03     46.5753E-03
            3635            3952     44.0512E-03     46.2414E-03
            3635            4000     59.0241E-03     53.8238E-03
            3635            4001     50.0857E-03     52.8798E-03
            3636            3952     44.0512E-03     46.2414E-03
            3636            3953     42.8352E-03     42.1684E-03
            3636            4001     50.0857E-03     52.8798E-03
            3636            4002     47.8644E-03     46.7825E-03
            3637            3953     42.8352E-03     42.1684E-03
            3637            3954     40.4186E-03     40.2417E-03
            3637            4002     47.8644E-03     46.7825E-03
            3637            4003     44.2704E-03     43.8784E-03
            3638            3954     40.4186E-03     40.2417E-03
            3638            3955     37.6825E-03     38.0634E-03
            3638            4003     44.2704E-03     43.8784E-03
            3638            4004     40.4074E-03     40.7901E-03
            3639            3955     37.6825E-03     38.0634E-03
            3639            3956     35.5337E-03     35.5743E-03
            3639            4004     40.4074E-03     40.7901E-03
            3639            4005     37.3507E-03     37.4006E-03
            3640            3956     35.5337E-03     35.5743E-03
            3640            3957     33.1422E-03     33.5235E-03
            3640            4005     37.3507E-03     37.4006E-03
            3640            4006     33.8519E-03     34.9367E-03
            3641            3957     33.1422E-03     33.5235E-03
            3641            3958     31.2992E-03     31.1990E-03
            3641            4006     33.8519E-03     34.9367E-03
            3641            4007     31.3366E-03     31.6850E-03
            3642            3958     31.2992E-03     31.1990E-03
            3642            3959     29.5735E-03     29.0157E-03
            3642            4007     31.3366E-03     31.6850E-03
            3642            4008     28.5925E-03     28.1171E-03
            3643            3959     29.5735E-03     29.0157E-03
            3643            3960     28.8062E-03     30.0573E-03
            3643            4008     28.5925E-03     28.1171E-03
            3643            4009     26.3539E-03     29.1496E-03
            3644            3960     28.8062E-03     30.0573E-03
            3644            3961     30.7507E-03     30.4724E-03
            3644            4009     26.3539E-03     29.1496E-03
            3644            4010     28.8532E-03     28.4675E-03
            3645            3961     30.7507E-03     30.4724E-03
            3645            3962     30.4206E-03     29.4812E-03
            3645            4010     28.8532E-03     28.4675E-03
            3645            4011     28.0515E-03     26.0409E-03
            3646            3962     30.4206E-03     29.4812E-03
            3646            3963     28.1075E-03     28.7175E-03
            3646            4011     28.0515E-03     26.0409E-03
            3646            4012     23.8501E-03     24.9398E-03
            3647            3963     28.1075E-03     28.7175E-03
            3647            3964     27.4480E-03     27.2437E-03
            3647            4012     23.8501E-03     24.9398E-03
            3647            4013     22.3990E-03     22.4527E-03
            3648            3964     27.4480E-03     27.2437E-03
            3648            3965     26.9326E-03     26.7737E-03
            3648            4013     22.3990E-03     22.4527E-03
            3648            4014     21.1914E-03     21.3404E-03
            3649            3965     26.9326E-03     26.7737E-03
            3649            3966     26.5477E-03     26.4460E-03
            3649            4014     21.1914E-03     21.3404E-03
            3649            4015     20.5746E-03     20.7482E-03
            3650             421     10.6067E-03     10.6260E-03
            3650             422     13.6285E-03     13.5791E-03
            3650            3966     26.5477E-03     26.4460E-03
            3650            4015     20.5746E-03     20.7482E-03
            3651             516     135.548E-03     150.669E-03
            3651             517     156.885E-03     178.781E-03
            3651            3967     138.464E-03     134.042E-03
            3651            4016     165.251E-03     161.951E-03
            3652            3967     138.464E-03     134.042E-03
            3652            3968     144.691E-03     133.479E-03
            3652            4016     165.251E-03     161.951E-03
            3652            4017     170.432E-03     156.372E-03
            3653            3968     144.691E-03     133.479E-03
            3653            3969     129.319E-03     136.244E-03
            3653            4017     170.432E-03     156.372E-03
            3653            4018     148.728E-03     159.106E-03
            3654            3969     129.319E-03     136.244E-03
            3654            3970     129.030E-03     127.107E-03
            3654            4018     148.728E-03     159.106E-03
            3654            4019     147.551E-03     147.186E-03
            3655            3970     129.030E-03     127.107E-03
            3655            3971     126.482E-03     124.777E-03
            3655            4019     147.551E-03     147.186E-03
            3655            4020     144.467E-03     144.389E-03
            3656            3971     126.482E-03     124.777E-03
            3656            3972     122.365E-03     121.543E-03
            3656            4020     144.467E-03     144.389E-03
            3656            4021     139.895E-03     140.318E-03
            3657            3972     122.365E-03     121.543E-03
            3657            3973     117.313E-03     122.728E-03
            3657            4021     139.895E-03     140.318E-03
            3657            4022     135.012E-03     142.897E-03
            3658            3973     117.313E-03     122.728E-03
            3658            3974     122.590E-03     115.770E-03
            3658            4022     135.012E-03     142.897E-03
            3658            4023     145.195E-03     136.118E-03
            3659            3974     122.590E-03     115.770E-03
            3659            3975     113.815E-03     109.936E-03
            3659            4023     145.195E-03     136.118E-03
            3659            4024     136.840E-03     133.879E-03
            3660            3975     113.815E-03     109.936E-03
            3660            3976     97.0631E-03     118.172E-03
            3660            4024     136.840E-03     133.879E-03
            3660            4025     115.588E-03     147.569E-03
            3661            3976     97.0631E-03     118.172E-03
            3661            3977     115.506E-03     111.884E-03
            3661            4025     115.588E-03     147.569E-03
            3661            4026     137.622E-03     134.962E-03
            3662            3977     115.506E-03     111.884E-03
            3662            3978     119.963E-03     110.472E-03
            3662            4026     137.622E-03     134.962E-03
            3662            4027     141.155E-03     129.387E-03
            3663            3978     119.963E-03     110.472E-03
            3663            3979     106.107E-03     112.092E-03
            3663            4027     141.155E-03     129.387E-03
            3663            4028     121.929E-03     131.189E-03
            3664            3979     106.107E-03     112.092E-03
            3664            3980     105.342E-03     103.073E-03
            3664            4028     121.929E-03     131.189E-03
            3664            4029     120.493E-03     119.539E-03
            3665            3980     105.342E-03     103.073E-03
            3665            3981     101.402E-03     100.768E-03
            3665            4029     120.493E-03     119.539E-03
            3665            4030     115.443E-03     116.715E-03
            3666            3981     101.402E-03     100.768E-03
            3666            3982     97.5986E-03     97.6994E-03
            3666            4030     115.443E-03     116.715E-03
            3666            4031     110.939E-03     112.903E-03
            3667            3982     97.5986E-03     97.6994E-03
            3667            3983     94.9683E-03     93.7407E-03
            3667            4031     110.939E-03     112.903E-03
            3667            4032     108.458E-03     107.906E-03
            3668            3983     94.9683E-03     93.7407E-03
            3668            3984     89.9862E-03     94.3580E-03
            3668            4032     108.458E-03     107.906E-03
            3668            4033     103.295E-03     109.731E-03
            3669            3984     89.9862E-03     94.3580E-03
            3669            3985     92.7829E-03     88.3451E-03
            3669            4033     103.295E-03     109.731E-03
            3669            4034     109.767E-03     103.703E-03
            3670            3985     92.7829E-03     88.3451E-03
            3670            3986     85.9032E-03     83.0246E-03
            3670            4034     109.767E-03     103.703E-03
            3670            4035     103.165E-03     100.977E-03
            3671            3986     85.9032E-03     83.0246E-03
            3671            3987     73.6466E-03     89.3996E-03
            3671            4035     103.165E-03     100.977E-03
            3671            4036     87.0030E-03     111.144E-03
            3672            3987     73.6466E-03     89.3996E-03
            3672            3988     87.4371E-03     84.7816E-03
            3672            4036     87.0030E-03     111.144E-03
            3672            4037     103.285E-03     101.362E-03
            3673            3988     87.4371E-03     84.7816E-03
            3673            3989     90.0637E-03     82.5967E-03
            3673            4037     103.285E-03     101.362E-03
            3673            4038     105.173E-03     95.9326E-03
            3674            3989     90.0637E-03     82.5967E-03
            3674            3990     78.4785E-03     82.9210E-03
            3674            4038     105.173E-03     95.9326E-03
            3674            4039     89.3872E-03     96.4134E-03
            3675            3990     78.4785E-03     82.9210E-03
            3675            3991     76.9319E-03     75.2007E-03
            3675            4039     89.3872E-03     96.4134E-03
            3675            4040     87.1855E-03     86.4551E-03
            3676            3991     76.9319E-03     75.2007E-03
            3676            3992     73.0529E-03     72.5091E-03
            3676            4040     87.1855E-03     86.4551E-03
            3676            4041     82.2830E-03     83.0442E-03
            3677            3992     73.0529E-03     72.5091E-03
            3677            3993     69.0836E-03     69.3166E-03
            3677            4041     82.2830E-03     83.0442E-03
            3677            4042     77.4945E-03     78.9915E-03
            3678            3993     69.0836E-03     69.3166E-03
            3678            3994     66.1081E-03     65.4952E-03
            3678            4042     77.4945E-03     78.9915E-03
            3678            4043     74.3923E-03     74.0965E-03
            3679            3994     66.1081E-03     65.4952E-03
            3679            3995     61.6765E-03     64.4364E-03
            3679            4043     74.3923E-03     74.0965E-03
            3679            4044     69.5894E-03     73.6099E-03
            3680            3995     61.6765E-03     64.4364E-03
            3680            3996     61.6389E-03     59.5699E-03
            3680            4044     69.5894E-03     73.6099E-03
            3680            4045     71.7744E-03     68.6725E-03
            3681            3996     61.6389E-03     59.5699E-03
            3681            3997     56.5641E-03     54.7795E-03
            3681            4045     71.7744E-03     68.6725E-03
            3681            4046     66.6515E-03     65.3072E-03
            3682            3997     56.5641E-03     54.7795E-03
            3682            3998     49.3990E-03     59.1475E-03
            3682            4046     66.6515E-03     65.3072E-03
            3682            4047     56.4983E-03     71.8902E-03
            3683            3998     49.3990E-03     59.1475E-03
            3683            3999     58.3065E-03     56.7138E-03
            3683            4047     56.4983E-03     71.8902E-03
            3683            4048     66.8600E-03     65.7546E-03
            3684            3999     58.3065E-03     56.7138E-03
            3684            4000     59.0241E-03     53.8238E-03
            3684            4048     66.8600E-03     65.7546E-03
            3684            4049     67.0215E-03     60.5671E-03
            3685            4000     59.0241E-03     53.8238E-03
            3685            4001     50.0857E-03     52.8798E-03
            3685            4049     67.0215E-03     60.5671E-03
            3685            4050     55.0497E-03     59.6874E-03
            3686            4001     50.0857E-03     52.8798E-03
            3686            4002     47.8644E-03     46.7825E-03
            3686            4050     55.0497E-03     59.6874E-03
            3686            4051     52.1189E-03     51.6432E-03
            3687            4002     47.8644E-03     46.7825E-03
            3687            4003     44.2704E-03     43.8784E-03
            3687            4051     52.1189E-03     51.6432E-03
            3687            4052     47.4861E-03     47.6988E-03
            3688            4003     44.2704E-03     43.8784E-03
            3688            4004     40.4074E-03     40.7901E-03
            3688            4052     47.4861E-03     47.6988E-03
            3688            4053     42.5351E-03     43.5097E-03
            3689            4004     40.4074E-03     40.7901E-03
            3689            4005     37.3507E-03     37.4006E-03
            3689            4053     42.5351E-03     43.5097E-03
            3689            4054     38.9085E-03     38.8893E-03
            3690            4005     37.3507E-03     37.4006E-03
            3690            4006     33.8519E-03     34.9367E-03
            3690            4054     38.9085E-03     38.8893E-03
            3690            4055     34.6412E-03     36.1386E-03
            3691            4006     33.8519E-03     34.9367E-03
            3691            4007     31.3366E-03     31.6850E-03
            3691            4055     34.6412E-03     36.1386E-03
            3691            4056     32.4456E-03     32.5633E-03
            3692            4007     31.3366E-03     31.6850E-03
            3692            4008     28.5925E-03     28.1171E-03
            3692            4056     32.4456E-03     32.5633E-03
            3692            4057     29.1247E-03     28.8283E-03
            3693            4008     28.5925E-03     28.1171E-03
            3693            4009     26.3539E-03     29.1496E-03
            3693            4057     29.1247E-03     28.8283E-03
            3693            4058     24.6598E-03     30.1850E-03
            3694            4009     26.3539E-03     29.1496E-03
            3694            4010     28.8532E-03     28.4675E-03
            3694            4058     24.6598E-03     30.1850E-03
            3694            4059     27.2556E-03     27.0124E-03
            3695            4010     28.8532E-03     28.4675E-03
            3695            4011     28.0515E-03     26.0409E-03
            3695            4059     27.2556E-03     27.0124E-03
            3695            4060     25.8031E-03     22.7593E-03
            3696            4011     28.0515E-03     26.0409E-03
            3696            4012     23.8501E-03     24.9398E-03
            3696            4060     25.8031E-03     22.7593E-03
            3696            4061     19.4497E-03     21.1393E-03
            3697            4012     23.8501E-03     24.9398E-03
            3697            4013     22.3990E-03     22.4527E-03
            3697            4061     19.4497E-03     21.1393E-03
            3697            4062     17.0321E-03     16.8823E-03
            3698            4013     22.3990E-03     22.4527E-03
            3698            4014     21.1914E-03     21.3404E-03
            3698            4062     17.0321E-03     16.8823E-03
            3698            4063     14.5393E-03     15.1234E-03
            3699            4014     21.1914E-03     21.3404E-03
            3699            4015     20.5746E-03     20.7482E-03
            3699            4063     14.5393E-03     15.1234E-03
            3699            4064     13.1378E-03     14.1635E-03
            3700             420     6.84558E-03     7.13471E-03
            3700             421     10.6067E-03     10.6260E-03
            3700            4015     20.5746E-03     20.7482E-03
            3700            4064     13.1378E-03     14.1635E-03
            3701             517     156.885E-03     178.781E-03
            3701             518     172.380E-03     198.640E-03
            3701            4016     165.251E-03     161.951E-03
            3701            4065     185.342E-03     183.814E-03
            3702            4016     165.251E-03     161.951E-03
            3702            4017     170.432E-03     156.372E-03
            3702            4065     185.342E-03     183.814E-03
            3702            4066     187.665E-03     175.831E-03
            3703            4017     170.432E-03     156.372E-03
            3703            4018     148.728E-03     159.106E-03
            3703            4066     187.665E-03     175.831E-03
            3703            4067     161.811E-03     177.715E-03
            3704            4018     148.728E-03     159.106E-03
            3704            4019     147.551E-03     147.186E-03
            3704            4067     161.811E-03     177.715E-03
            3704            4068     161.363E-03     164.038E-03
            3705            4019     147.551E-03     147.186E-03
            3705            4020     144.467E-03     144.389E-03
            3705            4068     161.363E-03     164.038E-03
            3705            4069     156.892E-03     161.462E-03
            3706            4020     144.467E-03     144.389E-03
            3706            4021     139.895E-03     140.318E-03
            3706            4069     156.892E-03     161.462E-03
            3706            4070     152.223E-03     155.697E-03
            3707            4021     139.895E-03     140.318E-03
            3707            4022     135.012E-03     142.897E-03
            3707            4070     152.223E-03     155.697E-03
            3707            4071     145.845E-03     158.129E-03
            3708            4022     135.012E-03     142.897E-03
            3708            4023     145.195E-03     136.118E-03
            3708            4071     145.845E-03     158.129E-03
            3708            4072     158.496E-03     151.017E-03
            3709            4023     145.195E-03     136.118E-03
            3709            4024     136.840E-03     133.879E-03
            3709            4072     158.496E-03     151.017E-03
            3709            4073     152.696E-03     151.093E-03
            3710            4024     136.840E-03     133.879E-03
            3710            4025     115.588E-03     147.569E-03
            3710            4073     152.696E-03     151.093E-03
            3710            4074     129.691E-03     168.679E-03
            3711            4025     115.588E-03     147.569E-03
            3711            4026     137.622E-03     134.962E-03
            3711            4074     129.691E-03     168.679E-03
            3711            4075     154.321E-03     153.097E-03
            3712            4026     137.622E-03     134.962E-03
            3712            4027     141.155E-03     129.387E-03
            3712            4075     154.321E-03     153.097E-03
            3712            4076     155.751E-03     145.604E-03
            3713            4027     141.155E-03     129.387E-03
            3713            4028     121.929E-03     131.189E-03
            3713            4076     155.751E-03     145.604E-03
            3713            4077     132.884E-03     146.726E-03
            3714            4028     121.929E-03     131.189E-03
            3714            4029     120.493E-03     119.539E-03
            3714            4077     132.884E-03     146.726E-03
            3714            4078     132.255E-03     133.527E-03
            3715            4029     120.493E-03     119.539E-03
            3715            4030     115.443E-03     116.715E-03
            3715            4078     132.255E-03     133.527E-03
            3715            4079     125.955E-03     130.588E-03
            3716            4030     115.443E-03     116.715E-03
            3716            4031     110.939E-03     112.903E-03
            3716            4079     125.955E-03     130.588E-03
            3716            4080     120.766E-03     125.930E-03
            3717            4031     110.939E-03     112.903E-03
            3717            4032     108.458E-03     107.906E-03
            3717            4080     120.766E-03     125.930E-03
            3717            4081     118.135E-03     119.681E-03
            3718            4032     108.458E-03     107.906E-03
            3718            4033     103.295E-03     109.731E-03
            3718            4081     118.135E-03     119.681E-03
            3718            4082     111.224E-03     121.044E-03
            3719            4033     103.295E-03     109.731E-03
            3719            4034     109.767E-03     103.703E-03
            3719            4082     111.224E-03     121.044E-03
            3719            4083     119.675E-03     114.437E-03
            3720            4034     109.767E-03     103.703E-03
            3720            4035     103.165E-03     100.977E-03
            3720            4083     119.675E-03     114.437E-03
            3720            4084     114.801E-03     113.600E-03
            3721            4035     103.165E-03     100.977E-03
            3721            4036     87.0030E-03     111.144E-03
            3721            4084     114.801E-03     113.600E-03
            3721            4085     97.3971E-03     126.796E-03
            3722            4036     87.0030E-03     111.144E-03
            3722            4037     103.285E-03     101.362E-03
            3722            4085     97.3971E-03     126.796E-03
            3722            4086     115.781E-03     114.949E-03
            3723            4037     103.285E-03     101.362E-03
            3723            4038     105.173E-03     95.9326E-03
            3723            4086     115.781E-03     114.949E-03
            3723            4087     116.149E-03     108.137E-03
            3724            4038     105.173E-03     95.9326E-03
            3724            4039     89.3872E-03     96.4134E-03
            3724            4087     116.149E-03     108.137E-03
            3724            4088     97.4078E-03     107.891E-03
            3725            4039     89.3872E-03     96.4134E-03
            3725            4040     87.1855E-03     86.4551E-03
            3725            4088     97.4078E-03     107.891E-03
            3725            4089     95.5630E-03     96.4097E-03
            3726            4040     87.1855E-03     86.4551E-03
            3726            4041     82.2830E-03     83.0442E-03
            3726            4089     95.5630E-03     96.4097E-03
            3726            4090     89.4729E-03     92.6306E-03
            3727            4041     82.2830E-03     83.0442E-03
            3727            4042     77.4945E-03     78.9915E-03
            3727            4090     89.4729E-03     92.6306E-03
            3727            4091     83.9049E-03     87.6289E-03
            3728            4042     77.4945E-03     78.9915E-03
            3728            4043     74.3923E-03     74.0965E-03
            3728            4091     83.9049E-03     87.6289E-03
            3728            4092     80.4106E-03     81.5459E-03
            3729            4043     74.3923E-03     74.0965E-03
            3729            4044     69.5894E-03     73.6099E-03
            3729            4092     80.4106E-03     81.5459E-03
            3729            4093     74.1764E-03     80.3305E-03
            3730            4044     69.5894E-03     73.6099E-03
            3730            4045     71.7744E-03     68.6725E-03
            3730            4093     74.1764E-03     80.3305E-03
            3730            4094     77.4563E-03     74.7200E-03
            3731            4045     71.7744E-03     68.6725E-03
            3731            4046     66.6515E-03     65.3072E-03
            3731            4094     77.4563E-03     74.7200E-03
            3731            4095     73.4269E-03     72.6452E-03
            3732            4046     66.6515E-03     65.3072E-03
            3732            4047     56.4983E-03     71.8902E-03
            3732            4095     73.4269E-03     72.6452E-03
            3732            4096     62.5268E-03     81.4288E-03
            3733            4047     56.4983E-03     71.8902E-03
            3733            4048     66.8600E-03     65.7546E-03
            3733            4096     62.5268E-03     81.4288E-03
            3733            4097     74.5136E-03     74.1094E-03
            3734            4048     66.8600E-03     65.7546E-03
            3734            4049     67.0215E-03     60.5671E-03
            3734            4097     74.5136E-03     74.1094E-03
            3734            4098     73.7784E-03     68.0786E-03
            3735            4049     67.0215E-03     60.5671E-03
            3735            4050     55.0497E-03     59.6874E-03
            3735            4098     73.7784E-03     68.0786E-03
            3735            4099     59.5215E-03     66.3844E-03
            3736            4050     55.0497E-03     59.6874E-03
            3736            4051     52.1189E-03     51.6432E-03
            3736            4099     59.5215E-03     66.3844E-03
            3736            4100     56.4117E-03     56.7870E-03
            3737            4051     52.1189E-03     51.6432E-03
            3737            4052     47.4861E-03     47.6988E-03
            3737            4100     56.4117E-03     56.7870E-03
            3737            4101     50.5855E-03     52.1436E-03
            3738            4052     47.4861E-03     47.6988E-03
            3738            4053     42.5351E-03     43.5097E-03
            3738            4101     50.5855E-03     52.1436E-03
            3738            4102     44.6714E-03     46.8218E-03
            3739            4053     42.5351E-03     43.5097E-03
            3739            4054     38.9085E-03     38.8893E-03
            3739            4102     44.6714E-03     46.8218E-03
            3739            4103     40.3078E-03     40.9831E-03
            3740            4054     38.9085E-03     38.8893E-03
            3740            4055     34.6412E-03     36.1386E-03
            3740            4103     40.3078E-03     40.9831E-03
            3740            4104     34.8651E-03     37.1039E-03
            3741            4055     34.6412E-03     36.1386E-03
            3741            4056     32.4456E-03     32.5633E-03
            3741            4104     34.8651E-03     37.1039E-03
            3741            4105     32.6836E-03     32.6409E-03
            3742            4056     32.4456E-03     32.5633E-03
            3742            4057     29.1247E-03     28.8283E-03
            3742            4105     32.6836E-03     32.6409E-03
            3742            4106     29.5863E-03     29.3272E-03
            3743            4057     29.1247E-03     28.8283E-03
            3743            4058     24.6598E-03     30.1850E-03
            3743            4106     29.5863E-03     29.3272E-03
            3743            4107     24.5028E-03     32.0878E-03
            3744            4058     24.6598E-03     30.1850E-03
            3744            4059     27.2556E-03     27.0124E-03
            3744            4107     24.5028E-03     32.0878E-03
            3744            4108     28.0248E-03     28.1921E-03
            3745            4059     27.2556E-03     27.0124E-03
            3745            4060     25.8031E-03     22.7593E-03
            3745            4108     28.0248E-03     28.1921E-03
            3745            4109     25.6880E-03     22.7286E-03
            3746            4060     25.8031E-03     22.7593E-03
            3746            4061     19.4497E-03     21.1393E-03
            3746            4109     25.6880E-03     22.7286E-03
            3746            4110     16.5901E-03     19.2657E-03
            3747            4061     19.4497E-03     21.1393E-03
            3747            4062     17.0321E-03     16.8823E-03
            3747            4110     16.5901E-03     19.2657E-03
            3747            4111     12.7235E-03     11.9084E-03
            3748            4062     17.0321E-03     16.8823E-03
            3748            4063     14.5393E-03     15.1234E-03
            3748            4111     12.7235E-03     11.9084E-03
            3748            4112     8.31655E-03     8.42066E-03
            3749            4063     14.5393E-03     15.1234E-03
            3749            4064     13.1378E-03     14.1635E-03
            3749            4112     8.31655E-03     8.42066E-03
            3749            4113     5.66375E-03     7.59659E-03
            3750             419     2.94836E-03     4.15544E-03
            3750             420     6.84558E-03     7.13471E-03
            3750            4064     13.1378E-03     14.1635E-03
            3750            4113     5.66375E-03     7.59659E-03
            3751             518     172.380E-03     198.640E-03
            3751             519     186.713E-03     206.952E-03
            3751            4065     185.342E-03     183.814E-03
            3751            4114     200.162E-03     195.776E-03
            3752            4065     185.342E-03     183.814E-03
            3752            4066     187.665E-03     175.831E-03
            3752            4114     200.162E-03     195.776E-03
            3752            4115     196.016E-03     186.134E-03
            3753            4066     187.665E-03     175.831E-03
            3753            4067     161.811E-03     177.715E-03
            3753            4115     196.016E-03     186.134E-03
            3753            4116     173.698E-03     185.517E-03
            3754            4067     161.811E-03     177.715E-03
            3754            4068     161.363E-03     164.038E-03
            3754            4116     173.698E-03     185.517E-03
            3754            4117     173.322E-03     173.263E-03
            3755            4068     161.363E-03     164.038E-03
            3755            4069     156.892E-03     161.462E-03
            3755            4117     173.322E-03     173.263E-03
            3755            4118     167.147E-03     170.830E-03
            3756            4069     156.892E-03     161.462E-03
            3756            4070     152.223E-03     155.697E-03
            3756            4118     167.147E-03     170.830E-03
            3756            4119     163.009E-03     163.917E-03
            3757            4070     152.223E-03     155.697E-03
            3757            4071     145.845E-03     158.129E-03
            3757            4119     163.009E-03     163.917E-03
            3757            4120     155.134E-03     164.048E-03
            3758            4071     145.845E-03     158.129E-03
            3758            4072     158.496E-03     151.017E-03
            3758            4120     155.134E-03     164.048E-03
            3758            4121     162.709E-03     155.921E-03
            3759            4072     158.496E-03     151.017E-03
            3759            4073     152.696E-03     151.093E-03
            3759            4121     162.709E-03     155.921E-03
            3759            4122     158.636E-03     154.714E-03
            3760            4073     152.696E-03     151.093E-03
            3760            4074     129.691E-03     168.679E-03
            3760            4122     158.636E-03     154.714E-03
            3760            4123     145.105E-03     174.200E-03
            3761            4074     129.691E-03     168.679E-03
            3761            4075     154.321E-03     153.097E-03
            3761            4123     145.105E-03     174.200E-03
            3761            4124     167.326E-03     163.708E-03
            3762            4075     154.321E-03     153.097E-03
            3762            4076     155.751E-03     145.604E-03
            3762            4124     167.326E-03     163.708E-03
            3762            4125     162.986E-03     154.585E-03
            3763            4076     155.751E-03     145.604E-03
            3763            4077     132.884E-03     146.726E-03
            3763            4125     162.986E-03     154.585E-03
            3763            4126     142.994E-03     153.105E-03
            3764            4077     132.884E-03     146.726E-03
            3764            4078     132.255E-03     133.527E-03
            3764            4126     142.994E-03     153.105E-03
            3764            4127     141.965E-03     141.391E-03
            3765            4078     132.255E-03     133.527E-03
            3765            4079     125.955E-03     130.588E-03
            3765            4127     141.965E-03     141.391E-03
            3765            4128     135.179E-03     138.188E-03
            3766            4079     125.955E-03     130.588E-03
            3766            4080     120.766E-03     125.930E-03
            3766            4128     135.179E-03     138.188E-03
            3766            4129     129.922E-03     132.887E-03
            3767            4080     120.766E-03     125.930E-03
            3767            4081     118.135E-03     119.681E-03
            3767            4129     129.922E-03     132.887E-03
            3767            4130     126.063E-03     126.354E-03
            3768            4081     118.135E-03     119.681E-03
            3768            4082     111.224E-03     121.044E-03
            3768            4130     126.063E-03     126.354E-03
            3768            4131     118.303E-03     125.099E-03
            3769            4082     111.224E-03     121.044E-03
            3769            4083     119.675E-03     114.437E-03
            3769            4131     118.303E-03     125.099E-03
            3769            4132     122.277E-03     117.383E-03
            3770            4083     119.675E-03     114.437E-03
            3770            4084     114.801E-03     113.600E-03
            3770            4132     122.277E-03     117.383E-03
            3770            4133     118.010E-03     114.922E-03
            3771            4084     114.801E-03     113.600E-03
            3771            4085     97.3971E-03     126.796E-03
            3771            4133     118.010E-03     114.922E-03
            3771            4134     109.009E-03     130.891E-03
            3772            4085     97.3971E-03     126.796E-03
            3772            4086     115.781E-03     114.949E-03
            3772            4134     109.009E-03     130.891E-03
            3772            4135     126.830E-03     124.243E-03
            3773            4086     115.781E-03     114.949E-03
            3773            4087     116.149E-03     108.137E-03
            3773            4135     126.830E-03     124.243E-03
            3773            4136     122.232E-03     115.711E-03
            3774            4087     116.149E-03     108.137E-03
            3774            4088     97.4078E-03     107.891E-03
            3774            4136     122.232E-03     115.711E-03
            3774            4137     105.231E-03     112.976E-03
            3775            4088     97.4078E-03     107.891E-03
            3775            4089     95.5630E-03     96.4097E-03
            3775            4137     105.231E-03     112.976E-03
            3775            4138     102.885E-03     102.332E-03
            3776            4089     95.5630E-03     96.4097E-03
            3776            4090     89.4729E-03     92.6306E-03
            3776            4138     102.885E-03     102.332E-03
            3776            4139     96.1303E-03     98.2637E-03
            3777            4090     89.4729E-03     92.6306E-03
            3777            4091     83.9049E-03     87.6289E-03
            3777            4139     96.1303E-03     98.2637E-03
            3777            4140     90.4771E-03     92.5592E-03
            3778            4091     83.9049E-03     87.6289E-03
            3778            4092     80.4106E-03     81.5459E-03
            3778            4140     90.4771E-03     92.5592E-03
            3778            4141     85.7817E-03     86.1513E-03
            3779            4092     80.4106E-03     81.5459E-03
            3779            4093     74.1764E-03     80.3305E-03
            3779            4141     85.7817E-03     86.1513E-03
            3779            4142     78.6746E-03     82.8396E-03
            3780            4093     74.1764E-03     80.3305E-03
            3780            4094     77.4563E-03     74.7200E-03
            3780            4142     78.6746E-03     82.8396E-03
            3780            4143     78.4453E-03     75.7055E-03
            3781            4094     77.4563E-03     74.7200E-03
            3781            4095     73.4269E-03     72.6452E-03
            3781            4143     78.4453E-03     75.7055E-03
            3781            4144     73.8096E-03     71.7654E-03
            3782            4095     73.4269E-03     72.6452E-03
            3782            4096     62.5268E-03     81.4288E-03
            3782            4144     73.8096E-03     71.7654E-03
            3782            4145     69.9335E-03     84.0309E-03
            3783            4096     62.5268E-03     81.4288E-03
            3783            4097     74.5136E-03     74.1094E-03
            3783            4145     69.9335E-03     84.0309E-03
            3783            4146     83.3098E-03     81.8407E-03
            3784            4097     74.5136E-03     74.1094E-03
            3784            4098     73.7784E-03     68.0786E-03
            3784            4146     83.3098E-03     81.8407E-03
            3784            4147     78.5065E-03     74.0239E-03
            3785            4098     73.7784E-03     68.0786E-03
            3785            4099     59.5215E-03     66.3844E-03
            3785            4147     78.5065E-03     74.0239E-03
            3785            4148     64.8060E-03     70.0057E-03
            3786            4099     59.5215E-03     66.3844E-03
            3786            4100     56.4117E-03     56.7870E-03
            3786            4148     64.8060E-03     70.0057E-03
            3786            4149     61.1144E-03     60.5850E-03
            3787            4100     56.4117E-03     56.7870E-03
            3787            4101     50.5855E-03     52.1436E-03
            3787            4149     61.1144E-03     60.5850E-03
            3787            4150     54.4612E-03     55.6519E-03
            3788            4101     50.5855E-03     52.1436E-03
            3788            4102     44.6714E-03     46.8218E-03
            3788            4150     54.4612E-03     55.6519E-03
            3788            4151     48.4550E-03     49.5904E-03
            3789            4102     44.6714E-03     46.8218E-03
            3789            4103     40.3078E-03     40.9831E-03
            3789            4151     48.4550E-03     49.5904E-03
            3789            4152     42.9464E-03     43.3928E-03
            3790            4103     40.3078E-03     40.9831E-03
            3790            4104     34.8651E-03     37.1039E-03
            3790            4152     42.9464E-03     43.3928E-03
            3790            4153     36.5907E-03     37.9772E-03
            3791            4104     34.8651E-03     37.1039E-03
            3791            4105     32.6836E-03     32.6409E-03
            3791            4153     36.5907E-03     37.9772E-03
            3791            4154     31.8874E-03     31.5625E-03
            3792            4105     32.6836E-03     32.6409E-03
            3792            4106     29.5863E-03     29.3272E-03
            3792            4154     31.8874E-03     31.5625E-03
            3792            4155     26.7572E-03     25.9459E-03
            3793            4106     29.5863E-03     29.3272E-03
            3793            4107     24.5028E-03     32.0878E-03
            3793            4155     26.7572E-03     25.9459E-03
            3793            4156     27.1962E-03     32.9599E-03
            3794            4107     24.5028E-03     32.0878E-03
            3794            4108     28.0248E-03     28.1921E-03
            3794            4156     27.1962E-03     32.9599E-03
            3794            4157     34.4534E-03     34.3375E-03
            3795            4108     28.0248E-03     28.1921E-03
            3795            4109     25.6880E-03     22.7286E-03
            3795            4157     34.4534E-03     34.3375E-03
            3795            4158     29.1223E-03     26.9250E-03
            3796            4109     25.6880E-03     22.7286E-03
            3796            4110     16.5901E-03     19.2657E-03
            3796            4158     29.1223E-03     26.9250E-03
            3796            4159     18.9499E-03     21.4414E-03
            3797            4110     16.5901E-03     19.2657E-03
            3797            4111     12.7235E-03     11.9084E-03
            3797            4159     18.9499E-03     21.4414E-03
            3797            4160     14.1816E-03     13.3140E-03
            3798            4111     12.7235E-03     11.9084E-03
            3798            4112     8.31655E-03     8.42066E-03
            3798            4160     14.1816E-03     13.3140E-03
            3798            4161     9.28595E-03     9.11974E-03
            3799            4112     8.31655E-03     8.42066E-03
            3799            4113     5.66375E-03     7.59659E-03
            3799            4161     9.28595E-03     9.11974E-03
            3799            4162     6.99777E-03     9.10515E-03
            3800             418     3.58282E-03     5.56994E-03
            3800             419     2.94836E-03     4.15544E-03
            3800            4113     5.66375E-03     7.59659E-03
            3800            4162     6.99777E-03     9.10515E-03
            3801              21     194.926E-03     208.730E-03
            3801             440     206.404E-03     198.346E-03
            3801             519     186.713E-03     206.952E-03
            3801            4114     200.162E-03     195.776E-03
            3802             440     206.404E-03     198.346E-03
            3802             441     197.832E-03     186.657E-03
            3802            4114     200.162E-03     195.776E-03
            3802            4115     196.016E-03     186.134E-03
            3803             441     197.832E-03     186.657E-03
            3803             442     180.177E-03     185.379E-03
            3803            4115     196.016E-03     186.134E-03
            3803            4116     173.698E-03     185.517E-03
            3804             442     180.177E-03     185.379E-03
            3804             443     178.855E-03     174.861E-03
            3804            4116     173.698E-03     185.517E-03
            3804            4117     173.322E-03     173.263E-03
            3805             443     178.855E-03     174.861E-03
            3805             444     172.322E-03     172.345E-03
            3805            4117     173.322E-03     173.263E-03
            3805            4118     167.147E-03     170.830E-03
            3806             444     172.322E-03     172.345E-03
            3806             445     168.218E-03     165.169E-03
            3806            4118     167.147E-03     170.830E-03
            3806            4119     163.009E-03     163.917E-03
            3807             445     168.218E-03     165.169E-03
            3807             446     160.376E-03     163.567E-03
            3807            4119     163.009E-03     163.917E-03
            3807            4120     155.134E-03     164.048E-03
            3808             446     160.376E-03     163.567E-03
            3808             447     162.930E-03     154.166E-03
            3808            4120     155.134E-03     164.048E-03
            3808            4121     162.709E-03     155.921E-03
            3809             447     162.930E-03     154.166E-03
            3809             448     158.837E-03     151.882E-03
            3809            4121     162.709E-03     155.921E-03
            3809            4122     158.636E-03     154.714E-03
            3810             448     158.837E-03     151.882E-03
            3810             449     154.804E-03     173.441E-03
            3810            4122     158.636E-03     154.714E-03
            3810            4123     145.105E-03     174.200E-03
            3811             449     154.804E-03     173.441E-03
            3811             450     173.116E-03     166.496E-03
            3811            4123     145.105E-03     174.200E-03
            3811            4124     167.326E-03     163.708E-03
            3812             450     173.116E-03     166.496E-03
            3812             451     164.547E-03     155.386E-03
            3812            4124     167.326E-03     163.708E-03
            3812            4125     162.986E-03     154.585E-03
            3813             451     164.547E-03     155.386E-03
            3813             452     148.485E-03     152.956E-03
            3813            4125     162.986E-03     154.585E-03
            3813            4126     142.994E-03     153.105E-03
            3814             452     148.485E-03     152.956E-03
            3814             453     146.266E-03     142.957E-03
            3814            4126     142.994E-03     153.105E-03
            3814            4127     141.965E-03     141.391E-03
            3815             453     146.266E-03     142.957E-03
            3815             454     139.766E-03     139.523E-03
            3815            4127     141.965E-03     141.391E-03
            3815            4128     135.179E-03     138.188E-03
            3816             454     139.766E-03     139.523E-03
            3816             455     134.644E-03     133.983E-03
            3816            4128     135.179E-03     138.188E-03
            3816            4129     129.922E-03     132.887E-03
            3817             455     134.644E-03     133.983E-03
            3817             456     129.780E-03     127.624E-03
            3817            4129     129.922E-03     132.887E-03
            3817            4130     126.063E-03     126.354E-03
            3818             456     129.780E-03     127.624E-03
            3818             457     122.453E-03     124.497E-03
            3818            4130     126.063E-03     126.354E-03
            3818            4131     118.303E-03     125.099E-03
            3819             457     122.453E-03     124.497E-03
            3819             458     122.097E-03     115.769E-03
            3819            4131     118.303E-03     125.099E-03
            3819            4132     122.277E-03     117.383E-03
            3820             458     122.097E-03     115.769E-03
            3820             459     117.246E-03     111.806E-03
            3820            4132     122.277E-03     117.383E-03
            3820            4133     118.010E-03     114.922E-03
            3821             459     117.246E-03     111.806E-03
            3821             460     116.344E-03     130.348E-03
            3821            4133     118.010E-03     114.922E-03
            3821            4134     109.009E-03     130.891E-03
            3822             460     116.344E-03     130.348E-03
            3822             461     132.210E-03     127.420E-03
            3822            4134     109.009E-03     130.891E-03
            3822            4135     126.830E-03     124.243E-03
            3823             461     132.210E-03     127.420E-03
            3823             462     123.788E-03     116.893E-03
            3823            4135     126.830E-03     124.243E-03
            3823            4136     122.232E-03     115.711E-03
            3824             462     123.788E-03     116.893E-03
            3824             463     109.519E-03     113.144E-03
            3824            4136     122.232E-03     115.711E-03
            3824            4137     105.231E-03     112.976E-03
            3825             463     109.519E-03     113.144E-03
            3825             464     106.221E-03     103.687E-03
            3825            4137     105.231E-03     112.976E-03
            3825            4138     102.885E-03     102.332E-03
            3826             464     106.221E-03     103.687E-03
            3826             465     99.5404E-03     99.4520E-03
            3826            4138     102.885E-03     102.332E-03
            3826            4139     96.1303E-03     98.2637E-03
            3827             465     99.5404E-03     99.4520E-03
            3827             466     94.0357E-03     93.4925E-03
            3827            4139     96.1303E-03     98.2637E-03
            3827            4140     90.4771E-03     92.5592E-03
            3828             466     94.0357E-03     93.4925E-03
            3828             467     88.4993E-03     87.1932E-03
            3828            4140     90.4771E-03     92.5592E-03
            3828            4141     85.7817E-03     86.1513E-03
            3829             467     88.4993E-03     87.1932E-03
            3829             468     81.5232E-03     82.5257E-03
            3829            4141     85.7817E-03     86.1513E-03
            3829            4142     78.6746E-03     82.8396E-03
            3830             468     81.5232E-03     82.5257E-03
            3830             469     78.1136E-03     74.2960E-03
            3830            4142     78.6746E-03     82.8396E-03
            3830            4143     78.4453E-03     75.7055E-03
            3831             469     78.1136E-03     74.2960E-03
            3831             470     72.0875E-03     68.5313E-03
            3831            4143     78.4453E-03     75.7055E-03
            3831            4144     73.8096E-03     71.7654E-03
            3832             470     72.0875E-03     68.5313E-03
            3832             471     74.7106E-03     83.7545E-03
            3832            4144     73.8096E-03     71.7654E-03
            3832            4145     69.9335E-03     84.0309E-03
            3833             471     74.7106E-03     83.7545E-03
            3833             472     88.2004E-03     85.4109E-03
            3833            4145     69.9335E-03     84.0309E-03
            3833            4146     83.3098E-03     81.8407E-03
            3834             472     88.2004E-03     85.4109E-03
            3834             473     80.0531E-03     75.6387E-03
            3834            4146     83.3098E-03     81.8407E-03
            3834            4147     78.5065E-03     74.0239E-03
            3835             473     80.0531E-03     75.6387E-03
            3835             474     67.8471E-03     70.5721E-03
            3835            4147     78.5065E-03     74.0239E-03
            3835            4148     64.8060E-03     70.0057E-03
            3836             474     67.8471E-03     70.5721E-03
            3836             475     63.5028E-03     61.8115E-03
            3836            4148     64.8060E-03     70.0057E-03
            3836            4149     61.1144E-03     60.5850E-03
            3837             475     63.5028E-03     61.8115E-03
            3837             476     56.7334E-03     56.8136E-03
            3837            4149     61.1144E-03     60.5850E-03
            3837            4150     54.4612E-03     55.6519E-03
            3838             476     56.7334E-03     56.8136E-03
            3838             477     50.9287E-03     50.5266E-03
            3838            4150     54.4612E-03     55.6519E-03
            3838            4151     48.4550E-03     49.5904E-03
            3839             477     50.9287E-03     50.5266E-03
            3839             478     44.8118E-03     44.4109E-03
            3839            4151     48.4550E-03     49.5904E-03
            3839            4152     42.9464E-03     43.3928E-03
            3840             478     44.8118E-03     44.4109E-03
            3840             479     38.2735E-03     38.2568E-03
            3840            4152     42.9464E-03     43.3928E-03
            3840            4153     36.5907E-03     37.9772E-03
            3841             479     38.2735E-03     38.2568E-03
            3841             480     31.5878E-03     30.7332E-03
            3841            4153     36.5907E-03     37.9772E-03
            3841            4154     31.8874E-03     31.5625E-03
            3842             480     31.5878E-03     30.7332E-03
            3842             481     24.1012E-03     22.7828E-03
            3842            4154     31.8874E-03     31.5625E-03
            3842            4155     26.7572E-03     25.9459E-03
            3843             481     24.1012E-03     22.7828E-03
            3843             482     29.4123E-03     33.0486E-03
            3843            4155     26.7572E-03     25.9459E-03
            3843            4156     27.1962E-03     32.9599E-03
            3844             482     29.4123E-03     33.0486E-03
            3844             483     39.3321E-03     38.7908E-03
            3844            4156     27.1962E-03     32.9599E-03
            3844            4157     34.4534E-03     34.3375E-03
            3845             483     39.3321E-03     38.7908E-03
            3845             484     31.6630E-03     29.8238E-03
            3845            4157     34.4534E-03     34.3375E-03
            3845            4158     29.1223E-03     26.9250E-03
            3846             484     31.6630E-03     29.8238E-03
            3846             485     22.0530E-03     23.7211E-03
            3846            4158     29.1223E-03     26.9250E-03
            3846            4159     18.9499E-03     21.4414E-03
            3847             485     22.0530E-03     23.7211E-03
            3847             486     17.2819E-03     16.6268E-03
            3847            4159     18.9499E-03     21.4414E-03
            3847            4160     14.1816E-03     13.3140E-03
            3848             486     17.2819E-03     16.6268E-03
            3848             487     13.0566E-03     13.2984E-03
            3848            4160     14.1816E-03     13.3140E-03
            3848            4161     9.28595E-03     9.11974E-03
            3849             487     13.0566E-03     13.2984E-03
            3849             488     11.7078E-03     13.7240E-03
            3849            4161     9.28595E-03     9.11974E-03
            3849            4162     6.99777E-03     9.10515E-03
            3850              17     6.03678E-03     8.10973E-03
            3850             418     3.58282E-03     5.56994E-03
            3850             488     11.7078E-03     13.7240E-03
            3850            4162     6.99777E-03     9.10515E-03
            4067              12     20.0550E-03     19.9916E-03
            4067             188     21.0230E-03     20.9022E-03
            4067             243     39.2962E-03     39.0192E-03
            4067            4328     41.2608E-03     40.9022E-03
            4068             242     39.3205E-03     39.2894E-03
            4068             243     39.2962E-03     39.0192E-03
            4068            4328     41.2608E-03     40.9022E-03
            4068            4329     41.2463E-03     41.1869E-03
            4069             241     39.7211E-03     39.4159E-03
            4069             242     39.3205E-03     39.2894E-03
            4069            4329     41.2463E-03     41.1869E-03
            4069            4330     41.4154E-03     41.2598E-03
            4070             240     39.7028E-03     39.0808E-03
            4070             241     39.7211E-03     39.4159E-03
            4070            4330     41.4154E-03     41.2598E-03
            4070            4331     41.3387E-03     40.6498E-03
            4071             239     39.1243E-03     38.9168E-03
            4071             240     39.7028E-03     39.0808E-03
            4071            4331     41.3387E-03     40.6498E-03
            4071            4332     40.6848E-03     40.3100E-03
            4072             238     39.3169E-03     38.8581E-03
            4072             239     39.1243E-03     38.9168E-03
            4072            4332     40.6848E-03     40.3100E-03
            4072            4333     40.6434E-03     40.2318E-03
            4073             237     39.6806E-03     38.9713E-03
            4073             238     39.3169E-03     38.8581E-03
            4073            4333     40.6434E-03     40.2318E-03
            4073            4334     40.8356E-03     40.1531E-03
            4074             236     39.9195E-03     39.2917E-03
            4074             237     39.6806E-03     38.9713E-03
            4074            4334     40.8356E-03     40.1531E-03
            4074            4335     40.8426E-03     40.3284E-03
            4075             235     40.1690E-03     39.6206E-03
            4075             236     39.9195E-03     39.2917E-03
            4075            4335     40.8426E-03     40.3284E-03
            4075            4336     40.7778E-03     40.4075E-03
            4076             234     40.3599E-03     40.1262E-03
            4076             235     40.1690E-03     39.6206E-03
            4076            4336     40.7778E-03     40.4075E-03
            4076            4337     40.7304E-03     40.6238E-03
            4077             233     40.7105E-03     40.7420E-03
            4077             234     40.3599E-03     40.1262E-03
            4077            4337     40.7304E-03     40.6238E-03
            4077            4338     40.8030E-03     40.8856E-03
            4078             232     41.0098E-03     41.1396E-03
            4078             233     40.7105E-03     40.7420E-03
            4078            4338     40.8030E-03     40.8856E-03
            4078            4339     40.8986E-03     40.9412E-03
            4079             231     40.9637E-03     42.2353E-03
            4079             232     41.0098E-03     41.1396E-03
            4079            4339     40.8986E-03     40.9412E-03
            4079            4340     40.6100E-03     41.3757E-03
            4080             230     42.9389E-03     42.5888E-03
            4080             231     40.9637E-03     42.2353E-03
            4080            4340     40.6100E-03     41.3757E-03
            4080            4341     41.4953E-03     41.5946E-03
            4081             229     42.8226E-03     41.7455E-03
            4081             230     42.9389E-03     42.5888E-03
            4081            4341     41.4953E-03     41.5946E-03
            4081            4342     41.5132E-03     40.0961E-03
            4082             228     40.2847E-03     41.1545E-03
            4082             229     42.8226E-03     41.7455E-03
            4082            4342     41.5132E-03     40.0961E-03
            4082            4343     39.7787E-03     39.5260E-03
            4083             227     40.5213E-03     39.9794E-03
            4083             228     40.2847E-03     41.1545E-03
            4083            4343     39.7787E-03     39.5260E-03
            4083            4344     39.1551E-03     39.1816E-03
            4084             226     41.5802E-03     39.9773E-03
            4084             227     40.5213E-03     39.9794E-03
            4084            4344     39.1551E-03     39.1816E-03
            4084            4345     39.6200E-03     38.3457E-03
            4085             225     42.2616E-03     41.0885E-03
            4085             226     41.5802E-03     39.9773E-03
            4085            4345     39.6200E-03     38.3457E-03
            4085            4346     39.9689E-03     38.8207E-03
            4086             224     42.8681E-03     41.7850E-03
            4086             225     42.2616E-03     41.0885E-03
            4086            4346     39.9689E-03     38.8207E-03
            4086            4347     39.8930E-03     39.2014E-03
            4087             223     43.4803E-03     42.7171E-03
            4087             224     42.8681E-03     41.7850E-03
            4087            4347     39.8930E-03     39.2014E-03
            4087            4348     39.9813E-03     39.5225E-03
            4088             222     43.8165E-03     43.9575E-03
            4088             223     43.4803E-03     42.7171E-03
            4088            4348     39.9813E-03     39.5225E-03
            4088            4349     40.0308E-03     40.0803E-03
            4089             221     44.5201E-03     45.0892E-03
            4089             222     43.8165E-03     43.9575E-03
            4089            4349     40.0308E-03     40.0803E-03
            4089            4350     40.2098E-03     40.5637E-03
            4090             220     45.0869E-03     45.7265E-03
            4090             221     44.5201E-03     45.0892E-03
            4090            4350     40.2098E-03     40.5637E-03
            4090            4351     40.3852E-03     40.7079E-03
            4091             219     44.9084E-03     47.6182E-03
            4091             220     45.0869E-03     45.7265E-03
            4091            4351     40.3852E-03     40.7079E-03
            4091            4352     39.8632E-03     41.4352E-03
            4092             218     48.3513E-03     47.7211E-03
            4092             219     44.9084E-03     47.6182E-03
            4092            4352     39.8632E-03     41.4352E-03
            4092            4353     41.3471E-03     41.6885E-03
            4093             217     47.8277E-03     46.3179E-03
            4093             218     48.3513E-03     47.7211E-03
            4093            4353     41.3471E-03     41.6885E-03
            4093            4354     41.3626E-03     39.3506E-03
            4094             216     43.6582E-03     46.4742E-03
            4094             217     47.8277E-03     46.3179E-03
            4094            4354     41.3626E-03     39.3506E-03
            4094            4355     39.0177E-03     39.2715E-03
            4095             215     45.3788E-03     44.7462E-03
            4095             216     43.6582E-03     46.4742E-03
            4095            4355     39.0177E-03     39.2715E-03
            4095            4356     38.7986E-03     39.1747E-03
            4096             214     47.2838E-03     44.9249E-03
            4096             215     45.3788E-03     44.7462E-03
            4096            4356     38.7986E-03     39.1747E-03
            4096            4357     39.4883E-03     37.7294E-03
            4097             213     47.7076E-03     46.9510E-03
            4097             214     47.2838E-03     44.9249E-03
            4097            4357     39.4883E-03     37.7294E-03
            4097            4358     40.1045E-03     38.6894E-03
            4098             212     48.6926E-03     47.6210E-03
            4098             213     47.7076E-03     46.9510E-03
            4098            4358     40.1045E-03     38.6894E-03
            4098            4359     39.9211E-03     39.1794E-03
            4099             211     49.2044E-03     49.0601E-03
            4099             212     48.6926E-03     47.6210E-03
            4099            4359     39.9211E-03     39.1794E-03
            4099            4360     39.9968E-03     39.7290E-03
            4100             210     49.9557E-03     50.4443E-03
            4100             211     49.2044E-03     49.0601E-03
            4100            4360     39.9968E-03     39.7290E-03
            4100            4361     40.2057E-03     40.4673E-03
            4101             209     50.5619E-03     51.0683E-03
            4101             210     49.9557E-03     50.4443E-03
            4101            4361     40.2057E-03     40.4673E-03
            4101            4362     40.2798E-03     40.6906E-03
            4102             208     50.0487E-03     53.5800E-03
            4102             209     50.5619E-03     51.0683E-03
            4102            4362     40.2798E-03     40.6906E-03
            4102            4363     39.4962E-03     41.6729E-03
            4103             207     54.5476E-03     53.3376E-03
            4103             208     50.0487E-03     53.5800E-03
            4103            4363     39.4962E-03     41.6729E-03
            4103            4364     41.4047E-03     41.8813E-03
            4104             206     53.4399E-03     51.6287E-03
            4104             207     54.5476E-03     53.3376E-03
            4104            4364     41.4047E-03     41.8813E-03
            4104            4365     41.3282E-03     38.9787E-03
            4105             205     44.5597E-03     47.1534E-03
            4105             206     53.4399E-03     51.6287E-03
            4105            4365     41.3282E-03     38.9787E-03
            4105            4366     33.3151E-03     32.5968E-03
            4106               9     50.9249E-03     57.2740E-03
            4106             205     44.5597E-03     47.1534E-03
            4106             630     48.9256E-03     49.1984E-03
            4106            4366     33.3151E-03     32.5968E-03
            4107             188     21.0230E-03     20.9022E-03
            4107             189     20.9120E-03     20.7928E-03
            4107            4328     41.2608E-03     40.9022E-03
            4107            4367     41.1287E-03     40.7084E-03
            4108            4328     41.2608E-03     40.9022E-03
            4108            4329     41.2463E-03     41.1869E-03
            4108            4367     41.1287E-03     40.7084E-03
            4108            4368     41.1977E-03     41.0893E-03
            4109            4329     41.2463E-03     41.1869E-03
            4109            4330     41.4154E-03     41.2598E-03
            4109            4368     41.1977E-03     41.0893E-03
            4109            4369     41.4162E-03     41.2263E-03
            4110            4330     41.4154E-03     41.2598E-03
            4110            4331     41.3387E-03     40.6498E-03
            4110            4369     41.4162E-03     41.2263E-03
            4110            4370     41.2739E-03     40.6724E-03
            4111            4331     41.3387E-03     40.6498E-03
            4111            4332     40.6848E-03     40.3100E-03
            4111            4370     41.2739E-03     40.6724E-03
            4111            4371     40.2165E-03     40.0583E-03
            4112            4332     40.6848E-03     40.3100E-03
            4112            4333     40.6434E-03     40.2318E-03
            4112            4371     40.2165E-03     40.0583E-03
            4112            4372     39.8901E-03     39.7597E-03
            4113            4333     40.6434E-03     40.2318E-03
            4113            4334     40.8356E-03     40.1531E-03
            4113            4372     39.8901E-03     39.7597E-03
            4113            4373     40.2325E-03     40.0316E-03
            4114            4334     40.8356E-03     40.1531E-03
            4114            4335     40.8426E-03     40.3284E-03
            4114            4373     40.2325E-03     40.0316E-03
            4114            4374     40.4650E-03     40.5937E-03
            4115            4335     40.8426E-03     40.3284E-03
            4115            4336     40.7778E-03     40.4075E-03
            4115            4374     40.4650E-03     40.5937E-03
            4115            4375     40.8505E-03     41.0827E-03
            4116            4336     40.7778E-03     40.4075E-03
            4116            4337     40.7304E-03     40.6238E-03
            4116            4375     40.8505E-03     41.0827E-03
            4116            4376     41.2903E-03     41.5869E-03
            4117            4337     40.7304E-03     40.6238E-03
            4117            4338     40.8030E-03     40.8856E-03
            4117            4376     41.2903E-03     41.5869E-03
            4117            4377     41.9875E-03     42.0017E-03
            4118            4338     40.8030E-03     40.8856E-03
            4118            4339     40.8986E-03     40.9412E-03
            4118            4377     41.9875E-03     42.0017E-03
            4118            4378     42.6113E-03     42.1402E-03
            4119            4339     40.8986E-03     40.9412E-03
            4119            4340     40.6100E-03     41.3757E-03
            4119            4378     42.6113E-03     42.1402E-03
            4119            4379     42.7078E-03     43.0480E-03
            4120            4340     40.6100E-03     41.3757E-03
            4120            4341     41.4953E-03     41.5946E-03
            4120            4379     42.7078E-03     43.0480E-03
            4120            4380     44.3814E-03     43.3389E-03
            4121            4341     41.4953E-03     41.5946E-03
            4121            4342     41.5132E-03     40.0961E-03
            4121            4380     44.3814E-03     43.3389E-03
            4121            4381     44.0317E-03     42.0187E-03
            4122            4342     41.5132E-03     40.0961E-03
            4122            4343     39.7787E-03     39.5260E-03
            4122            4381     44.0317E-03     42.0187E-03
            4122            4382     41.1387E-03     41.8742E-03
            4123            4343     39.7787E-03     39.5260E-03
            4123            4344     39.1551E-03     39.1816E-03
            4123            4382     41.1387E-03     41.8742E-03
            4123            4383     41.0223E-03     41.4258E-03
            4124            4344     39.1551E-03     39.1816E-03
            4124            4345     39.6200E-03     38.3457E-03
            4124            4383     41.0223E-03     41.4258E-03
            4124            4384     41.9931E-03     41.5056E-03
            4125            4345     39.6200E-03     38.3457E-03
            4125            4346     39.9689E-03     38.8207E-03
            4125            4384     41.9931E-03     41.5056E-03
            4125            4385     42.4765E-03     42.9902E-03
            4126            4346     39.9689E-03     38.8207E-03
            4126            4347     39.8930E-03     39.2014E-03
            4126            4385     42.4765E-03     42.9902E-03
            4126            4386     43.2477E-03     43.6984E-03
            4127            4347     39.8930E-03     39.2014E-03
            4127            4348     39.9813E-03     39.5225E-03
            4127            4386     43.2477E-03     43.6984E-03
            4127            4387     44.2412E-03     44.3393E-03
            4128            4348     39.9813E-03     39.5225E-03
            4128            4349     40.0308E-03     40.0803E-03
            4128            4387     44.2412E-03     44.3393E-03
            4128            4388     45.0263E-03     45.0498E-03
            4129            4349     40.0308E-03     40.0803E-03
            4129            4350     40.2098E-03     40.5637E-03
            4129            4388     45.0263E-03     45.0498E-03
            4129            4389     46.1860E-03     45.5747E-03
            4130            4350     40.2098E-03     40.5637E-03
            4130            4351     40.3852E-03     40.7079E-03
            4130            4389     46.1860E-03     45.5747E-03
            4130            4390     47.0372E-03     45.8344E-03
            4131            4351     40.3852E-03     40.7079E-03
            4131            4352     39.8632E-03     41.4352E-03
            4131            4390     47.0372E-03     45.8344E-03
            4131            4391     46.8557E-03     47.5079E-03
            4132            4352     39.8632E-03     41.4352E-03
            4132            4353     41.3471E-03     41.6885E-03
            4132            4391     46.8557E-03     47.5079E-03
            4132            4392     49.5100E-03     47.5586E-03
            4133            4353     41.3471E-03     41.6885E-03
            4133            4354     41.3626E-03     39.3506E-03
            4133            4392     49.5100E-03     47.5586E-03
            4133            4393     48.5279E-03     45.4267E-03
            4134            4354     41.3626E-03     39.3506E-03
            4134            4355     39.0177E-03     39.2715E-03
            4134            4393     48.5279E-03     45.4267E-03
            4134            4394     43.9691E-03     46.1933E-03
            4135            4355     39.0177E-03     39.2715E-03
            4135            4356     38.7986E-03     39.1747E-03
            4135            4394     43.9691E-03     46.1933E-03
            4135            4395     45.1266E-03     45.5501E-03
            4136            4356     38.7986E-03     39.1747E-03
            4136            4357     39.4883E-03     37.7294E-03
            4136            4395     45.1266E-03     45.5501E-03
            4136            4396     46.9703E-03     45.6107E-03
            4137            4357     39.4883E-03     37.7294E-03
            4137            4358     40.1045E-03     38.6894E-03
            4137            4396     46.9703E-03     45.6107E-03
            4137            4397     47.2764E-03     48.0198E-03
            4138            4358     40.1045E-03     38.6894E-03
            4138            4359     39.9211E-03     39.1794E-03
            4138            4397     47.2764E-03     48.0198E-03
            4138            4398     48.4745E-03     48.6015E-03
            4139            4359     39.9211E-03     39.1794E-03
            4139            4360     39.9968E-03     39.7290E-03
            4139            4398     48.4745E-03     48.6015E-03
            4139            4399     49.5352E-03     49.5253E-03
            4140            4360     39.9968E-03     39.7290E-03
            4140            4361     40.2057E-03     40.4673E-03
            4140            4399     49.5352E-03     49.5253E-03
            4140            4400     50.8301E-03     50.3349E-03
            4141            4361     40.2057E-03     40.4673E-03
            4141            4362     40.2798E-03     40.6906E-03
            4141            4400     50.8301E-03     50.3349E-03
            4141            4401     51.7213E-03     50.5340E-03
            4142            4362     40.2798E-03     40.6906E-03
            4142            4363     39.4962E-03     41.6729E-03
            4142            4401     51.7213E-03     50.5340E-03
            4142            4402     51.1693E-03     52.4972E-03
            4143            4363     39.4962E-03     41.6729E-03
            4143            4364     41.4047E-03     41.8813E-03
            4143            4402     51.1693E-03     52.4972E-03
            4143            4403     54.3213E-03     51.9998E-03
            4144            4364     41.4047E-03     41.8813E-03
            4144            4365     41.3282E-03     38.9787E-03
            4144            4403     54.3213E-03     51.9998E-03
            4144            4404     52.6757E-03     48.8921E-03
            4145            4365     41.3282E-03     38.9787E-03
            4145            4366     33.3151E-03     32.5968E-03
            4145            4404     52.6757E-03     48.8921E-03
            4145            4405     44.3223E-03     44.9768E-03
            4146             630     48.9256E-03     49.1984E-03
            4146             631     67.9339E-03     66.2320E-03
            4146            4366     33.3151E-03     32.5968E-03
            4146            4405     44.3223E-03     44.9768E-03
            4147             189     20.9120E-03     20.7928E-03
            4147             190     19.7765E-03     19.6361E-03
            4147            4367     41.1287E-03     40.7084E-03
            4147            4406     38.8842E-03     38.5371E-03
            4148            4367     41.1287E-03     40.7084E-03
            4148            4368     41.1977E-03     41.0893E-03
            4148            4406     38.8842E-03     38.5371E-03
            4148            4407     38.8551E-03     39.0420E-03
            4149            4368     41.1977E-03     41.0893E-03
            4149            4369     41.4162E-03     41.2263E-03
            4149            4407     38.8551E-03     39.0420E-03
            4149            4408     39.5841E-03     39.2792E-03
            4150            4369     41.4162E-03     41.2263E-03
            4150            4370     41.2739E-03     40.6724E-03
            4150            4408     39.5841E-03     39.2792E-03
            4150            4409     39.8216E-03     39.1399E-03
            4151            4370     41.2739E-03     40.6724E-03
            4151            4371     40.2165E-03     40.0583E-03
            4151            4409     39.8216E-03     39.1399E-03
            4151            4410     38.2056E-03     38.5529E-03
            4152            4371     40.2165E-03     40.0583E-03
            4152            4372     39.8901E-03     39.7597E-03
            4152            4410     38.2056E-03     38.5529E-03
            4152            4411     37.5482E-03     38.2247E-03
            4153            4372     39.8901E-03     39.7597E-03
            4153            4373     40.2325E-03     40.0316E-03
            4153            4411     37.5482E-03     38.2247E-03
            4153            4412     38.2155E-03     39.1454E-03
            4154            4373     40.2325E-03     40.0316E-03
            4154            4374     40.4650E-03     40.5937E-03
            4154            4412     38.2155E-03     39.1454E-03
            4154            4413     39.2161E-03     40.2736E-03
            4155            4374     40.4650E-03     40.5937E-03
            4155            4375     40.8505E-03     41.0827E-03
            4155            4413     39.2161E-03     40.2736E-03
            4155            4414     40.4380E-03     41.0318E-03
            4156            4375     40.8505E-03     41.0827E-03
            4156            4376     41.2903E-03     41.5869E-03
            4156            4414     40.4380E-03     41.0318E-03
            4156            4415     41.6808E-03     41.9280E-03
            4157            4376     41.2903E-03     41.5869E-03
            4157            4377     41.9875E-03     42.0017E-03
            4157            4415     41.6808E-03     41.9280E-03
            4157            4416     43.2255E-03     42.8300E-03
            4158            4377     41.9875E-03     42.0017E-03
            4158            4378     42.6113E-03     42.1402E-03
            4158            4416     43.2255E-03     42.8300E-03
            4158            4417     44.6526E-03     43.6330E-03
            4159            4378     42.6113E-03     42.1402E-03
            4159            4379     42.7078E-03     43.0480E-03
            4159            4417     44.6526E-03     43.6330E-03
            4159            4418     45.5378E-03     45.9865E-03
            4160            4379     42.7078E-03     43.0480E-03
            4160            4380     44.3814E-03     43.3389E-03
            4160            4418     45.5378E-03     45.9865E-03
            4160            4419     49.8971E-03     46.6346E-03
            4161            4380     44.3814E-03     43.3389E-03
            4161            4381     44.0317E-03     42.0187E-03
            4161            4419     49.8971E-03     46.6346E-03
            4161            4420     49.6179E-03     47.1783E-03
            4162            4381     44.0317E-03     42.0187E-03
            4162            4382     41.1387E-03     41.8742E-03
            4162            4420     49.6179E-03     47.1783E-03
            4162            4421     44.5597E-03     48.9305E-03
            4163            4382     41.1387E-03     41.8742E-03
            4163            4383     41.0223E-03     41.4258E-03
            4163            4421     44.5597E-03     48.9305E-03
            4163            4422     46.6144E-03     47.7767E-03
            4164            4383     41.0223E-03     41.4258E-03
            4164            4384     41.9931E-03     41.5056E-03
            4164            4422     46.6144E-03     47.7767E-03
            4164            4423     48.7508E-03     48.9996E-03
            4165            4384     41.9931E-03     41.5056E-03
            4165            4385     42.4765E-03     42.9902E-03
            4165            4423     48.7508E-03     48.9996E-03
            4165            4424     48.8657E-03     51.3693E-03
            4166            4385     42.4765E-03     42.9902E-03
            4166            4386     43.2477E-03     43.6984E-03
            4166            4424     48.8657E-03     51.3693E-03
            4166            4425     50.7779E-03     51.6201E-03
            4167            4386     43.2477E-03     43.6984E-03
            4167            4387     44.2412E-03     44.3393E-03
            4167            4425     50.7779E-03     51.6201E-03
            4167            4426     52.5115E-03     52.5115E-03
            4168            4387     44.2412E-03     44.3393E-03
            4168            4388     45.0263E-03     45.0498E-03
            4168            4426     52.5115E-03     52.5115E-03
            4168            4427     54.0211E-03     53.9634E-03
            4169            4388     45.0263E-03     45.0498E-03
            4169            4389     46.1860E-03     45.5747E-03
            4169            4427     54.0211E-03     53.9634E-03
            4169            4428     56.4972E-03     55.2006E-03
            4170            4389     46.1860E-03     45.5747E-03
            4170            4390     47.0372E-03     45.8344E-03
            4170            4428     56.4972E-03     55.2006E-03
            4170            4429     58.6638E-03     56.5547E-03
            4171            4390     47.0372E-03     45.8344E-03
            4171            4391     46.8557E-03     47.5079E-03
            4171            4429     58.6638E-03     56.5547E-03
            4171            4430     59.6826E-03     60.8569E-03
            4172            4391     46.8557E-03     47.5079E-03
            4172            4392     49.5100E-03     47.5586E-03
            4172            4430     59.6826E-03     60.8569E-03
            4172            4431     66.8796E-03     61.2096E-03
            4173            4392     49.5100E-03     47.5586E-03
            4173            4393     48.5279E-03     45.4267E-03
            4173            4431     66.8796E-03     61.2096E-03
            4173            4432     65.3622E-03     61.8208E-03
            4174            4393     48.5279E-03     45.4267E-03
            4174            4394     43.9691E-03     46.1933E-03
            4174            4432     65.3622E-03     61.8208E-03
            4174            4433     56.2312E-03     65.4354E-03
            4175            4394     43.9691E-03     46.1933E-03
            4175            4395     45.1266E-03     45.5501E-03
            4175            4433     56.2312E-03     65.4354E-03
            4175            4434     61.7368E-03     62.4257E-03
            4176            4395     45.1266E-03     45.5501E-03
            4176            4396     46.9703E-03     45.6107E-03
            4176            4434     61.7368E-03     62.4257E-03
            4176            4435     65.4282E-03     63.8071E-03
            4177            4396     46.9703E-03     45.6107E-03
            4177            4397     47.2764E-03     48.0198E-03
            4177            4435     65.4282E-03     63.8071E-03
            4177            4436     63.8385E-03     67.1543E-03
            4178            4397     47.2764E-03     48.0198E-03
            4178            4398     48.4745E-03     48.6015E-03
            4178            4436     63.8385E-03     67.1543E-03
            4178            4437     66.1914E-03     66.2475E-03
            4179            4398     48.4745E-03     48.6015E-03
            4179            4399     49.5352E-03     49.5253E-03
            4179            4437     66.1914E-03     66.2475E-03
            4179            4438     67.8535E-03     67.5513E-03
            4180            4399     49.5352E-03     49.5253E-03
            4180            4400     50.8301E-03     50.3349E-03
            4180            4438     67.8535E-03     67.5513E-03
            4180            4439     70.1767E-03     68.8443E-03
            4181            4400     50.8301E-03     50.3349E-03
            4181            4401     51.7213E-03     50.5340E-03
            4181            4439     70.1767E-03     68.8443E-03
            4181            4440     72.5549E-03     69.8808E-03
            4182            4401     51.7213E-03     50.5340E-03
            4182            4402     51.1693E-03     52.4972E-03
            4182            4440     72.5549E-03     69.8808E-03
            4182            4441     73.3422E-03     75.1726E-03
            4183            4402     51.1693E-03     52.4972E-03
            4183            4403     54.3213E-03     51.9998E-03
            4183            4441     73.3422E-03     75.1726E-03
            4183            4442     82.1699E-03     74.8379E-03
            4184            4403     54.3213E-03     51.9998E-03
            4184            4404     52.6757E-03     48.8921E-03
            4184            4442     82.1699E-03     74.8379E-03
            4184            4443     79.4258E-03     75.0276E-03
            4185            4404     52.6757E-03     48.8921E-03
            4185            4405     44.3223E-03     44.9768E-03
            4185            4443     79.4258E-03     75.0276E-03
            4185            4444     67.7903E-03     74.2171E-03
            4186             631     67.9339E-03     66.2320E-03
            4186             632     96.9182E-03     95.7850E-03
            4186            4405     44.3223E-03     44.9768E-03
            4186            4444     67.7903E-03     74.2171E-03
            4187             190     19.7765E-03     19.6361E-03
            4187             191     17.4467E-03     17.3505E-03
            4187            4406     38.8842E-03     38.5371E-03
            4187            4445     34.2782E-03     34.2274E-03
            4188            4406     38.8842E-03     38.5371E-03
            4188            4407     38.8551E-03     39.0420E-03
            4188            4445     34.2782E-03     34.2274E-03
            4188            4446     34.5152E-03     35.3936E-03
            4189            4407     38.8551E-03     39.0420E-03
            4189            4408     39.5841E-03     39.2792E-03
            4189            4446     34.5152E-03     35.3936E-03
            4189            4447     35.9885E-03     35.4543E-03
            4190            4408     39.5841E-03     39.2792E-03
            4190            4409     39.8216E-03     39.1399E-03
            4190            4447     35.9885E-03     35.4543E-03
            4190            4448     36.3287E-03     35.5430E-03
            4191            4409     39.8216E-03     39.1399E-03
            4191            4410     38.2056E-03     38.5529E-03
            4191            4448     36.3287E-03     35.5430E-03
            4191            4449     34.6618E-03     36.2406E-03
            4192            4410     38.2056E-03     38.5529E-03
            4192            4411     37.5482E-03     38.2247E-03
            4192            4449     34.6618E-03     36.2406E-03
            4192            4450     34.8368E-03     36.5224E-03
            4193            4411     37.5482E-03     38.2247E-03
            4193            4412     38.2155E-03     39.1454E-03
            4193            4450     34.8368E-03     36.5224E-03
            4193            4451     36.0434E-03     37.6093E-03
            4194            4412     38.2155E-03     39.1454E-03
            4194            4413     39.2161E-03     40.2736E-03
            4194            4451     36.0434E-03     37.6093E-03
            4194            4452     37.3234E-03     38.5213E-03
            4195            4413     39.2161E-03     40.2736E-03
            4195            4414     40.4380E-03     41.0318E-03
            4195            4452     37.3234E-03     38.5213E-03
            4195            4453     39.1685E-03     39.2732E-03
            4196            4414     40.4380E-03     41.0318E-03
            4196            4415     41.6808E-03     41.9280E-03
            4196            4453     39.1685E-03     39.2732E-03
            4196            4454     40.8988E-03     41.1316E-03
            4197            4415     41.6808E-03     41.9280E-03
            4197            4416     43.2255E-03     42.8300E-03
            4197            4454     40.8988E-03     41.1316E-03
            4197            4455     43.5593E-03     43.2007E-03
            4198            4416     43.2255E-03     42.8300E-03
            4198            4417     44.6526E-03     43.6330E-03
            4198            4455     43.5593E-03     43.2007E-03
            4198            4456     46.0972E-03     45.4119E-03
            4199            4417     44.6526E-03     43.6330E-03
            4199            4418     45.5378E-03     45.9865E-03
            4199            4456     46.0972E-03     45.4119E-03
            4199            4457     47.8017E-03     50.3301E-03
            4200            4418     45.5378E-03     45.9865E-03
            4200            4419     49.8971E-03     46.6346E-03
            4200            4457     47.8017E-03     50.3301E-03
            4200            4458     55.7106E-03     50.9320E-03
            4201            4419     49.8971E-03     46.6346E-03
            4201            4420     49.6179E-03     47.1783E-03
            4201            4458     55.7106E-03     50.9320E-03
            4201            4459     55.8132E-03     54.0387E-03
            4202            4420     49.6179E-03     47.1783E-03
            4202            4421     44.5597E-03     48.9305E-03
            4202            4459     55.8132E-03     54.0387E-03
            4202            4460     49.2607E-03     60.0775E-03
            4203            4421     44.5597E-03     48.9305E-03
            4203            4422     46.6144E-03     47.7767E-03
            4203            4460     49.2607E-03     60.0775E-03
            4203            4461     55.0830E-03     57.2326E-03
            4204            4422     46.6144E-03     47.7767E-03
            4204            4423     48.7508E-03     48.9996E-03
            4204            4461     55.0830E-03     57.2326E-03
            4204            4462     57.9275E-03     57.4845E-03
            4205            4423     48.7508E-03     48.9996E-03
            4205            4424     48.8657E-03     51.3693E-03
            4205            4462     57.9275E-03     57.4845E-03
            4205            4463     56.1174E-03     59.6001E-03
            4206            4424     48.8657E-03     51.3693E-03
            4206            4425     50.7779E-03     51.6201E-03
            4206            4463     56.1174E-03     59.6001E-03
            4206            4464     58.5261E-03     59.2194E-03
            4207            4425     50.7779E-03     51.6201E-03
            4207            4426     52.5115E-03     52.5115E-03
            4207            4464     58.5261E-03     59.2194E-03
            4207            4465     60.6287E-03     61.1067E-03
            4208            4426     52.5115E-03     52.5115E-03
            4208            4427     54.0211E-03     53.9634E-03
            4208            4465     60.6287E-03     61.1067E-03
            4208            4466     62.5391E-03     63.9932E-03
            4209            4427     54.0211E-03     53.9634E-03
            4209            4428     56.4972E-03     55.2006E-03
            4209            4466     62.5391E-03     63.9932E-03
            4209            4467     66.5346E-03     66.5629E-03
            4210            4428     56.4972E-03     55.2006E-03
            4210            4429     58.6638E-03     56.5547E-03
            4210            4467     66.5346E-03     66.5629E-03
            4210            4468     69.9457E-03     69.3486E-03
            4211            4429     58.6638E-03     56.5547E-03
            4211            4430     59.6826E-03     60.8569E-03
            4211            4468     69.9457E-03     69.3486E-03
            4211            4469     71.9113E-03     76.7845E-03
            4212            4430     59.6826E-03     60.8569E-03
            4212            4431     66.8796E-03     61.2096E-03
            4212            4469     71.9113E-03     76.7845E-03
            4212            4470     84.6226E-03     76.6376E-03
            4213            4431     66.8796E-03     61.2096E-03
            4213            4432     65.3622E-03     61.8208E-03
            4213            4470     84.6226E-03     76.6376E-03
            4213            4471     83.5541E-03     81.1509E-03
            4214            4432     65.3622E-03     61.8208E-03
            4214            4433     56.2312E-03     65.4354E-03
            4214            4471     83.5541E-03     81.1509E-03
            4214            4472     70.9360E-03     90.9482E-03
            4215            4433     56.2312E-03     65.4354E-03
            4215            4434     61.7368E-03     62.4257E-03
            4215            4472     70.9360E-03     90.9482E-03
            4215            4473     81.9022E-03     83.6791E-03
            4216            4434     61.7368E-03     62.4257E-03
            4216            4435     65.4282E-03     63.8071E-03
            4216            4473     81.9022E-03     83.6791E-03
            4216            4474     86.0805E-03     82.7601E-03
            4217            4435     65.4282E-03     63.8071E-03
            4217            4436     63.8385E-03     67.1543E-03
            4217            4474     86.0805E-03     82.7601E-03
            4217            4475     80.4044E-03     85.8385E-03
            4218            4436     63.8385E-03     67.1543E-03
            4218            4437     66.1914E-03     66.2475E-03
            4218            4475     80.4044E-03     85.8385E-03
            4218            4476     83.0836E-03     83.2884E-03
            4219            4437     66.1914E-03     66.2475E-03
            4219            4438     67.8535E-03     67.5513E-03
            4219            4476     83.0836E-03     83.2884E-03
            4219            4477     84.5542E-03     85.9431E-03
            4220            4438     67.8535E-03     67.5513E-03
            4220            4439     70.1767E-03     68.8443E-03
            4220            4477     84.5542E-03     85.9431E-03
            4220            4478     87.7802E-03     88.3793E-03
            4221            4439     70.1767E-03     68.8443E-03
            4221            4440     72.5549E-03     69.8808E-03
            4221            4478     87.7802E-03     88.3793E-03
            4221            4479     91.5328E-03     90.4717E-03
            4222            4440     72.5549E-03     69.8808E-03
            4222            4441     73.3422E-03     75.1726E-03
            4222            4479     91.5328E-03     90.4717E-03
            4222            4480     93.2223E-03     99.5687E-03
            4223            4441     73.3422E-03     75.1726E-03
            4223            4442     82.1699E-03     74.8379E-03
            4223            4480     93.2223E-03     99.5687E-03
            4223            4481     109.158E-03     98.6787E-03
            4224            4442     82.1699E-03     74.8379E-03
            4224            4443     79.4258E-03     75.0276E-03
            4224            4481     109.158E-03     98.6787E-03
            4224            4482     107.060E-03     104.130E-03
            4225            4443     79.4258E-03     75.0276E-03
            4225            4444     67.7903E-03     74.2171E-03
            4225            4482     107.060E-03     104.130E-03
            4225            4483     91.3013E-03     105.762E-03
            4226             632     96.9182E-03     95.7850E-03
            4226             633     124.159E-03     125.589E-03
            4226            4444     67.7903E-03     74.2171E-03
            4226            4483     91.3013E-03     105.762E-03
            4227             191     17.4467E-03     17.3505E-03
            4227             192     14.0758E-03     14.2775E-03
            4227            4445     34.2782E-03     34.2274E-03
            4227            4484     27.9095E-03     27.9100E-03
            4228            4445     34.2782E-03     34.2274E-03
            4228            4446     34.5152E-03     35.3936E-03
            4228            4484     27.9095E-03     27.9100E-03
            4228            4485     27.9720E-03     28.6026E-03
            4229            4446     34.5152E-03     35.3936E-03
            4229            4447     35.9885E-03     35.4543E-03
            4229            4485     27.9720E-03     28.6026E-03
            4229            4486     30.5025E-03     28.9572E-03
            4230            4447     35.9885E-03     35.4543E-03
            4230            4448     36.3287E-03     35.5430E-03
            4230            4486     30.5025E-03     28.9572E-03
            4230            4487     31.0655E-03     31.0268E-03
            4231            4448     36.3287E-03     35.5430E-03
            4231            4449     34.6618E-03     36.2406E-03
            4231            4487     31.0655E-03     31.0268E-03
            4231            4488     30.7554E-03     33.6244E-03
            4232            4449     34.6618E-03     36.2406E-03
            4232            4450     34.8368E-03     36.5224E-03
            4232            4488     30.7554E-03     33.6244E-03
            4232            4489     33.3783E-03     34.0276E-03
            4233            4450     34.8368E-03     36.5224E-03
            4233            4451     36.0434E-03     37.6093E-03
            4233            4489     33.3783E-03     34.0276E-03
            4233            4490     33.5597E-03     34.1581E-03
            4234            4451     36.0434E-03     37.6093E-03
            4234            4452     37.3234E-03     38.5213E-03
            4234            4490     33.5597E-03     34.1581E-03
            4234            4491     34.1830E-03     34.7711E-03
            4235            4452     37.3234E-03     38.5213E-03
            4235            4453     39.1685E-03     39.2732E-03
            4235            4491     34.1830E-03     34.7711E-03
            4235            4492     36.5625E-03     36.6638E-03
            4236            4453     39.1685E-03     39.2732E-03
            4236            4454     40.8988E-03     41.1316E-03
            4236            4492     36.5625E-03     36.6638E-03
            4236            4493     39.0688E-03     40.2247E-03
            4237            4454     40.8988E-03     41.1316E-03
            4237            4455     43.5593E-03     43.2007E-03
            4237            4493     39.0688E-03     40.2247E-03
            4237            4494     43.1780E-03     44.0431E-03
            4238            4455     43.5593E-03     43.2007E-03
            4238            4456     46.0972E-03     45.4119E-03
            4238            4494     43.1780E-03     44.0431E-03
            4238            4495     47.5254E-03     47.8707E-03
            4239            4456     46.0972E-03     45.4119E-03
            4239            4457     47.8017E-03     50.3301E-03
            4239            4495     47.5254E-03     47.8707E-03
            4239            4496     50.1639E-03     55.4992E-03
            4240            4457     47.8017E-03     50.3301E-03
            4240            4458     55.7106E-03     50.9320E-03
            4240            4496     50.1639E-03     55.4992E-03
            4240            4497     61.5533E-03     57.1968E-03
            4241            4458     55.7106E-03     50.9320E-03
            4241            4459     55.8132E-03     54.0387E-03
            4241            4497     61.5533E-03     57.1968E-03
            4241            4498     61.9381E-03     61.9383E-03
            4242            4459     55.8132E-03     54.0387E-03
            4242            4460     49.2607E-03     60.0775E-03
            4242            4498     61.9381E-03     61.9383E-03
            4242            4499     54.9194E-03     70.1282E-03
            4243            4460     49.2607E-03     60.0775E-03
            4243            4461     55.0830E-03     57.2326E-03
            4243            4499     54.9194E-03     70.1282E-03
            4243            4500     64.0381E-03     64.9436E-03
            4244            4461     55.0830E-03     57.2326E-03
            4244            4462     57.9275E-03     57.4845E-03
            4244            4500     64.0381E-03     64.9436E-03
            4244            4501     65.0367E-03     63.6760E-03
            4245            4462     57.9275E-03     57.4845E-03
            4245            4463     56.1174E-03     59.6001E-03
            4245            4501     65.0367E-03     63.6760E-03
            4245            4502     61.4971E-03     65.8424E-03
            4246            4463     56.1174E-03     59.6001E-03
            4246            4464     58.5261E-03     59.2194E-03
            4246            4502     61.4971E-03     65.8424E-03
            4246            4503     64.8693E-03     66.4022E-03
            4247            4464     58.5261E-03     59.2194E-03
            4247            4465     60.6287E-03     61.1067E-03
            4247            4503     64.8693E-03     66.4022E-03
            4247            4504     67.7639E-03     70.1320E-03
            4248            4465     60.6287E-03     61.1067E-03
            4248            4466     62.5391E-03     63.9932E-03
            4248            4504     67.7639E-03     70.1320E-03
            4248            4505     70.5817E-03     74.4545E-03
            4249            4466     62.5391E-03     63.9932E-03
            4249            4467     66.5346E-03     66.5629E-03
            4249            4505     70.5817E-03     74.4545E-03
            4249            4506     75.8255E-03     78.6232E-03
            4250            4467     66.5346E-03     66.5629E-03
            4250            4468     69.9457E-03     69.3486E-03
            4250            4506     75.8255E-03     78.6232E-03
            4250            4507     80.7639E-03     82.3802E-03
            4251            4468     69.9457E-03     69.3486E-03
            4251            4469     71.9113E-03     76.7845E-03
            4251            4507     80.7639E-03     82.3802E-03
            4251            4508     82.7532E-03     92.3105E-03
            4252            4469     71.9113E-03     76.7845E-03
            4252            4470     84.6226E-03     76.6376E-03
            4252            4508     82.7532E-03     92.3105E-03
            4252            4509     99.5481E-03     92.7014E-03
            4253            4470     84.6226E-03     76.6376E-03
            4253            4471     83.5541E-03     81.1509E-03
            4253            4509     99.5481E-03     92.7014E-03
            4253            4510     99.1575E-03     99.1623E-03
            4254            4471     83.5541E-03     81.1509E-03
            4254            4472     70.9360E-03     90.9482E-03
            4254            4510     99.1575E-03     99.1623E-03
            4254            4511     85.1404E-03     112.117E-03
            4255            4472     70.9360E-03     90.9482E-03
            4255            4473     81.9022E-03     83.6791E-03
            4255            4511     85.1404E-03     112.117E-03
            4255            4512     100.168E-03     101.168E-03
            4256            4473     81.9022E-03     83.6791E-03
            4256            4474     86.0805E-03     82.7601E-03
            4256            4512     100.168E-03     101.168E-03
            4256            4513     101.791E-03     98.0274E-03
            4257            4474     86.0805E-03     82.7601E-03
            4257            4475     80.4044E-03     85.8385E-03
            4257            4513     101.791E-03     98.0274E-03
            4257            4514     93.0203E-03     101.346E-03
            4258            4475     80.4044E-03     85.8385E-03
            4258            4476     83.0836E-03     83.2884E-03
            4258            4514     93.0203E-03     101.346E-03
            4258            4515     97.3708E-03     99.3656E-03
            4259            4476     83.0836E-03     83.2884E-03
            4259            4477     84.5542E-03     85.9431E-03
            4259            4515     97.3708E-03     99.3656E-03
            4259            4516     99.0506E-03     104.077E-03
            4260            4477     84.5542E-03     85.9431E-03
            4260            4478     87.7802E-03     88.3793E-03
            4260            4516     99.0506E-03     104.077E-03
            4260            4517     103.257E-03     107.948E-03
            4261            4478     87.7802E-03     88.3793E-03
            4261            4479     91.5328E-03     90.4717E-03
            4261            4517     103.257E-03     107.948E-03
            4261            4518     108.669E-03     110.774E-03
            4262            4479     91.5328E-03     90.4717E-03
            4262            4480     93.2223E-03     99.5687E-03
            4262            4518     108.669E-03     110.774E-03
            4262            4519     109.758E-03     122.502E-03
            4263            4480     93.2223E-03     99.5687E-03
            4263            4481     109.158E-03     98.6787E-03
            4263            4519     109.758E-03     122.502E-03
            4263            4520     130.751E-03     121.974E-03
            4264            4481     109.158E-03     98.6787E-03
            4264            4482     107.060E-03     104.130E-03
            4264            4520     130.751E-03     121.974E-03
            4264            4521     129.964E-03     130.076E-03
            4265            4482     107.060E-03     104.130E-03
            4265            4483     91.3013E-03     105.762E-03
            4265            4521     129.964E-03     130.076E-03
            4265            4522     110.638E-03     131.499E-03
            4266             633     124.159E-03     125.589E-03
            4266             634     141.513E-03     150.204E-03
            4266            4483     91.3013E-03     105.762E-03
            4266            4522     110.638E-03     131.499E-03
            4267             192     14.0758E-03     14.2775E-03
            4267             193     10.0354E-03     11.3790E-03
            4267            4484     27.9095E-03     27.9100E-03
            4267            4523     18.1176E-03     19.1794E-03
            4268            4484     27.9095E-03     27.9100E-03
            4268            4485     27.9720E-03     28.6026E-03
            4268            4523     18.1176E-03     19.1794E-03
            4268            4524     17.3195E-03     17.1605E-03
            4269            4485     27.9720E-03     28.6026E-03
            4269            4486     30.5025E-03     28.9572E-03
            4269            4524     17.3195E-03     17.1605E-03
            4269            4525     22.7589E-03     19.7923E-03
            4270            4486     30.5025E-03     28.9572E-03
            4270            4487     31.0655E-03     31.0268E-03
            4270            4525     22.7589E-03     19.7923E-03
            4270            4526     26.9282E-03     27.9369E-03
            4271            4487     31.0655E-03     31.0268E-03
            4271            4488     30.7554E-03     33.6244E-03
            4271            4526     26.9282E-03     27.9369E-03
            4271            4527     27.4325E-03     30.5272E-03
            4272            4488     30.7554E-03     33.6244E-03
            4272            4489     33.3783E-03     34.0276E-03
            4272            4527     27.4325E-03     30.5272E-03
            4272            4528     28.5405E-03     26.8665E-03
            4273            4489     33.3783E-03     34.0276E-03
            4273            4490     33.5597E-03     34.1581E-03
            4273            4528     28.5405E-03     26.8665E-03
            4273            4529     28.2456E-03     27.0908E-03
            4274            4490     33.5597E-03     34.1581E-03
            4274            4491     34.1830E-03     34.7711E-03
            4274            4529     28.2456E-03     27.0908E-03
            4274            4530     30.1020E-03     29.6274E-03
            4275            4491     34.1830E-03     34.7711E-03
            4275            4492     36.5625E-03     36.6638E-03
            4275            4530     30.1020E-03     29.6274E-03
            4275            4531     34.0053E-03     34.0279E-03
            4276            4492     36.5625E-03     36.6638E-03
            4276            4493     39.0688E-03     40.2247E-03
            4276            4531     34.0053E-03     34.0279E-03
            4276            4532     38.5154E-03     39.1813E-03
            4277            4493     39.0688E-03     40.2247E-03
            4277            4494     43.1780E-03     44.0431E-03
            4277            4532     38.5154E-03     39.1813E-03
            4277            4533     43.8270E-03     44.7738E-03
            4278            4494     43.1780E-03     44.0431E-03
            4278            4495     47.5254E-03     47.8707E-03
            4278            4533     43.8270E-03     44.7738E-03
            4278            4534     49.8967E-03     49.7963E-03
            4279            4495     47.5254E-03     47.8707E-03
            4279            4496     50.1639E-03     55.4992E-03
            4279            4534     49.8967E-03     49.7963E-03
            4279            4535     54.0028E-03     58.5607E-03
            4280            4496     50.1639E-03     55.4992E-03
            4280            4497     61.5533E-03     57.1968E-03
            4280            4535     54.0028E-03     58.5607E-03
            4280            4536     66.2757E-03     62.4734E-03
            4281            4497     61.5533E-03     57.1968E-03
            4281            4498     61.9381E-03     61.9383E-03
            4281            4536     66.2757E-03     62.4734E-03
            4281            4537     70.1317E-03     70.2291E-03
            4282            4498     61.9381E-03     61.9383E-03
            4282            4499     54.9194E-03     70.1282E-03
            4282            4537     70.1317E-03     70.2291E-03
            4282            4538     62.3352E-03     73.6775E-03
            4283            4499     54.9194E-03     70.1282E-03
            4283            4500     64.0381E-03     64.9436E-03
            4283            4538     62.3352E-03     73.6775E-03
            4283            4539     66.6303E-03     63.4495E-03
            4284            4500     64.0381E-03     64.9436E-03
            4284            4501     65.0367E-03     63.6760E-03
            4284            4539     66.6303E-03     63.4495E-03
            4284            4540     67.0766E-03     64.1872E-03
            4285            4501     65.0367E-03     63.6760E-03
            4285            4502     61.4971E-03     65.8424E-03
            4285            4540     67.0766E-03     64.1872E-03
            4285            4541     65.9262E-03     68.3413E-03
            4286            4502     61.4971E-03     65.8424E-03
            4286            4503     64.8693E-03     66.4022E-03
            4286            4541     65.9262E-03     68.3413E-03
            4286            4542     70.9925E-03     71.2923E-03
            4287            4503     64.8693E-03     66.4022E-03
            4287            4504     67.7639E-03     70.1320E-03
            4287            4542     70.9925E-03     71.2923E-03
            4287            4543     75.1924E-03     76.5891E-03
            4288            4504     67.7639E-03     70.1320E-03
            4288            4505     70.5817E-03     74.4545E-03
            4288            4543     75.1924E-03     76.5891E-03
            4288            4544     79.7062E-03     81.7950E-03
            4289            4505     70.5817E-03     74.4545E-03
            4289            4506     75.8255E-03     78.6232E-03
            4289            4544     79.7062E-03     81.7950E-03
            4289            4545     85.2195E-03     87.2547E-03
            4290            4506     75.8255E-03     78.6232E-03
            4290            4507     80.7639E-03     82.3802E-03
            4290            4545     85.2195E-03     87.2547E-03
            4290            4546     91.4263E-03     91.6405E-03
            4291            4507     80.7639E-03     82.3802E-03
            4291            4508     82.7532E-03     92.3105E-03
            4291            4546     91.4263E-03     91.6405E-03
            4291            4547     94.2018E-03     101.749E-03
            4292            4508     82.7532E-03     92.3105E-03
            4292            4509     99.5481E-03     92.7014E-03
            4292            4547     94.2018E-03     101.749E-03
            4292            4548     110.137E-03     104.261E-03
            4293            4509     99.5481E-03     92.7014E-03
            4293            4510     99.1575E-03     99.1623E-03
            4293            4548     110.137E-03     104.261E-03
            4293            4549     113.728E-03     112.972E-03
            4294            4510     99.1575E-03     99.1623E-03
            4294            4511     85.1404E-03     112.117E-03
            4294            4549     113.728E-03     112.972E-03
            4294            4550     100.501E-03     120.449E-03
            4295            4511     85.1404E-03     112.117E-03
            4295            4512     100.168E-03     101.168E-03
            4295            4550     100.501E-03     120.449E-03
            4295            4551     109.453E-03     105.443E-03
            4296            4512     100.168E-03     101.168E-03
            4296            4513     101.791E-03     98.0274E-03
            4296            4551     109.453E-03     105.443E-03
            4296            4552     109.691E-03     104.813E-03
            4297            4513     101.791E-03     98.0274E-03
            4297            4514     93.0203E-03     101.346E-03
            4297            4552     109.691E-03     104.813E-03
            4297            4553     104.466E-03     109.871E-03
            4298            4514     93.0203E-03     101.346E-03
            4298            4515     97.3708E-03     99.3656E-03
            4298            4553     104.466E-03     109.871E-03
            4298            4554     110.467E-03     110.882E-03
            4299            4515     97.3708E-03     99.3656E-03
            4299            4516     99.0506E-03     104.077E-03
            4299            4554     110.467E-03     110.882E-03
            4299            4555     113.801E-03     116.721E-03
            4300            4516     99.0506E-03     104.077E-03
            4300            4517     103.257E-03     107.948E-03
            4300            4555     113.801E-03     116.721E-03
            4300            4556     118.639E-03     121.823E-03
            4301            4517     103.257E-03     107.948E-03
            4301            4518     108.669E-03     110.774E-03
            4301            4556     118.639E-03     121.823E-03
            4301            4557     125.050E-03     125.374E-03
            4302            4518     108.669E-03     110.774E-03
            4302            4519     109.758E-03     122.502E-03
            4302            4557     125.050E-03     125.374E-03
            4302            4558     126.742E-03     136.633E-03
            4303            4519     109.758E-03     122.502E-03
            4303            4520     130.751E-03     121.974E-03
            4303            4558     126.742E-03     136.633E-03
            4303            4559     145.737E-03     138.171E-03
            4304            4520     130.751E-03     121.974E-03
            4304            4521     129.964E-03     130.076E-03
            4304            4559     145.737E-03     138.171E-03
            4304            4560     149.490E-03     148.013E-03
            4305            4521     129.964E-03     130.076E-03
            4305            4522     110.638E-03     131.499E-03
            4305            4560     149.490E-03     148.013E-03
            4305            4561     129.992E-03     147.778E-03
            4306             634     141.513E-03     150.204E-03
            4306             635     149.498E-03     163.446E-03
            4306            4522     110.638E-03     131.499E-03
            4306            4561     129.992E-03     147.778E-03
            4307              13     7.81494E-03     10.1250E-03
            4307             193     10.0354E-03     11.3790E-03
            4307             674     11.7158E-03     13.9945E-03
            4307            4523     18.1176E-03     19.1794E-03
            4308             673     10.6904E-03     10.3308E-03
            4308             674     11.7158E-03     13.9945E-03
            4308            4523     18.1176E-03     19.1794E-03
            4308            4524     17.3195E-03     17.1605E-03
            4309             672     18.3288E-03     14.7493E-03
            4309             673     10.6904E-03     10.3308E-03
            4309            4524     17.3195E-03     17.1605E-03
            4309            4525     22.7589E-03     19.7923E-03
            4310             671     25.5583E-03     26.9164E-03
            4310             672     18.3288E-03     14.7493E-03
            4310            4525     22.7589E-03     19.7923E-03
            4310            4526     26.9282E-03     27.9369E-03
            4311             670     25.7043E-03     28.7168E-03
            4311             671     25.5583E-03     26.9164E-03
            4311            4526     26.9282E-03     27.9369E-03
            4311            4527     27.4325E-03     30.5272E-03
            4312             669     23.8945E-03     21.3712E-03
            4312             670     25.7043E-03     28.7168E-03
            4312            4527     27.4325E-03     30.5272E-03
            4312            4528     28.5405E-03     26.8665E-03
            4313             668     24.5415E-03     22.5002E-03
            4313             669     23.8945E-03     21.3712E-03
            4313            4528     28.5405E-03     26.8665E-03
            4313            4529     28.2456E-03     27.0908E-03
            4314             667     27.9876E-03     26.7677E-03
            4314             668     24.5415E-03     22.5002E-03
            4314            4529     28.2456E-03     27.0908E-03
            4314            4530     30.1020E-03     29.6274E-03
            4315             666     33.1097E-03     32.6068E-03
            4315             667     27.9876E-03     26.7677E-03
            4315            4530     30.1020E-03     29.6274E-03
            4315            4531     34.0053E-03     34.0279E-03
            4316             665     38.9392E-03     38.4231E-03
            4316             666     33.1097E-03     32.6068E-03
            4316            4531     34.0053E-03     34.0279E-03
            4316            4532     38.5154E-03     39.1813E-03
            4317             664     44.7268E-03     44.8539E-03
            4317             665     38.9392E-03     38.4231E-03
            4317            4532     38.5154E-03     39.1813E-03
            4317            4533     43.8270E-03     44.7738E-03
            4318             663     51.4080E-03     50.3023E-03
            4318             664     44.7268E-03     44.8539E-03
            4318            4533     43.8270E-03     44.7738E-03
            4318            4534     49.8967E-03     49.7963E-03
            4319             662     56.4273E-03     59.1325E-03
            4319             663     51.4080E-03     50.3023E-03
            4319            4534     49.8967E-03     49.7963E-03
            4319            4535     54.0028E-03     58.5607E-03
            4320             661     67.9384E-03     63.9558E-03
            4320             662     56.4273E-03     59.1325E-03
            4320            4535     54.0028E-03     58.5607E-03
            4320            4536     66.2757E-03     62.4734E-03
            4321             660     74.9367E-03     74.1411E-03
            4321             661     67.9384E-03     63.9558E-03
            4321            4536     66.2757E-03     62.4734E-03
            4321            4537     70.1317E-03     70.2291E-03
            4322             659     66.4388E-03     73.5234E-03
            4322             660     74.9367E-03     74.1411E-03
            4322            4537     70.1317E-03     70.2291E-03
            4322            4538     62.3352E-03     73.6775E-03
            4323             658     65.0037E-03     59.3634E-03
            4323             659     66.4388E-03     73.5234E-03
            4323            4538     62.3352E-03     73.6775E-03
            4323            4539     66.6303E-03     63.4495E-03
            4324             657     66.7677E-03     62.3432E-03
            4324             658     65.0037E-03     59.3634E-03
            4324            4539     66.6303E-03     63.4495E-03
            4324            4540     67.0766E-03     64.1872E-03
            4325             656     68.2923E-03     68.1392E-03
            4325             657     66.7677E-03     62.3432E-03
            4325            4540     67.0766E-03     64.1872E-03
            4325            4541     65.9262E-03     68.3413E-03
            4326             655     74.2002E-03     72.5050E-03
            4326             656     68.2923E-03     68.1392E-03
            4326            4541     65.9262E-03     68.3413E-03
            4326            4542     70.9925E-03     71.2923E-03
            4327             654     79.2361E-03     78.4582E-03
            4327             655     74.2002E-03     72.5050E-03
            4327            4542     70.9925E-03     71.2923E-03
            4327            4543     75.1924E-03     76.5891E-03
            4328             653     84.6538E-03     83.9628E-03
            4328             654     79.2361E-03     78.4582E-03
            4328            4543     75.1924E-03     76.5891E-03
            4328            4544     79.7062E-03     81.7950E-03
            4329             652     90.1017E-03     89.9562E-03
            4329             653     84.6538E-03     83.9628E-03
            4329            4544     79.7062E-03     81.7950E-03
            4329            4545     85.2195E-03     87.2547E-03
            4330             651     96.6087E-03     94.6063E-03
            4330             652     90.1017E-03     89.9562E-03
            4330            4545     85.2195E-03     87.2547E-03
            4330            4546     91.4263E-03     91.6405E-03
            4331             650     100.356E-03     104.073E-03
            4331             651     96.6087E-03     94.6063E-03
            4331            4546     91.4263E-03     91.6405E-03
            4331            4547     94.2018E-03     101.749E-03
            4332             649     113.983E-03     107.389E-03
            4332             650     100.356E-03     104.073E-03
            4332            4547     94.2018E-03     101.749E-03
            4332            4548     110.137E-03     104.261E-03
            4333             648     120.997E-03     118.169E-03
            4333             649     113.983E-03     107.389E-03
            4333            4548     110.137E-03     104.261E-03
            4333            4549     113.728E-03     112.972E-03
            4334             647     108.968E-03     121.237E-03
            4334             648     120.997E-03     118.169E-03
            4334            4549     113.728E-03     112.972E-03
            4334            4550     100.501E-03     120.449E-03
            4335             646     110.613E-03     103.004E-03
            4335             647     108.968E-03     121.237E-03
            4335            4550     100.501E-03     120.449E-03
            4335            4551     109.453E-03     105.443E-03
            4336             645     111.746E-03     104.858E-03
            4336             646     110.613E-03     103.004E-03
            4336            4551     109.453E-03     105.443E-03
            4336            4552     109.691E-03     104.813E-03
            4337             644     110.511E-03     111.367E-03
            4337             645     111.746E-03     104.858E-03
            4337            4552     109.691E-03     104.813E-03
            4337            4553     104.466E-03     109.871E-03
            4338             643     116.862E-03     114.426E-03
            4338             644     110.511E-03     111.367E-03
            4338            4553     104.466E-03     109.871E-03
            4338            4554     110.467E-03     110.882E-03
            4339             642     121.467E-03     120.477E-03
            4339             643     116.862E-03     114.426E-03
            4339            4554     110.467E-03     110.882E-03
            4339            4555     113.801E-03     116.721E-03
            4340             641     126.545E-03     126.143E-03
            4340             642     121.467E-03     120.477E-03
            4340            4555     113.801E-03     116.721E-03
            4340            4556     118.639E-03     121.823E-03
            4341             640     132.949E-03     130.101E-03
            4341             641     126.545E-03     126.143E-03
            4341            4556     118.639E-03     121.823E-03
            4341            4557     125.050E-03     125.374E-03
            4342             639     135.842E-03     140.205E-03
            4342             640     132.949E-03     130.101E-03
            4342            4557     125.050E-03     125.374E-03
            4342            4558     126.742E-03     136.633E-03
            4343             638     151.292E-03     142.437E-03
            4343             639     135.842E-03     140.205E-03
            4343            4558     126.742E-03     136.633E-03
            4343            4559     145.737E-03     138.171E-03
            4344             637     158.648E-03     153.997E-03
            4344             638     151.292E-03     142.437E-03
            4344            4559     145.737E-03     138.171E-03
            4344            4560     149.490E-03     148.013E-03
            4345             636     140.904E-03     153.845E-03
            4345             637     158.648E-03     153.997E-03
            4345            4560     149.490E-03     148.013E-03
            4345            4561     129.992E-03     147.778E-03
            4346              25     152.420E-03     166.481E-03
            4346             635     149.498E-03     163.446E-03
            4346             636     140.904E-03     153.845E-03
            4346            4561     129.992E-03     147.778E-03
            5283               9     50.9249E-03     57.2740E-03
            5283             171     66.3593E-03     67.1383E-03
            5283             630     48.9256E-03     49.1984E-03
            5283            5395     71.9080E-03     71.7552E-03
            5284             170     65.4870E-03     63.0175E-03
            5284             171     66.3593E-03     67.1383E-03
            5284            5395     71.9080E-03     71.7552E-03
            5284            5396     72.5704E-03     74.6033E-03
            5285             169     57.6379E-03     60.8398E-03
            5285             170     65.4870E-03     63.0175E-03
            5285            5396     72.5704E-03     74.6033E-03
            5285            5397     73.2072E-03     76.1087E-03
            5286             168     54.7366E-03     56.4612E-03
            5286             169     57.6379E-03     60.8398E-03
            5286            5397     73.2072E-03     76.1087E-03
            5286            5398     78.3183E-03     76.6798E-03
            5287             167     53.5972E-03     59.1359E-03
            5287             168     54.7366E-03     56.4612E-03
            5287            5398     78.3183E-03     76.6798E-03
            5287            5399     79.3058E-03     85.2716E-03
            5288               7     77.4734E-03     81.1887E-03
            5288             167     53.5972E-03     59.1359E-03
            5288             530     100.252E-03     106.363E-03
            5288            5399     79.3058E-03     85.2716E-03
            5289             630     48.9256E-03     49.1984E-03
            5289             631     67.9339E-03     66.2320E-03
            5289            5395     71.9080E-03     71.7552E-03
            5289            5400     98.1685E-03     96.1105E-03
            5290            5395     71.9080E-03     71.7552E-03
            5290            5396     72.5704E-03     74.6033E-03
            5290            5400     98.1685E-03     96.1105E-03
            5290            5401     101.407E-03     104.809E-03
            5291            5396     72.5704E-03     74.6033E-03
            5291            5397     73.2072E-03     76.1087E-03
            5291            5401     101.407E-03     104.809E-03
            5291            5402     105.020E-03     110.653E-03
            5292            5397     73.2072E-03     76.1087E-03
            5292            5398     78.3183E-03     76.6798E-03
            5292            5402     105.020E-03     110.653E-03
            5292            5403     116.328E-03     110.800E-03
            5293            5398     78.3183E-03     76.6798E-03
            5293            5399     79.3058E-03     85.2716E-03
            5293            5403     116.328E-03     110.800E-03
            5293            5404     116.453E-03     119.994E-03
            5294             529     129.332E-03     140.100E-03
            5294             530     100.252E-03     106.363E-03
            5294            5399     79.3058E-03     85.2716E-03
            5294            5404     116.453E-03     119.994E-03
            5295             631     67.9339E-03     66.2320E-03
            5295             632     96.9182E-03     95.7850E-03
            5295            5400     98.1685E-03     96.1105E-03
            5295            5405     134.243E-03     128.154E-03
            5296            5400     98.1685E-03     96.1105E-03
            5296            5401     101.407E-03     104.809E-03
            5296            5405     134.243E-03     128.154E-03
            5296            5406     139.622E-03     139.013E-03
            5297            5401     101.407E-03     104.809E-03
            5297            5402     105.020E-03     110.653E-03
            5297            5406     139.622E-03     139.013E-03
            5297            5407     140.806E-03     148.081E-03
            5298            5402     105.020E-03     110.653E-03
            5298            5403     116.328E-03     110.800E-03
            5298            5407     140.806E-03     148.081E-03
            5298            5408     154.543E-03     146.550E-03
            5299            5403     116.328E-03     110.800E-03
            5299            5404     116.453E-03     119.994E-03
            5299            5408     154.543E-03     146.550E-03
            5299            5409     151.877E-03     155.373E-03
            5300             528     158.818E-03     175.307E-03
            5300             529     129.332E-03     140.100E-03
            5300            5404     116.453E-03     119.994E-03
            5300            5409     151.877E-03     155.373E-03
            5301             632     96.9182E-03     95.7850E-03
            5301             633     124.159E-03     125.589E-03
            5301            5405     134.243E-03     128.154E-03
            5301            5410     168.535E-03     157.822E-03
            5302            5405     134.243E-03     128.154E-03
            5302            5406     139.622E-03     139.013E-03
            5302            5410     168.535E-03     157.822E-03
            5302            5411     174.509E-03     167.643E-03
            5303            5406     139.622E-03     139.013E-03
            5303            5407     140.806E-03     148.081E-03
            5303            5411     174.509E-03     167.643E-03
            5303            5412     171.516E-03     180.803E-03
            5304            5407     140.806E-03     148.081E-03
            5304            5408     154.543E-03     146.550E-03
            5304            5412     171.516E-03     180.803E-03
            5304            5413     189.362E-03     179.027E-03
            5305            5408     154.543E-03     146.550E-03
            5305            5409     151.877E-03     155.373E-03
            5305            5413     189.362E-03     179.027E-03
            5305            5414     185.800E-03     191.967E-03
            5306             527     185.061E-03     211.285E-03
            5306             528     158.818E-03     175.307E-03
            5306            5409     151.877E-03     155.373E-03
            5306            5414     185.800E-03     191.967E-03
            5307             633     124.159E-03     125.589E-03
            5307             634     141.513E-03     150.204E-03
            5307            5410     168.535E-03     157.822E-03
            5307            5415     188.295E-03     182.628E-03
            5308            5410     168.535E-03     157.822E-03
            5308            5411     174.509E-03     167.643E-03
            5308            5415     188.295E-03     182.628E-03
            5308            5416     197.358E-03     191.247E-03
            5309            5411     174.509E-03     167.643E-03
            5309            5412     171.516E-03     180.803E-03
            5309            5416     197.358E-03     191.247E-03
            5309            5417     194.285E-03     209.884E-03
            5310            5412     171.516E-03     180.803E-03
            5310            5413     189.362E-03     179.027E-03
            5310            5417     194.285E-03     209.884E-03
            5310            5418     221.077E-03     210.821E-03
            5311            5413     189.362E-03     179.027E-03
            5311            5414     185.800E-03     191.967E-03
            5311            5418     221.077E-03     210.821E-03
            5311            5419     223.885E-03     226.791E-03
            5312             526     207.631E-03     242.062E-03
            5312             527     185.061E-03     211.285E-03
            5312            5414     185.800E-03     191.967E-03
            5312            5419     223.885E-03     226.791E-03
            5313             634     141.513E-03     150.204E-03
            5313             635     149.498E-03     163.446E-03
            5313            5415     188.295E-03     182.628E-03
            5313            5420     192.146E-03     197.131E-03
            5314            5415     188.295E-03     182.628E-03
            5314            5416     197.358E-03     191.247E-03
            5314            5420     192.146E-03     197.131E-03
            5314            5421     212.157E-03     208.444E-03
            5315            5416     197.358E-03     191.247E-03
            5315            5417     194.285E-03     209.884E-03
            5315            5421     212.157E-03     208.444E-03
            5315            5422     216.734E-03     230.427E-03
            5316            5417     194.285E-03     209.884E-03
            5316            5418     221.077E-03     210.821E-03
            5316            5422     216.734E-03     230.427E-03
            5316            5423     247.716E-03     238.516E-03
            5317            5418     221.077E-03     210.821E-03
            5317            5419     223.885E-03     226.791E-03
            5317            5423     247.716E-03     238.516E-03
            5317            5424     262.377E-03     255.435E-03
            5318             525     229.028E-03     259.687E-03
            5318             526     207.631E-03     242.062E-03
            5318            5419     223.885E-03     226.791E-03
            5318            5424     262.377E-03     255.435E-03
            5319              25     152.420E-03     166.481E-03
            5319             625     191.413E-03     200.082E-03
            5319             635     149.498E-03     163.446E-03
            5319            5420     192.146E-03     197.131E-03
            5320             625     191.413E-03     200.082E-03
            5320             626     219.036E-03     214.245E-03
            5320            5420     192.146E-03     197.131E-03
            5320            5421     212.157E-03     208.444E-03
            5321             626     219.036E-03     214.245E-03
            5321             627     229.390E-03     236.993E-03
            5321            5421     212.157E-03     208.444E-03
            5321            5422     216.734E-03     230.427E-03
            5322             627     229.390E-03     236.993E-03
            5322             628     259.003E-03     249.251E-03
            5322            5422     216.734E-03     230.427E-03
            5322            5423     247.716E-03     238.516E-03
            5323             628     259.003E-03     249.251E-03
            5323             629     280.091E-03     267.997E-03
            5323            5423     247.716E-03     238.516E-03
            5323            5424     262.377E-03     255.435E-03
            5324              22     239.521E-03     264.647E-03
            5324             525     229.028E-03     259.687E-03
            5324             629     280.091E-03     267.997E-03
            5324            5424     262.377E-03     255.435E-03
            6567              12     20.0550E-03     19.9916E-03
            6567             187     1.00491E-03     979.713E-06
            6567             244     18.1276E-03     18.0477E-03
            6567            6525     987.780E-06     966.273E-06
            6568             186     1.00802E-03     998.531E-06
            6568             187     1.00491E-03     979.713E-06
            6568            6525     987.780E-06     966.273E-06
            6568            6526     988.504E-06     977.527E-06
            6569             185     996.756E-06     997.263E-06
            6569             186     1.00802E-03     998.531E-06
            6569            6526     988.504E-06     977.527E-06
            6569            6527     973.348E-06     974.642E-06
            6570             184     1.00464E-03     994.789E-06
            6570             185     996.756E-06     997.263E-06
            6570            6527     973.348E-06     974.642E-06
            6570            6528     978.294E-06     967.050E-06
            6571             183     1.00083E-03     990.685E-06
            6571             184     1.00464E-03     994.789E-06
            6571            6528     978.294E-06     967.050E-06
            6571            6529     973.352E-06     961.760E-06
            6572              11     991.862E-06     985.630E-06
            6572             183     1.00083E-03     990.685E-06
            6572             825     965.966E-06     958.406E-06
            6572            6529     973.352E-06     961.760E-06
            6573             244     18.1276E-03     18.0477E-03
            6573             245     15.2784E-03     15.2305E-03
            6573            6525     987.780E-06     966.273E-06
            6573            6530     939.866E-06     925.796E-06
            6574            6525     987.780E-06     966.273E-06
            6574            6526     988.504E-06     977.527E-06
            6574            6530     939.866E-06     925.796E-06
            6574            6531     937.278E-06     919.843E-06
            6575            6526     988.504E-06     977.527E-06
            6575            6527     973.348E-06     974.642E-06
            6575            6531     937.278E-06     919.843E-06
            6575            6532     901.046E-06     906.230E-06
            6576            6527     973.348E-06     974.642E-06
            6576            6528     978.294E-06     967.050E-06
            6576            6532     901.046E-06     906.230E-06
            6576            6533     897.829E-06     886.997E-06
            6577            6528     978.294E-06     967.050E-06
            6577            6529     973.352E-06     961.760E-06
            6577            6533     897.829E-06     886.997E-06
            6577            6534     888.975E-06     877.610E-06
            6578             825     965.966E-06     958.406E-06
            6578             826     879.063E-06     870.398E-06
            6578            6529     973.352E-06     961.760E-06
            6578            6534     888.975E-06     877.610E-06
            6579             245     15.2784E-03     15.2305E-03
            6579             246     11.7149E-03     11.6613E-03
            6579            6530     939.866E-06     925.796E-06
            6579            6535     878.455E-06     860.587E-06
            6580            6530     939.866E-06     925.796E-06
            6580            6531     937.278E-06     919.843E-06
            6580            6535     878.455E-06     860.587E-06
            6580            6536     861.678E-06     822.795E-06
            6581            6531     937.278E-06     919.843E-06
            6581            6532     901.046E-06     906.230E-06
            6581            6536     861.678E-06     822.795E-06
            6581            6537     782.007E-06     801.057E-06
            6582            6532     901.046E-06     906.230E-06
            6582            6533     897.829E-06     886.997E-06
            6582            6537     782.007E-06     801.057E-06
            6582            6538     761.541E-06     762.714E-06
            6583            6533     897.829E-06     886.997E-06
            6583            6534     888.975E-06     877.610E-06
            6583            6538     761.541E-06     762.714E-06
            6583            6539     749.889E-06     743.214E-06
            6584             826     879.063E-06     870.398E-06
            6584             827     744.632E-06     732.364E-06
            6584            6534     888.975E-06     877.610E-06
            6584            6539     749.889E-06     743.214E-06
            6585             246     11.7149E-03     11.6613E-03
            6585             247     7.49175E-03     7.41743E-03
            6585            6535     878.455E-06     860.587E-06
            6585            6540     796.494E-06     785.104E-06
            6586            6535     878.455E-06     860.587E-06
            6586            6536     861.678E-06     822.795E-06
            6586            6540     796.494E-06     785.104E-06
            6586            6541     766.302E-06     694.753E-06
            6587            6536     861.678E-06     822.795E-06
            6587            6537     782.007E-06     801.057E-06
            6587            6541     766.302E-06     694.753E-06
            6587            6542     630.525E-06     664.498E-06
            6588            6537     782.007E-06     801.057E-06
            6588            6538     761.541E-06     762.714E-06
            6588            6542     630.525E-06     664.498E-06
            6588            6543     584.011E-06     598.129E-06
            6589            6538     761.541E-06     762.714E-06
            6589            6539     749.889E-06     743.214E-06
            6589            6543     584.011E-06     598.129E-06
            6589            6544     554.603E-06     563.142E-06
            6590             827     744.632E-06     732.364E-06
            6590             828     541.756E-06     541.457E-06
            6590            6539     749.889E-06     743.214E-06
            6590            6544     554.603E-06     563.142E-06
            6591             247     7.49175E-03     7.41743E-03
            6591             248     3.59431E-03     4.12539E-03
            6591            6540     796.494E-06     785.104E-06
            6591            6545     757.575E-06     768.728E-06
            6592            6540     796.494E-06     785.104E-06
            6592            6541     766.302E-06     694.753E-06
            6592            6545     757.575E-06     768.728E-06
            6592            6546     695.029E-06     615.553E-06
            6593            6541     766.302E-06     694.753E-06
            6593            6542     630.525E-06     664.498E-06
            6593            6546     695.029E-06     615.553E-06
            6593            6547     465.403E-06     504.841E-06
            6594            6542     630.525E-06     664.498E-06
            6594            6543     584.011E-06     598.129E-06
            6594            6547     465.403E-06     504.841E-06
            6594            6548     372.452E-06     371.058E-06
            6595            6543     584.011E-06     598.129E-06
            6595            6544     554.603E-06     563.142E-06
            6595            6548     372.452E-06     371.058E-06
            6595            6549     324.378E-06     351.833E-06
            6596             828     541.756E-06     541.457E-06
            6596             829     321.215E-06     338.721E-06
            6596            6544     554.603E-06     563.142E-06
            6596            6549     324.378E-06     351.833E-06
            6597             248     3.59431E-03     4.12539E-03
            6597             249     5.23769E-03     6.74177E-03
            6597            6545     757.575E-06     768.728E-06
            6597            6550     911.026E-06     917.507E-06
            6598            6545     757.575E-06     768.728E-06
            6598            6546     695.029E-06     615.553E-06
            6598            6550     911.026E-06     917.507E-06
            6598            6551     729.856E-06     671.989E-06
            6599            6546     695.029E-06     615.553E-06
            6599            6547     465.403E-06     504.841E-06
            6599            6551     729.856E-06     671.989E-06
            6599            6552     425.483E-06     468.954E-06
            6600            6547     465.403E-06     504.841E-06
            6600            6548     372.452E-06     371.058E-06
            6600            6552     425.483E-06     468.954E-06
            6600            6553     293.954E-06     268.611E-06
            6601            6548     372.452E-06     371.058E-06
            6601            6549     324.378E-06     351.833E-06
            6601            6553     293.954E-06     268.611E-06
            6601            6554     236.255E-06     296.341E-06
            6602             829     321.215E-06     338.721E-06
            6602             830     255.524E-06     342.715E-06
            6602            6549     324.378E-06     351.833E-06
            6602            6554     236.255E-06     296.341E-06
            6603              15     8.47474E-03     10.3818E-03
            6603             249     5.23769E-03     6.74177E-03
            6603             765     1.05207E-03     1.04535E-03
            6603            6550     911.026E-06     917.507E-06
            6604             765     1.05207E-03     1.04535E-03
            6604             766     784.470E-06     739.948E-06
            6604            6550     911.026E-06     917.507E-06
            6604            6551     729.856E-06     671.989E-06
            6605             766     784.470E-06     739.948E-06
            6605             767     469.348E-06     515.547E-06
            6605            6551     729.856E-06     671.989E-06
            6605            6552     425.483E-06     468.954E-06
            6606             767     469.348E-06     515.547E-06
            6606             768     331.658E-06     300.620E-06
            6606            6552     425.483E-06     468.954E-06
            6606            6553     293.954E-06     268.611E-06
            6607             768     331.658E-06     300.620E-06
            6607             769     265.262E-06     351.258E-06
            6607            6553     293.954E-06     268.611E-06
            6607            6554     236.255E-06     296.341E-06
            6608              27     280.922E-06     435.786E-06
            6608             769     265.262E-06     351.258E-06
            6608             830     255.524E-06     342.715E-06
            6608            6554     236.255E-06     296.341E-06


  Minimum                            228.961E-06     268.611E-06
      At Element                            1784            6607
            Node                              18            6553

  Maximum                            280.091E-03     267.997E-03
      At Element                            5324            5324
            Node                             629             629

           Total                         439.994         446.124


Field Output reported at element nodes for region: A320-1.Region_4
   Computation algorithm: EXTRAPOLATE_COMPUTE_AVERAGE
   Averaged at nodes
   Averaging regions: ODB_REGIONS

   Element Label      Node Label         S.Mises         S.Mises
                                          @Loc 1          @Loc 2
-----------------------------------------------------------------
             785              16     7.58398E-03     7.73428E-03
             785             289     8.01669E-03     8.17197E-03
             785             328     398.567E-06     396.516E-06
             785            1467     396.011E-06     400.337E-06
             786             289     8.01669E-03     8.17197E-03
             786             290     8.62401E-03     8.69393E-03
             786            1467     396.011E-06     400.337E-06
             786            1468     392.046E-06     404.801E-06
             787             290     8.62401E-03     8.69393E-03
             787             291     9.05494E-03     9.04352E-03
             787            1468     392.046E-06     404.801E-06
             787            1469     389.698E-06     406.290E-06
             788             291     9.05494E-03     9.04352E-03
             788             292     9.46759E-03     9.42634E-03
             788            1469     389.698E-06     406.290E-06
             788            1470     388.463E-06     408.875E-06
             789             292     9.46759E-03     9.42634E-03
             789             293     9.74301E-03     9.64985E-03
             789            1470     388.463E-06     408.875E-06
             789            1471     388.078E-06     412.251E-06
             790             293     9.74301E-03     9.64985E-03
             790             294     9.96372E-03     9.82705E-03
             790            1471     388.078E-06     412.251E-06
             790            1472     388.374E-06     416.003E-06
             791             294     9.96372E-03     9.82705E-03
             791             295     10.1343E-03     9.94965E-03
             791            1472     388.374E-06     416.003E-06
             791            1473     389.112E-06     420.057E-06
             792             295     10.1343E-03     9.94965E-03
             792             296     10.2713E-03     10.0344E-03
             792            1473     389.112E-06     420.057E-06
             792            1474     390.536E-06     424.569E-06
             793             296     10.2713E-03     10.0344E-03
             793             297     10.3871E-03     10.1024E-03
             793            1474     390.536E-06     424.569E-06
             793            1475     392.276E-06     429.152E-06
             794             297     10.3871E-03     10.1024E-03
             794             298     10.4664E-03     10.1270E-03
             794            1475     392.276E-06     429.152E-06
             794            1476     395.043E-06     434.480E-06
             795             298     10.4664E-03     10.1270E-03
             795             299     10.4953E-03     10.1064E-03
             795            1476     395.043E-06     434.480E-06
             795            1477     397.741E-06     439.616E-06
             796             299     10.4953E-03     10.1064E-03
             796             300     10.4315E-03     9.98683E-03
             796            1477     397.741E-06     439.616E-06
             796            1478     402.545E-06     446.164E-06
             797             300     10.4315E-03     9.98683E-03
             797             301     10.1794E-03     9.68068E-03
             797            1478     402.545E-06     446.164E-06
             797            1479     406.388E-06     452.296E-06
             798             301     10.1794E-03     9.68068E-03
             798             302     9.71084E-03     9.12599E-03
             798            1479     406.388E-06     452.296E-06
             798            1480     416.094E-06     461.443E-06
             799             302     9.71084E-03     9.12599E-03
             799             303     8.65635E-03     8.01417E-03
             799            1480     416.094E-06     461.443E-06
             799            1481     420.052E-06     467.500E-06
             800             303     8.65635E-03     8.01417E-03
             800             304     7.25850E-03     6.42785E-03
             800            1481     420.052E-06     467.500E-06
             800            1482     418.986E-06     473.869E-06
             801             304     7.25850E-03     6.42785E-03
             801             305     5.12988E-03     5.54495E-03
             801            1482     418.986E-06     473.869E-06
             801            1483     451.537E-06     506.265E-06
             802              17     3.62205E-03     5.49427E-03
             802             305     5.12988E-03     5.54495E-03
             802             306     479.046E-06     530.603E-06
             802            1483     451.537E-06     506.265E-06
             803             327     444.605E-06     375.120E-06
             803             328     398.567E-06     396.516E-06
             803            1467     396.011E-06     400.337E-06
             803            1484     423.540E-06     392.533E-06
             804            1467     396.011E-06     400.337E-06
             804            1468     392.046E-06     404.801E-06
             804            1484     423.540E-06     392.533E-06
             804            1485     397.761E-06     408.517E-06
             805            1468     392.046E-06     404.801E-06
             805            1469     389.698E-06     406.290E-06
             805            1485     397.761E-06     408.517E-06
             805            1486     396.447E-06     403.813E-06
             806            1469     389.698E-06     406.290E-06
             806            1470     388.463E-06     408.875E-06
             806            1486     396.447E-06     403.813E-06
             806            1487     399.075E-06     402.789E-06
             807            1470     388.463E-06     408.875E-06
             807            1471     388.078E-06     412.251E-06
             807            1487     399.075E-06     402.789E-06
             807            1488     399.716E-06     405.852E-06
             808            1471     388.078E-06     412.251E-06
             808            1472     388.374E-06     416.003E-06
             808            1488     399.716E-06     405.852E-06
             808            1489     402.195E-06     407.746E-06
             809            1472     388.374E-06     416.003E-06
             809            1473     389.112E-06     420.057E-06
             809            1489     402.195E-06     407.746E-06
             809            1490     404.850E-06     410.505E-06
             810            1473     389.112E-06     420.057E-06
             810            1474     390.536E-06     424.569E-06
             810            1490     404.850E-06     410.505E-06
             810            1491     407.694E-06     413.528E-06
             811            1474     390.536E-06     424.569E-06
             811            1475     392.276E-06     429.152E-06
             811            1491     407.694E-06     413.528E-06
             811            1492     411.280E-06     417.088E-06
             812            1475     392.276E-06     429.152E-06
             812            1476     395.043E-06     434.480E-06
             812            1492     411.280E-06     417.088E-06
             812            1493     414.754E-06     420.670E-06
             813            1476     395.043E-06     434.480E-06
             813            1477     397.741E-06     439.616E-06
             813            1493     414.754E-06     420.670E-06
             813            1494     419.293E-06     425.227E-06
             814            1477     397.741E-06     439.616E-06
             814            1478     402.545E-06     446.164E-06
             814            1494     419.293E-06     425.227E-06
             814            1495     423.120E-06     429.182E-06
             815            1478     402.545E-06     446.164E-06
             815            1479     406.388E-06     452.296E-06
             815            1495     423.120E-06     429.182E-06
             815            1496     430.100E-06     435.295E-06
             816            1479     406.388E-06     452.296E-06
             816            1480     416.094E-06     461.443E-06
             816            1496     430.100E-06     435.295E-06
             816            1497     435.558E-06     443.660E-06
             817            1480     416.094E-06     461.443E-06
             817            1481     420.052E-06     467.500E-06
             817            1497     435.558E-06     443.660E-06
             817            1498     457.933E-06     457.606E-06
             818            1481     420.052E-06     467.500E-06
             818            1482     418.986E-06     473.869E-06
             818            1498     457.933E-06     457.606E-06
             818            1499     455.381E-06     463.585E-06
             819            1482     418.986E-06     473.869E-06
             819            1483     451.537E-06     506.265E-06
             819            1499     455.381E-06     463.585E-06
             819            1500     328.613E-06     346.597E-06
             820             306     479.046E-06     530.603E-06
             820             307     227.867E-06     234.562E-06
             820            1483     451.537E-06     506.265E-06
             820            1500     328.613E-06     346.597E-06
             821             326     412.427E-06     413.596E-06
             821             327     444.605E-06     375.120E-06
             821            1484     423.540E-06     392.533E-06
             821            1501     412.760E-06     412.868E-06
             822            1484     423.540E-06     392.533E-06
             822            1485     397.761E-06     408.517E-06
             822            1501     412.760E-06     412.868E-06
             822            1502     413.939E-06     410.401E-06
             823            1485     397.761E-06     408.517E-06
             823            1486     396.447E-06     403.813E-06
             823            1502     413.939E-06     410.401E-06
             823            1503     415.945E-06     407.905E-06
             824            1486     396.447E-06     403.813E-06
             824            1487     399.075E-06     402.789E-06
             824            1503     415.945E-06     407.905E-06
             824            1504     418.742E-06     406.871E-06
             825            1487     399.075E-06     402.789E-06
             825            1488     399.716E-06     405.852E-06
             825            1504     418.742E-06     406.871E-06
             825            1505     421.925E-06     406.629E-06
             826            1488     399.716E-06     405.852E-06
             826            1489     402.195E-06     407.746E-06
             826            1505     421.925E-06     406.629E-06
             826            1506     425.476E-06     407.019E-06
             827            1489     402.195E-06     407.746E-06
             827            1490     404.850E-06     410.505E-06
             827            1506     425.476E-06     407.019E-06
             827            1507     429.295E-06     407.812E-06
             828            1490     404.850E-06     410.505E-06
             828            1491     407.694E-06     413.528E-06
             828            1507     429.295E-06     407.812E-06
             828            1508     433.454E-06     409.108E-06
             829            1491     407.694E-06     413.528E-06
             829            1492     411.280E-06     417.088E-06
             829            1508     433.454E-06     409.108E-06
             829            1509     437.667E-06     410.745E-06
             830            1492     411.280E-06     417.088E-06
             830            1493     414.754E-06     420.670E-06
             830            1509     437.667E-06     410.745E-06
             830            1510     442.316E-06     412.904E-06
             831            1493     414.754E-06     420.670E-06
             831            1494     419.293E-06     425.227E-06
             831            1510     442.316E-06     412.904E-06
             831            1511     446.672E-06     415.108E-06
             832            1494     419.293E-06     425.227E-06
             832            1495     423.120E-06     429.182E-06
             832            1511     446.672E-06     415.108E-06
             832            1512     451.647E-06     418.008E-06
             833            1495     423.120E-06     429.182E-06
             833            1496     430.100E-06     435.295E-06
             833            1512     451.647E-06     418.008E-06
             833            1513     456.284E-06     420.513E-06
             834            1496     430.100E-06     435.295E-06
             834            1497     435.558E-06     443.660E-06
             834            1513     456.284E-06     420.513E-06
             834            1514     462.717E-06     425.347E-06
             835            1497     435.558E-06     443.660E-06
             835            1498     457.933E-06     457.606E-06
             835            1514     462.717E-06     425.347E-06
             835            1515     467.888E-06     426.779E-06
             836            1498     457.933E-06     457.606E-06
             836            1499     455.381E-06     463.585E-06
             836            1515     467.888E-06     426.779E-06
             836            1516     440.126E-06     399.505E-06
             837            1499     455.381E-06     463.585E-06
             837            1500     328.613E-06     346.597E-06
             837            1516     440.126E-06     399.505E-06
             837            1517     251.190E-06     292.293E-06
             838             307     227.867E-06     234.562E-06
             838             308     89.9879E-06     209.381E-06
             838            1500     328.613E-06     346.597E-06
             838            1517     251.190E-06     292.293E-06
             839              19     376.823E-06     444.654E-06
             839             325     397.850E-06     428.792E-06
             839             326     412.427E-06     413.596E-06
             839            1501     412.760E-06     412.868E-06
             840             324     424.514E-06     411.209E-06
             840             325     397.850E-06     428.792E-06
             840            1501     412.760E-06     412.868E-06
             840            1502     413.939E-06     410.401E-06
             841             323     428.791E-06     411.484E-06
             841             324     424.514E-06     411.209E-06
             841            1502     413.939E-06     410.401E-06
             841            1503     415.945E-06     407.905E-06
             842             322     430.740E-06     411.416E-06
             842             323     428.791E-06     411.484E-06
             842            1503     415.945E-06     407.905E-06
             842            1504     418.742E-06     406.871E-06
             843             321     435.460E-06     408.862E-06
             843             322     430.740E-06     411.416E-06
             843            1504     418.742E-06     406.871E-06
             843            1505     421.925E-06     406.629E-06
             844             320     439.349E-06     408.564E-06
             844             321     435.460E-06     408.862E-06
             844            1505     421.925E-06     406.629E-06
             844            1506     425.476E-06     407.019E-06
             845             319     443.535E-06     408.171E-06
             845             320     439.349E-06     408.564E-06
             845            1506     425.476E-06     407.019E-06
             845            1507     429.295E-06     407.812E-06
             846             318     448.344E-06     408.668E-06
             846             319     443.535E-06     408.171E-06
             846            1507     429.295E-06     407.812E-06
             846            1508     433.454E-06     409.108E-06
             847             317     452.531E-06     408.959E-06
             847             318     448.344E-06     408.668E-06
             847            1508     433.454E-06     409.108E-06
             847            1509     437.667E-06     410.745E-06
             848             316     458.009E-06     410.776E-06
             848             317     452.531E-06     408.959E-06
             848            1509     437.667E-06     410.745E-06
             848            1510     442.316E-06     412.904E-06
             849             315     461.560E-06     411.001E-06
             849             316     458.009E-06     410.776E-06
             849            1510     442.316E-06     412.904E-06
             849            1511     446.672E-06     415.108E-06
             850             314     468.212E-06     414.382E-06
             850             315     461.560E-06     411.001E-06
             850            1511     446.672E-06     415.108E-06
             850            1512     451.647E-06     418.008E-06
             851             313     469.179E-06     413.608E-06
             851             314     468.212E-06     414.382E-06
             851            1512     451.647E-06     418.008E-06
             851            1513     456.284E-06     420.513E-06
             852             312     479.815E-06     416.477E-06
             852             313     469.179E-06     413.608E-06
             852            1513     456.284E-06     420.513E-06
             852            1514     462.717E-06     425.347E-06
             853             311     462.833E-06     404.201E-06
             853             312     479.815E-06     416.477E-06
             853            1514     462.717E-06     425.347E-06
             853            1515     467.888E-06     426.779E-06
             854             310     419.974E-06     354.583E-06
             854             311     462.833E-06     404.201E-06
             854            1515     467.888E-06     426.779E-06
             854            1516     440.126E-06     399.505E-06
             855             309     268.860E-06     301.047E-06
             855             310     419.974E-06     354.583E-06
             855            1516     440.126E-06     399.505E-06
             855            1517     251.190E-06     292.293E-06
             856              18     126.456E-06     275.447E-06
             856             308     89.9879E-06     209.381E-06
             856             309     268.860E-06     301.047E-06
             856            1517     251.190E-06     292.293E-06
            2385              21     182.486E-03     187.923E-03
            2385             520     216.729E-03     217.701E-03
            2385             531     172.427E-03     176.525E-03
            2385            2866     211.918E-03     212.446E-03
            2386             531     172.427E-03     176.525E-03
            2386             532     156.113E-03     158.337E-03
            2386            2866     211.918E-03     212.446E-03
            2386            2867     200.094E-03     201.133E-03
            2387             532     156.113E-03     158.337E-03
            2387             533     143.559E-03     145.498E-03
            2387            2867     200.094E-03     201.133E-03
            2387            2868     188.021E-03     190.009E-03
            2388             533     143.559E-03     145.498E-03
            2388             534     131.790E-03     133.861E-03
            2388            2868     188.021E-03     190.009E-03
            2388            2869     177.244E-03     179.766E-03
            2389             534     131.790E-03     133.861E-03
            2389             535     120.801E-03     122.974E-03
            2389            2869     177.244E-03     179.766E-03
            2389            2870     166.923E-03     170.156E-03
            2390             535     120.801E-03     122.974E-03
            2390             536     110.149E-03     112.517E-03
            2390            2870     166.923E-03     170.156E-03
            2390            2871     157.633E-03     161.321E-03
            2391             536     110.149E-03     112.517E-03
            2391             537     99.9048E-03     102.366E-03
            2391            2871     157.633E-03     161.321E-03
            2391            2872     148.893E-03     153.022E-03
            2392             537     99.9048E-03     102.366E-03
            2392             538     89.9538E-03     92.5080E-03
            2392            2872     148.893E-03     153.022E-03
            2392            2873     140.964E-03     145.389E-03
            2393             538     89.9538E-03     92.5080E-03
            2393             539     80.3880E-03     82.9554E-03
            2393            2873     140.964E-03     145.389E-03
            2393            2874     133.733E-03     138.345E-03
            2394             539     80.3880E-03     82.9554E-03
            2394             540     71.2300E-03     73.7768E-03
            2394            2874     133.733E-03     138.345E-03
            2394            2875     127.417E-03     132.059E-03
            2395             540     71.2300E-03     73.7768E-03
            2395             541     62.5850E-03     65.0455E-03
            2395            2875     127.417E-03     132.059E-03
            2395            2876     122.038E-03     126.560E-03
            2396             541     62.5850E-03     65.0455E-03
            2396             542     54.5543E-03     56.8599E-03
            2396            2876     122.038E-03     126.560E-03
            2396            2877     117.817E-03     122.024E-03
            2397             542     54.5543E-03     56.8599E-03
            2397             543     47.2588E-03     49.3202E-03
            2397            2877     117.817E-03     122.024E-03
            2397            2878     114.618E-03     118.392E-03
            2398             543     47.2588E-03     49.3202E-03
            2398             544     42.0398E-03     42.8858E-03
            2398            2878     114.618E-03     118.392E-03
            2398            2879     112.676E-03     115.702E-03
            2399             544     42.0398E-03     42.8858E-03
            2399             545     43.6584E-03     43.1390E-03
            2399            2879     112.676E-03     115.702E-03
            2399            2880     110.563E-03     112.284E-03
            2400             545     43.6584E-03     43.1390E-03
            2400             546     50.7622E-03     50.3264E-03
            2400            2880     110.563E-03     112.284E-03
            2400            2881     109.836E-03     110.212E-03
            2401             546     50.7622E-03     50.3264E-03
            2401             547     61.7347E-03     62.7723E-03
            2401            2881     109.836E-03     110.212E-03
            2401            2882     112.155E-03     108.420E-03
            2402              20     68.9641E-03     71.1252E-03
            2402             547     61.7347E-03     62.7723E-03
            2402             548     113.635E-03     106.354E-03
            2402            2882     112.155E-03     108.420E-03
            2403             520     216.729E-03     217.701E-03
            2403             521     253.188E-03     250.989E-03
            2403            2866     211.918E-03     212.446E-03
            2403            2883     247.040E-03     246.302E-03
            2404            2866     211.918E-03     212.446E-03
            2404            2867     200.094E-03     201.133E-03
            2404            2883     247.040E-03     246.302E-03
            2404            2884     233.300E-03     234.607E-03
            2405            2867     200.094E-03     201.133E-03
            2405            2868     188.021E-03     190.009E-03
            2405            2884     233.300E-03     234.607E-03
            2405            2885     220.029E-03     222.630E-03
            2406            2868     188.021E-03     190.009E-03
            2406            2869     177.244E-03     179.766E-03
            2406            2885     220.029E-03     222.630E-03
            2406            2886     208.790E-03     212.551E-03
            2407            2869     177.244E-03     179.766E-03
            2407            2870     166.923E-03     170.156E-03
            2407            2886     208.790E-03     212.551E-03
            2407            2887     198.891E-03     203.469E-03
            2408            2870     166.923E-03     170.156E-03
            2408            2871     157.633E-03     161.321E-03
            2408            2887     198.891E-03     203.469E-03
            2408            2888     190.259E-03     195.601E-03
            2409            2871     157.633E-03     161.321E-03
            2409            2872     148.893E-03     153.022E-03
            2409            2888     190.259E-03     195.601E-03
            2409            2889     182.392E-03     188.402E-03
            2410            2872     148.893E-03     153.022E-03
            2410            2873     140.964E-03     145.389E-03
            2410            2889     182.392E-03     188.402E-03
            2410            2890     175.456E-03     181.977E-03
            2411            2873     140.964E-03     145.389E-03
            2411            2874     133.733E-03     138.345E-03
            2411            2890     175.456E-03     181.977E-03
            2411            2891     169.266E-03     176.143E-03
            2412            2874     133.733E-03     138.345E-03
            2412            2875     127.417E-03     132.059E-03
            2412            2891     169.266E-03     176.143E-03
            2412            2892     163.954E-03     170.977E-03
            2413            2875     127.417E-03     132.059E-03
            2413            2876     122.038E-03     126.560E-03
            2413            2892     163.954E-03     170.977E-03
            2413            2893     159.490E-03     166.455E-03
            2414            2876     122.038E-03     126.560E-03
            2414            2877     117.817E-03     122.024E-03
            2414            2893     159.490E-03     166.455E-03
            2414            2894     156.017E-03     162.696E-03
            2415            2877     117.817E-03     122.024E-03
            2415            2878     114.618E-03     118.392E-03
            2415            2894     156.017E-03     162.696E-03
            2415            2895     153.330E-03     159.492E-03
            2416            2878     114.618E-03     118.392E-03
            2416            2879     112.676E-03     115.702E-03
            2416            2895     153.330E-03     159.492E-03
            2416            2896     151.676E-03     156.996E-03
            2417            2879     112.676E-03     115.702E-03
            2417            2880     110.563E-03     112.284E-03
            2417            2896     151.676E-03     156.996E-03
            2417            2897     148.726E-03     152.432E-03
            2418            2880     110.563E-03     112.284E-03
            2418            2881     109.836E-03     110.212E-03
            2418            2897     148.726E-03     152.432E-03
            2418            2898     145.426E-03     146.561E-03
            2419            2881     109.836E-03     110.212E-03
            2419            2882     112.155E-03     108.420E-03
            2419            2898     145.426E-03     146.561E-03
            2419            2899     135.264E-03     132.125E-03
            2420             548     113.635E-03     106.354E-03
            2420             549     125.913E-03     119.975E-03
            2420            2882     112.155E-03     108.420E-03
            2420            2899     135.264E-03     132.125E-03
            2421             521     253.188E-03     250.989E-03
            2421             522     249.966E-03     251.264E-03
            2421            2883     247.040E-03     246.302E-03
            2421            2900     244.397E-03     246.627E-03
            2422            2883     247.040E-03     246.302E-03
            2422            2884     233.300E-03     234.607E-03
            2422            2900     244.397E-03     246.627E-03
            2422            2901     232.427E-03     235.590E-03
            2423            2884     233.300E-03     234.607E-03
            2423            2885     220.029E-03     222.630E-03
            2423            2901     232.427E-03     235.590E-03
            2423            2902     220.048E-03     224.162E-03
            2424            2885     220.029E-03     222.630E-03
            2424            2886     208.790E-03     212.551E-03
            2424            2902     220.048E-03     224.162E-03
            2424            2903     210.231E-03     214.865E-03
            2425            2886     208.790E-03     212.551E-03
            2425            2887     198.891E-03     203.469E-03
            2425            2903     210.231E-03     214.865E-03
            2425            2904     202.104E-03     206.654E-03
            2426            2887     198.891E-03     203.469E-03
            2426            2888     190.259E-03     195.601E-03
            2426            2904     202.104E-03     206.654E-03
            2426            2905     194.356E-03     199.266E-03
            2427            2888     190.259E-03     195.601E-03
            2427            2889     182.392E-03     188.402E-03
            2427            2905     194.356E-03     199.266E-03
            2427            2906     187.460E-03     192.515E-03
            2428            2889     182.392E-03     188.402E-03
            2428            2890     175.456E-03     181.977E-03
            2428            2906     187.460E-03     192.515E-03
            2428            2907     181.077E-03     186.317E-03
            2429            2890     175.456E-03     181.977E-03
            2429            2891     169.266E-03     176.143E-03
            2429            2907     181.077E-03     186.317E-03
            2429            2908     175.400E-03     180.735E-03
            2430            2891     169.266E-03     176.143E-03
            2430            2892     163.954E-03     170.977E-03
            2430            2908     175.400E-03     180.735E-03
            2430            2909     170.357E-03     175.722E-03
            2431            2892     163.954E-03     170.977E-03
            2431            2893     159.490E-03     166.455E-03
            2431            2909     170.357E-03     175.722E-03
            2431            2910     166.109E-03     171.415E-03
            2432            2893     159.490E-03     166.455E-03
            2432            2894     156.017E-03     162.696E-03
            2432            2910     166.109E-03     171.415E-03
            2432            2911     162.680E-03     167.854E-03
            2433            2894     156.017E-03     162.696E-03
            2433            2895     153.330E-03     159.492E-03
            2433            2911     162.680E-03     167.854E-03
            2433            2912     160.489E-03     165.376E-03
            2434            2895     153.330E-03     159.492E-03
            2434            2896     151.676E-03     156.996E-03
            2434            2912     160.489E-03     165.376E-03
            2434            2913     159.073E-03     163.664E-03
            2435            2896     151.676E-03     156.996E-03
            2435            2897     148.726E-03     152.432E-03
            2435            2913     159.073E-03     163.664E-03
            2435            2914     158.477E-03     162.943E-03
            2436            2897     148.726E-03     152.432E-03
            2436            2898     145.426E-03     146.561E-03
            2436            2914     158.477E-03     162.943E-03
            2436            2915     152.861E-03     154.658E-03
            2437            2898     145.426E-03     146.561E-03
            2437            2899     135.264E-03     132.125E-03
            2437            2915     152.861E-03     154.658E-03
            2437            2916     128.185E-03     123.863E-03
            2438             549     125.913E-03     119.975E-03
            2438             550     109.244E-03     101.447E-03
            2438            2899     135.264E-03     132.125E-03
            2438            2916     128.185E-03     123.863E-03
            2439             522     249.966E-03     251.264E-03
            2439             523     243.295E-03     243.652E-03
            2439            2900     244.397E-03     246.627E-03
            2439            2917     236.960E-03     239.692E-03
            2440            2900     244.397E-03     246.627E-03
            2440            2901     232.427E-03     235.590E-03
            2440            2917     236.960E-03     239.692E-03
            2440            2918     225.240E-03     230.660E-03
            2441            2901     232.427E-03     235.590E-03
            2441            2902     220.048E-03     224.162E-03
            2441            2918     225.240E-03     230.660E-03
            2441            2919     216.984E-03     221.688E-03
            2442            2902     220.048E-03     224.162E-03
            2442            2903     210.231E-03     214.865E-03
            2442            2919     216.984E-03     221.688E-03
            2442            2920     210.607E-03     214.475E-03
            2443            2903     210.231E-03     214.865E-03
            2443            2904     202.104E-03     206.654E-03
            2443            2920     210.607E-03     214.475E-03
            2443            2921     204.187E-03     207.955E-03
            2444            2904     202.104E-03     206.654E-03
            2444            2905     194.356E-03     199.266E-03
            2444            2921     204.187E-03     207.955E-03
            2444            2922     198.191E-03     201.607E-03
            2445            2905     194.356E-03     199.266E-03
            2445            2906     187.460E-03     192.515E-03
            2445            2922     198.191E-03     201.607E-03
            2445            2923     192.336E-03     195.571E-03
            2446            2906     187.460E-03     192.515E-03
            2446            2907     181.077E-03     186.317E-03
            2446            2923     192.336E-03     195.571E-03
            2446            2924     186.863E-03     189.902E-03
            2447            2907     181.077E-03     186.317E-03
            2447            2908     175.400E-03     180.735E-03
            2447            2924     186.863E-03     189.902E-03
            2447            2925     181.747E-03     184.641E-03
            2448            2908     175.400E-03     180.735E-03
            2448            2909     170.357E-03     175.722E-03
            2448            2925     181.747E-03     184.641E-03
            2448            2926     177.133E-03     179.918E-03
            2449            2909     170.357E-03     175.722E-03
            2449            2910     166.109E-03     171.415E-03
            2449            2926     177.133E-03     179.918E-03
            2449            2927     173.041E-03     175.767E-03
            2450            2910     166.109E-03     171.415E-03
            2450            2911     162.680E-03     167.854E-03
            2450            2927     173.041E-03     175.767E-03
            2450            2928     169.655E-03     172.340E-03
            2451            2911     162.680E-03     167.854E-03
            2451            2912     160.489E-03     165.376E-03
            2451            2928     169.655E-03     172.340E-03
            2451            2929     167.115E-03     169.845E-03
            2452            2912     160.489E-03     165.376E-03
            2452            2913     159.073E-03     163.664E-03
            2452            2929     167.115E-03     169.845E-03
            2452            2930     165.344E-03     168.160E-03
            2453            2913     159.073E-03     163.664E-03
            2453            2914     158.477E-03     162.943E-03
            2453            2930     165.344E-03     168.160E-03
            2453            2931     163.738E-03     167.279E-03
            2454            2914     158.477E-03     162.943E-03
            2454            2915     152.861E-03     154.658E-03
            2454            2931     163.738E-03     167.279E-03
            2454            2932     156.170E-03     159.077E-03
            2455            2915     152.861E-03     154.658E-03
            2455            2916     128.185E-03     123.863E-03
            2455            2932     156.170E-03     159.077E-03
            2455            2933     130.012E-03     127.941E-03
            2456             550     109.244E-03     101.447E-03
            2456             551     110.537E-03     104.830E-03
            2456            2916     128.185E-03     123.863E-03
            2456            2933     130.012E-03     127.941E-03
            2457             523     243.295E-03     243.652E-03
            2457             524     232.227E-03     238.760E-03
            2457            2917     236.960E-03     239.692E-03
            2457            2934     224.668E-03     231.529E-03
            2458            2917     236.960E-03     239.692E-03
            2458            2918     225.240E-03     230.660E-03
            2458            2934     224.668E-03     231.529E-03
            2458            2935     216.343E-03     222.055E-03
            2459            2918     225.240E-03     230.660E-03
            2459            2919     216.984E-03     221.688E-03
            2459            2935     216.343E-03     222.055E-03
            2459            2936     214.176E-03     217.707E-03
            2460            2919     216.984E-03     221.688E-03
            2460            2920     210.607E-03     214.475E-03
            2460            2936     214.176E-03     217.707E-03
            2460            2937     210.766E-03     213.346E-03
            2461            2920     210.607E-03     214.475E-03
            2461            2921     204.187E-03     207.955E-03
            2461            2937     210.766E-03     213.346E-03
            2461            2938     206.666E-03     208.533E-03
            2462            2921     204.187E-03     207.955E-03
            2462            2922     198.191E-03     201.607E-03
            2462            2938     206.666E-03     208.533E-03
            2462            2939     202.288E-03     203.372E-03
            2463            2922     198.191E-03     201.607E-03
            2463            2923     192.336E-03     195.571E-03
            2463            2939     202.288E-03     203.372E-03
            2463            2940     197.677E-03     198.137E-03
            2464            2923     192.336E-03     195.571E-03
            2464            2924     186.863E-03     189.902E-03
            2464            2940     197.677E-03     198.137E-03
            2464            2941     193.078E-03     192.994E-03
            2465            2924     186.863E-03     189.902E-03
            2465            2925     181.747E-03     184.641E-03
            2465            2941     193.078E-03     192.994E-03
            2465            2942     188.630E-03     188.144E-03
            2466            2925     181.747E-03     184.641E-03
            2466            2926     177.133E-03     179.918E-03
            2466            2942     188.630E-03     188.144E-03
            2466            2943     184.418E-03     183.681E-03
            2467            2926     177.133E-03     179.918E-03
            2467            2927     173.041E-03     175.767E-03
            2467            2943     184.418E-03     183.681E-03
            2467            2944     180.547E-03     179.727E-03
            2468            2927     173.041E-03     175.767E-03
            2468            2928     169.655E-03     172.340E-03
            2468            2944     180.547E-03     179.727E-03
            2468            2945     177.048E-03     176.312E-03
            2469            2928     169.655E-03     172.340E-03
            2469            2929     167.115E-03     169.845E-03
            2469            2945     177.048E-03     176.312E-03
            2469            2946     173.739E-03     173.303E-03
            2470            2929     167.115E-03     169.845E-03
            2470            2930     165.344E-03     168.160E-03
            2470            2946     173.739E-03     173.303E-03
            2470            2947     170.748E-03     170.785E-03
            2471            2930     165.344E-03     168.160E-03
            2471            2931     163.738E-03     167.279E-03
            2471            2947     170.748E-03     170.785E-03
            2471            2948     165.599E-03     166.192E-03
            2472            2931     163.738E-03     167.279E-03
            2472            2932     156.170E-03     159.077E-03
            2472            2948     165.599E-03     166.192E-03
            2472            2949     158.017E-03     160.008E-03
            2473            2932     156.170E-03     159.077E-03
            2473            2933     130.012E-03     127.941E-03
            2473            2949     158.017E-03     160.008E-03
            2473            2950     139.230E-03     142.069E-03
            2474             551     110.537E-03     104.830E-03
            2474             552     124.225E-03     126.819E-03
            2474            2933     130.012E-03     127.941E-03
            2474            2950     139.230E-03     142.069E-03
            2475              22     238.116E-03     249.540E-03
            2475             524     232.227E-03     238.760E-03
            2475             569     232.229E-03     239.936E-03
            2475            2934     224.668E-03     231.529E-03
            2476             568     224.312E-03     227.722E-03
            2476             569     232.229E-03     239.936E-03
            2476            2934     224.668E-03     231.529E-03
            2476            2935     216.343E-03     222.055E-03
            2477             567     219.015E-03     222.532E-03
            2477             568     224.312E-03     227.722E-03
            2477            2935     216.343E-03     222.055E-03
            2477            2936     214.176E-03     217.707E-03
            2478             566     213.705E-03     217.497E-03
            2478             567     219.015E-03     222.532E-03
            2478            2936     214.176E-03     217.707E-03
            2478            2937     210.766E-03     213.346E-03
            2479             565     208.693E-03     212.261E-03
            2479             566     213.705E-03     217.497E-03
            2479            2937     210.766E-03     213.346E-03
            2479            2938     206.666E-03     208.533E-03
            2480             564     203.472E-03     207.095E-03
            2480             565     208.693E-03     212.261E-03
            2480            2938     206.666E-03     208.533E-03
            2480            2939     202.288E-03     203.372E-03
            2481             563     198.524E-03     202.027E-03
            2481             564     203.472E-03     207.095E-03
            2481            2939     202.288E-03     203.372E-03
            2481            2940     197.677E-03     198.137E-03
            2482             562     193.672E-03     197.150E-03
            2482             563     198.524E-03     202.027E-03
            2482            2940     197.677E-03     198.137E-03
            2482            2941     193.078E-03     192.994E-03
            2483             561     189.066E-03     192.521E-03
            2483             562     193.672E-03     197.150E-03
            2483            2941     193.078E-03     192.994E-03
            2483            2942     188.630E-03     188.144E-03
            2484             560     184.728E-03     188.227E-03
            2484             561     189.066E-03     192.521E-03
            2484            2942     188.630E-03     188.144E-03
            2484            2943     184.418E-03     183.681E-03
            2485             559     180.538E-03     184.102E-03
            2485             560     184.728E-03     188.227E-03
            2485            2943     184.418E-03     183.681E-03
            2485            2944     180.547E-03     179.727E-03
            2486             558     176.499E-03     180.251E-03
            2486             559     180.538E-03     184.102E-03
            2486            2944     180.547E-03     179.727E-03
            2486            2945     177.048E-03     176.312E-03
            2487             557     172.060E-03     175.935E-03
            2487             558     176.499E-03     180.251E-03
            2487            2945     177.048E-03     176.312E-03
            2487            2946     173.739E-03     173.303E-03
            2488             556     166.830E-03     170.845E-03
            2488             557     172.060E-03     175.935E-03
            2488            2946     173.739E-03     173.303E-03
            2488            2947     170.748E-03     170.785E-03
            2489             555     158.563E-03     162.370E-03
            2489             556     166.830E-03     170.845E-03
            2489            2947     170.748E-03     170.785E-03
            2489            2948     165.599E-03     166.192E-03
            2490             554     148.821E-03     152.404E-03
            2490             555     158.563E-03     162.370E-03
            2490            2948     165.599E-03     166.192E-03
            2490            2949     158.017E-03     160.008E-03
            2491             553     135.103E-03     136.727E-03
            2491             554     148.821E-03     152.404E-03
            2491            2949     158.017E-03     160.008E-03
            2491            2950     139.230E-03     142.069E-03
            2492              23     125.388E-03     124.903E-03
            2492             552     124.225E-03     126.819E-03
            2492             553     135.103E-03     136.727E-03
            2492            2950     139.230E-03     142.069E-03
            2493              17     3.62205E-03     5.49427E-03
            2493             305     5.12988E-03     5.54495E-03
            2493             488     3.85504E-03     6.76309E-03
            2493            2951     8.45856E-03     9.24661E-03
            2494             304     7.25850E-03     6.42785E-03
            2494             305     5.12988E-03     5.54495E-03
            2494            2951     8.45856E-03     9.24661E-03
            2494            2952     14.9209E-03     13.6505E-03
            2495             303     8.65635E-03     8.01417E-03
            2495             304     7.25850E-03     6.42785E-03
            2495            2952     14.9209E-03     13.6505E-03
            2495            2953     17.9249E-03     16.7777E-03
            2496             302     9.71084E-03     9.12599E-03
            2496             303     8.65635E-03     8.01417E-03
            2496            2953     17.9249E-03     16.7777E-03
            2496            2954     19.5655E-03     18.5553E-03
            2497             301     10.1794E-03     9.68068E-03
            2497             302     9.71084E-03     9.12599E-03
            2497            2954     19.5655E-03     18.5553E-03
            2497            2955     20.2856E-03     19.3990E-03
            2498             300     10.4315E-03     9.98683E-03
            2498             301     10.1794E-03     9.68068E-03
            2498            2955     20.2856E-03     19.3990E-03
            2498            2956     20.5407E-03     19.7405E-03
            2499             299     10.4953E-03     10.1064E-03
            2499             300     10.4315E-03     9.98683E-03
            2499            2956     20.5407E-03     19.7405E-03
            2499            2957     20.5132E-03     19.8133E-03
            2500             298     10.4664E-03     10.1270E-03
            2500             299     10.4953E-03     10.1064E-03
            2500            2957     20.5132E-03     19.8133E-03
            2500            2958     20.3671E-03     19.7571E-03
            2501             297     10.3871E-03     10.1024E-03
            2501             298     10.4664E-03     10.1270E-03
            2501            2958     20.3671E-03     19.7571E-03
            2501            2959     20.1561E-03     19.6350E-03
            2502             296     10.2713E-03     10.0344E-03
            2502             297     10.3871E-03     10.1024E-03
            2502            2959     20.1561E-03     19.6350E-03
            2502            2960     19.9140E-03     19.4845E-03
            2503             295     10.1343E-03     9.94965E-03
            2503             296     10.2713E-03     10.0344E-03
            2503            2960     19.9140E-03     19.4845E-03
            2503            2961     19.6481E-03     19.3057E-03
            2504             294     9.96372E-03     9.82705E-03
            2504             295     10.1343E-03     9.94965E-03
            2504            2961     19.6481E-03     19.3057E-03
            2504            2962     19.3525E-03     19.0997E-03
            2505             293     9.74301E-03     9.64985E-03
            2505             294     9.96372E-03     9.82705E-03
            2505            2962     19.3525E-03     19.0997E-03
            2505            2963     18.9755E-03     18.8110E-03
            2506             292     9.46759E-03     9.42634E-03
            2506             293     9.74301E-03     9.64985E-03
            2506            2963     18.9755E-03     18.8110E-03
            2506            2964     18.4998E-03     18.4252E-03
            2507             291     9.05494E-03     9.04352E-03
            2507             292     9.46759E-03     9.42634E-03
            2507            2964     18.4998E-03     18.4252E-03
            2507            2965     17.7686E-03     17.8176E-03
            2508             290     8.62401E-03     8.69393E-03
            2508             291     9.05494E-03     9.04352E-03
            2508            2965     17.7686E-03     17.8176E-03
            2508            2966     16.8269E-03     17.1296E-03
            2509             289     8.01669E-03     8.17197E-03
            2509             290     8.62401E-03     8.69393E-03
            2509            2966     16.8269E-03     17.1296E-03
            2509            2967     15.1022E-03     15.5369E-03
            2510              16     7.58398E-03     7.73428E-03
            2510             289     8.01669E-03     8.17197E-03
            2510             411     13.8355E-03     14.2376E-03
            2510            2967     15.1022E-03     15.5369E-03
            2511             487     4.51631E-03     5.45670E-03
            2511             488     3.85504E-03     6.76309E-03
            2511            2951     8.45856E-03     9.24661E-03
            2511            2968     8.77719E-03     9.40618E-03
            2512            2951     8.45856E-03     9.24661E-03
            2512            2952     14.9209E-03     13.6505E-03
            2512            2968     8.77719E-03     9.40618E-03
            2512            2969     15.8356E-03     15.7135E-03
            2513            2952     14.9209E-03     13.6505E-03
            2513            2953     17.9249E-03     16.7777E-03
            2513            2969     15.8356E-03     15.7135E-03
            2513            2970     19.4167E-03     18.8955E-03
            2514            2953     17.9249E-03     16.7777E-03
            2514            2954     19.5655E-03     18.5553E-03
            2514            2970     19.4167E-03     18.8955E-03
            2514            2971     20.5672E-03     20.0572E-03
            2515            2954     19.5655E-03     18.5553E-03
            2515            2955     20.2856E-03     19.3990E-03
            2515            2971     20.5672E-03     20.0572E-03
            2515            2972     20.8635E-03     20.3432E-03
            2516            2955     20.2856E-03     19.3990E-03
            2516            2956     20.5407E-03     19.7405E-03
            2516            2972     20.8635E-03     20.3432E-03
            2516            2973     20.6608E-03     20.1994E-03
            2517            2956     20.5407E-03     19.7405E-03
            2517            2957     20.5132E-03     19.8133E-03
            2517            2973     20.6608E-03     20.1994E-03
            2517            2974     20.3628E-03     19.9559E-03
            2518            2957     20.5132E-03     19.8133E-03
            2518            2958     20.3671E-03     19.7571E-03
            2518            2974     20.3628E-03     19.9559E-03
            2518            2975     20.0318E-03     19.6770E-03
            2519            2958     20.3671E-03     19.7571E-03
            2519            2959     20.1561E-03     19.6350E-03
            2519            2975     20.0318E-03     19.6770E-03
            2519            2976     19.7270E-03     19.4269E-03
            2520            2959     20.1561E-03     19.6350E-03
            2520            2960     19.9140E-03     19.4845E-03
            2520            2976     19.7270E-03     19.4269E-03
            2520            2977     19.4572E-03     19.2080E-03
            2521            2960     19.9140E-03     19.4845E-03
            2521            2961     19.6481E-03     19.3057E-03
            2521            2977     19.4572E-03     19.2080E-03
            2521            2978     19.2220E-03     19.0286E-03
            2522            2961     19.6481E-03     19.3057E-03
            2522            2962     19.3525E-03     19.0997E-03
            2522            2978     19.2220E-03     19.0286E-03
            2522            2979     19.0030E-03     18.8633E-03
            2523            2962     19.3525E-03     19.0997E-03
            2523            2963     18.9755E-03     18.8110E-03
            2523            2979     19.0030E-03     18.8633E-03
            2523            2980     18.7779E-03     18.7062E-03
            2524            2963     18.9755E-03     18.8110E-03
            2524            2964     18.4998E-03     18.4252E-03
            2524            2980     18.7779E-03     18.7062E-03
            2524            2981     18.4271E-03     18.4062E-03
            2525            2964     18.4998E-03     18.4252E-03
            2525            2965     17.7686E-03     17.8176E-03
            2525            2981     18.4271E-03     18.4062E-03
            2525            2982     17.8344E-03     17.9289E-03
            2526            2965     17.7686E-03     17.8176E-03
            2526            2966     16.8269E-03     17.1296E-03
            2526            2982     17.8344E-03     17.9289E-03
            2526            2983     16.6849E-03     16.8267E-03
            2527            2966     16.8269E-03     17.1296E-03
            2527            2967     15.1022E-03     15.5369E-03
            2527            2983     16.6849E-03     16.8267E-03
            2527            2984     14.2505E-03     14.0118E-03
            2528             410     12.6122E-03     12.0468E-03
            2528             411     13.8355E-03     14.2376E-03
            2528            2967     15.1022E-03     15.5369E-03
            2528            2984     14.2505E-03     14.0118E-03
            2529             486     11.2131E-03     10.8971E-03
            2529             487     4.51631E-03     5.45670E-03
            2529            2968     8.77719E-03     9.40618E-03
            2529            2985     12.9700E-03     13.2116E-03
            2530            2968     8.77719E-03     9.40618E-03
            2530            2969     15.8356E-03     15.7135E-03
            2530            2985     12.9700E-03     13.2116E-03
            2530            2986     16.9273E-03     17.6040E-03
            2531            2969     15.8356E-03     15.7135E-03
            2531            2970     19.4167E-03     18.8955E-03
            2531            2986     16.9273E-03     17.6040E-03
            2531            2987     20.1908E-03     20.4433E-03
            2532            2970     19.4167E-03     18.8955E-03
            2532            2971     20.5672E-03     20.0572E-03
            2532            2987     20.1908E-03     20.4433E-03
            2532            2988     21.2451E-03     21.1751E-03
            2533            2971     20.5672E-03     20.0572E-03
            2533            2972     20.8635E-03     20.3432E-03
            2533            2988     21.2451E-03     21.1751E-03
            2533            2989     21.0680E-03     20.9758E-03
            2534            2972     20.8635E-03     20.3432E-03
            2534            2973     20.6608E-03     20.1994E-03
            2534            2989     21.0680E-03     20.9758E-03
            2534            2990     20.6399E-03     20.5415E-03
            2535            2973     20.6608E-03     20.1994E-03
            2535            2974     20.3628E-03     19.9559E-03
            2535            2990     20.6399E-03     20.5415E-03
            2535            2991     20.1338E-03     20.0434E-03
            2536            2974     20.3628E-03     19.9559E-03
            2536            2975     20.0318E-03     19.6770E-03
            2536            2991     20.1338E-03     20.0434E-03
            2536            2992     19.6838E-03     19.6076E-03
            2537            2975     20.0318E-03     19.6770E-03
            2537            2976     19.7270E-03     19.4269E-03
            2537            2992     19.6838E-03     19.6076E-03
            2537            2993     19.3141E-03     19.2476E-03
            2538            2976     19.7270E-03     19.4269E-03
            2538            2977     19.4572E-03     19.2080E-03
            2538            2993     19.3141E-03     19.2476E-03
            2538            2994     19.0259E-03     18.9724E-03
            2539            2977     19.4572E-03     19.2080E-03
            2539            2978     19.2220E-03     19.0286E-03
            2539            2994     19.0259E-03     18.9724E-03
            2539            2995     18.8190E-03     18.7770E-03
            2540            2978     19.2220E-03     19.0286E-03
            2540            2979     19.0030E-03     18.8633E-03
            2540            2995     18.8190E-03     18.7770E-03
            2540            2996     18.6728E-03     18.6488E-03
            2541            2979     19.0030E-03     18.8633E-03
            2541            2980     18.7779E-03     18.7062E-03
            2541            2996     18.6728E-03     18.6488E-03
            2541            2997     18.5470E-03     18.5367E-03
            2542            2980     18.7779E-03     18.7062E-03
            2542            2981     18.4271E-03     18.4062E-03
            2542            2997     18.5470E-03     18.5367E-03
            2542            2998     18.3416E-03     18.3520E-03
            2543            2981     18.4271E-03     18.4062E-03
            2543            2982     17.8344E-03     17.9289E-03
            2543            2998     18.3416E-03     18.3520E-03
            2543            2999     17.7811E-03     17.7091E-03
            2544            2982     17.8344E-03     17.9289E-03
            2544            2983     16.6849E-03     16.8267E-03
            2544            2999     17.7811E-03     17.7091E-03
            2544            3000     16.4223E-03     15.9742E-03
            2545            2983     16.6849E-03     16.8267E-03
            2545            2984     14.2505E-03     14.0118E-03
            2545            3000     16.4223E-03     15.9742E-03
            2545            3001     13.8084E-03     12.9308E-03
            2546             409     12.1333E-03     11.1023E-03
            2546             410     12.6122E-03     12.0468E-03
            2546            2984     14.2505E-03     14.0118E-03
            2546            3001     13.8084E-03     12.9308E-03
            2547             485     17.1962E-03     17.9398E-03
            2547             486     11.2131E-03     10.8971E-03
            2547            2985     12.9700E-03     13.2116E-03
            2547            3002     17.8535E-03     18.5155E-03
            2548            2985     12.9700E-03     13.2116E-03
            2548            2986     16.9273E-03     17.6040E-03
            2548            3002     17.8535E-03     18.5155E-03
            2548            3003     19.5585E-03     20.1857E-03
            2549            2986     16.9273E-03     17.6040E-03
            2549            2987     20.1908E-03     20.4433E-03
            2549            3003     19.5585E-03     20.1857E-03
            2549            3004     20.9488E-03     21.4716E-03
            2550            2987     20.1908E-03     20.4433E-03
            2550            2988     21.2451E-03     21.1751E-03
            2550            3004     20.9488E-03     21.4716E-03
            2550            3005     21.1608E-03     21.5286E-03
            2551            2988     21.2451E-03     21.1751E-03
            2551            2989     21.0680E-03     20.9758E-03
            2551            3005     21.1608E-03     21.5286E-03
            2551            3006     20.7935E-03     21.1087E-03
            2552            2989     21.0680E-03     20.9758E-03
            2552            2990     20.6399E-03     20.5415E-03
            2552            3006     20.7935E-03     21.1087E-03
            2552            3007     20.2522E-03     20.5129E-03
            2553            2990     20.6399E-03     20.5415E-03
            2553            2991     20.1338E-03     20.0434E-03
            2553            3007     20.2522E-03     20.5129E-03
            2553            3008     19.6929E-03     19.9308E-03
            2554            2991     20.1338E-03     20.0434E-03
            2554            2992     19.6838E-03     19.6076E-03
            2554            3008     19.6929E-03     19.9308E-03
            2554            3009     19.2170E-03     19.4232E-03
            2555            2992     19.6838E-03     19.6076E-03
            2555            2993     19.3141E-03     19.2476E-03
            2555            3009     19.2170E-03     19.4232E-03
            2555            3010     18.8278E-03     19.0069E-03
            2556            2993     19.3141E-03     19.2476E-03
            2556            2994     19.0259E-03     18.9724E-03
            2556            3010     18.8278E-03     19.0069E-03
            2556            3011     18.5428E-03     18.6917E-03
            2557            2994     19.0259E-03     18.9724E-03
            2557            2995     18.8190E-03     18.7770E-03
            2557            3011     18.5428E-03     18.6917E-03
            2557            3012     18.3444E-03     18.4639E-03
            2558            2995     18.8190E-03     18.7770E-03
            2558            2996     18.6728E-03     18.6488E-03
            2558            3012     18.3444E-03     18.4639E-03
            2558            3013     18.2345E-03     18.3225E-03
            2559            2996     18.6728E-03     18.6488E-03
            2559            2997     18.5470E-03     18.5367E-03
            2559            3013     18.2345E-03     18.3225E-03
            2559            3014     18.1511E-03     18.2037E-03
            2560            2997     18.5470E-03     18.5367E-03
            2560            2998     18.3416E-03     18.3520E-03
            2560            3014     18.1511E-03     18.2037E-03
            2560            3015     18.0269E-03     18.0298E-03
            2561            2998     18.3416E-03     18.3520E-03
            2561            2999     17.7811E-03     17.7091E-03
            2561            3015     18.0269E-03     18.0298E-03
            2561            3016     17.6085E-03     17.4374E-03
            2562            2999     17.7811E-03     17.7091E-03
            2562            3000     16.4223E-03     15.9742E-03
            2562            3016     17.6085E-03     17.4374E-03
            2562            3017     16.3169E-03     15.7818E-03
            2563            3000     16.4223E-03     15.9742E-03
            2563            3001     13.8084E-03     12.9308E-03
            2563            3017     16.3169E-03     15.7818E-03
            2563            3018     13.8867E-03     12.9392E-03
            2564             408     12.3992E-03     11.2636E-03
            2564             409     12.1333E-03     11.1023E-03
            2564            3001     13.8084E-03     12.9308E-03
            2564            3018     13.8867E-03     12.9392E-03
            2565             484     24.4489E-03     24.1538E-03
            2565             485     17.1962E-03     17.9398E-03
            2565            3002     17.8535E-03     18.5155E-03
            2565            3019     23.6669E-03     23.7653E-03
            2566            3002     17.8535E-03     18.5155E-03
            2566            3003     19.5585E-03     20.1857E-03
            2566            3019     23.6669E-03     23.7653E-03
            2566            3020     22.2063E-03     22.7284E-03
            2567            3003     19.5585E-03     20.1857E-03
            2567            3004     20.9488E-03     21.4716E-03
            2567            3020     22.2063E-03     22.7284E-03
            2567            3021     21.0432E-03     21.7614E-03
            2568            3004     20.9488E-03     21.4716E-03
            2568            3005     21.1608E-03     21.5286E-03
            2568            3021     21.0432E-03     21.7614E-03
            2568            3022     20.4461E-03     21.2499E-03
            2569            3005     21.1608E-03     21.5286E-03
            2569            3006     20.7935E-03     21.1087E-03
            2569            3022     20.4461E-03     21.2499E-03
            2569            3023     20.0358E-03     20.7240E-03
            2570            3006     20.7935E-03     21.1087E-03
            2570            3007     20.2522E-03     20.5129E-03
            2570            3023     20.0358E-03     20.7240E-03
            2570            3024     19.5046E-03     20.1336E-03
            2571            3007     20.2522E-03     20.5129E-03
            2571            3008     19.6929E-03     19.9308E-03
            2571            3024     19.5046E-03     20.1336E-03
            2571            3025     19.0336E-03     19.5936E-03
            2572            3008     19.6929E-03     19.9308E-03
            2572            3009     19.2170E-03     19.4232E-03
            2572            3025     19.0336E-03     19.5936E-03
            2572            3026     18.5971E-03     19.0919E-03
            2573            3009     19.2170E-03     19.4232E-03
            2573            3010     18.8278E-03     19.0069E-03
            2573            3026     18.5971E-03     19.0919E-03
            2573            3027     18.2416E-03     18.6725E-03
            2574            3010     18.8278E-03     19.0069E-03
            2574            3011     18.5428E-03     18.6917E-03
            2574            3027     18.2416E-03     18.6725E-03
            2574            3028     17.9604E-03     18.3209E-03
            2575            3011     18.5428E-03     18.6917E-03
            2575            3012     18.3444E-03     18.4639E-03
            2575            3028     17.9604E-03     18.3209E-03
            2575            3029     17.7650E-03     18.0544E-03
            2576            3012     18.3444E-03     18.4639E-03
            2576            3013     18.2345E-03     18.3225E-03
            2576            3029     17.7650E-03     18.0544E-03
            2576            3030     17.6270E-03     17.8358E-03
            2577            3013     18.2345E-03     18.3225E-03
            2577            3014     18.1511E-03     18.2037E-03
            2577            3030     17.6270E-03     17.8358E-03
            2577            3031     17.5472E-03     17.6709E-03
            2578            3014     18.1511E-03     18.2037E-03
            2578            3015     18.0269E-03     18.0298E-03
            2578            3031     17.5472E-03     17.6709E-03
            2578            3032     17.4095E-03     17.4028E-03
            2579            3015     18.0269E-03     18.0298E-03
            2579            3016     17.6085E-03     17.4374E-03
            2579            3032     17.4095E-03     17.4028E-03
            2579            3033     17.1702E-03     17.0451E-03
            2580            3016     17.6085E-03     17.4374E-03
            2580            3017     16.3169E-03     15.7818E-03
            2580            3033     17.1702E-03     17.0451E-03
            2580            3034     16.5521E-03     16.2675E-03
            2581            3017     16.3169E-03     15.7818E-03
            2581            3018     13.8867E-03     12.9392E-03
            2581            3034     16.5521E-03     16.2675E-03
            2581            3035     14.6682E-03     14.0926E-03
            2582             407     13.2884E-03     12.5443E-03
            2582             408     12.3992E-03     11.2636E-03
            2582            3018     13.8867E-03     12.9392E-03
            2582            3035     14.6682E-03     14.0926E-03
            2583             483     31.2174E-03     32.4893E-03
            2583             484     24.4489E-03     24.1538E-03
            2583            3019     23.6669E-03     23.7653E-03
            2583            3036     27.7654E-03     29.0402E-03
            2584            3019     23.6669E-03     23.7653E-03
            2584            3020     22.2063E-03     22.7284E-03
            2584            3036     27.7654E-03     29.0402E-03
            2584            3037     22.3716E-03     23.7139E-03
            2585            3020     22.2063E-03     22.7284E-03
            2585            3021     21.0432E-03     21.7614E-03
            2585            3037     22.3716E-03     23.7139E-03
            2585            3038     20.0971E-03     21.4428E-03
            2586            3021     21.0432E-03     21.7614E-03
            2586            3022     20.4461E-03     21.2499E-03
            2586            3038     20.0971E-03     21.4428E-03
            2586            3039     19.4359E-03     20.6395E-03
            2587            3022     20.4461E-03     21.2499E-03
            2587            3023     20.0358E-03     20.7240E-03
            2587            3039     19.4359E-03     20.6395E-03
            2587            3040     18.9514E-03     20.0532E-03
            2588            3023     20.0358E-03     20.7240E-03
            2588            3024     19.5046E-03     20.1336E-03
            2588            3040     18.9514E-03     20.0532E-03
            2588            3041     18.6065E-03     19.5996E-03
            2589            3024     19.5046E-03     20.1336E-03
            2589            3025     19.0336E-03     19.5936E-03
            2589            3041     18.6065E-03     19.5996E-03
            2589            3042     18.2302E-03     19.1181E-03
            2590            3025     19.0336E-03     19.5936E-03
            2590            3026     18.5971E-03     19.0919E-03
            2590            3042     18.2302E-03     19.1181E-03
            2590            3043     17.8820E-03     18.6763E-03
            2591            3026     18.5971E-03     19.0919E-03
            2591            3027     18.2416E-03     18.6725E-03
            2591            3043     17.8820E-03     18.6763E-03
            2591            3044     17.5659E-03     18.2527E-03
            2592            3027     18.2416E-03     18.6725E-03
            2592            3028     17.9604E-03     18.3209E-03
            2592            3044     17.5659E-03     18.2527E-03
            2592            3045     17.2990E-03     17.8834E-03
            2593            3028     17.9604E-03     18.3209E-03
            2593            3029     17.7650E-03     18.0544E-03
            2593            3045     17.2990E-03     17.8834E-03
            2593            3046     17.0831E-03     17.5482E-03
            2594            3029     17.7650E-03     18.0544E-03
            2594            3030     17.6270E-03     17.8358E-03
            2594            3046     17.0831E-03     17.5482E-03
            2594            3047     16.9134E-03     17.2557E-03
            2595            3030     17.6270E-03     17.8358E-03
            2595            3031     17.5472E-03     17.6709E-03
            2595            3047     16.9134E-03     17.2557E-03
            2595            3048     16.7468E-03     16.9427E-03
            2596            3031     17.5472E-03     17.6709E-03
            2596            3032     17.4095E-03     17.4028E-03
            2596            3048     16.7468E-03     16.9427E-03
            2596            3049     16.5977E-03     16.6239E-03
            2597            3032     17.4095E-03     17.4028E-03
            2597            3033     17.1702E-03     17.0451E-03
            2597            3049     16.5977E-03     16.6239E-03
            2597            3050     16.3547E-03     16.1962E-03
            2598            3033     17.1702E-03     17.0451E-03
            2598            3034     16.5521E-03     16.2675E-03
            2598            3050     16.3547E-03     16.1962E-03
            2598            3051     16.3931E-03     16.0589E-03
            2599            3034     16.5521E-03     16.2675E-03
            2599            3035     14.6682E-03     14.0926E-03
            2599            3051     16.3931E-03     16.0589E-03
            2599            3052     16.3245E-03     15.7943E-03
            2600             406     16.0227E-03     15.3854E-03
            2600             407     13.2884E-03     12.5443E-03
            2600            3035     14.6682E-03     14.0926E-03
            2600            3052     16.3245E-03     15.7943E-03
            2601             482     27.8942E-03     28.8068E-03
            2601             483     31.2174E-03     32.4893E-03
            2601            3036     27.7654E-03     29.0402E-03
            2601            3053     27.3610E-03     27.6129E-03
            2602            3036     27.7654E-03     29.0402E-03
            2602            3037     22.3716E-03     23.7139E-03
            2602            3053     27.3610E-03     27.6129E-03
            2602            3054     26.5242E-03     26.1990E-03
            2603            3037     22.3716E-03     23.7139E-03
            2603            3038     20.0971E-03     21.4428E-03
            2603            3054     26.5242E-03     26.1990E-03
            2603            3055     26.3712E-03     26.1167E-03
            2604            3038     20.0971E-03     21.4428E-03
            2604            3039     19.4359E-03     20.6395E-03
            2604            3055     26.3712E-03     26.1167E-03
            2604            3056     26.3673E-03     26.1821E-03
            2605            3039     19.4359E-03     20.6395E-03
            2605            3040     18.9514E-03     20.0532E-03
            2605            3056     26.3673E-03     26.1821E-03
            2605            3057     26.0792E-03     25.9916E-03
            2606            3040     18.9514E-03     20.0532E-03
            2606            3041     18.6065E-03     19.5996E-03
            2606            3057     26.0792E-03     25.9916E-03
            2606            3058     25.6482E-03     25.6122E-03
            2607            3041     18.6065E-03     19.5996E-03
            2607            3042     18.2302E-03     19.1181E-03
            2607            3058     25.6482E-03     25.6122E-03
            2607            3059     25.0043E-03     25.0088E-03
            2608            3042     18.2302E-03     19.1181E-03
            2608            3043     17.8820E-03     18.6763E-03
            2608            3059     25.0043E-03     25.0088E-03
            2608            3060     24.2636E-03     24.2888E-03
            2609            3043     17.8820E-03     18.6763E-03
            2609            3044     17.5659E-03     18.2527E-03
            2609            3060     24.2636E-03     24.2888E-03
            2609            3061     23.4564E-03     23.4899E-03
            2610            3044     17.5659E-03     18.2527E-03
            2610            3045     17.2990E-03     17.8834E-03
            2610            3061     23.4564E-03     23.4899E-03
            2610            3062     22.6364E-03     22.6678E-03
            2611            3045     17.2990E-03     17.8834E-03
            2611            3046     17.0831E-03     17.5482E-03
            2611            3062     22.6364E-03     22.6678E-03
            2611            3063     21.8269E-03     21.8483E-03
            2612            3046     17.0831E-03     17.5482E-03
            2612            3047     16.9134E-03     17.2557E-03
            2612            3063     21.8269E-03     21.8483E-03
            2612            3064     21.0498E-03     21.0576E-03
            2613            3047     16.9134E-03     17.2557E-03
            2613            3048     16.7468E-03     16.9427E-03
            2613            3064     21.0498E-03     21.0576E-03
            2613            3065     20.2741E-03     20.2588E-03
            2614            3048     16.7468E-03     16.9427E-03
            2614            3049     16.5977E-03     16.6239E-03
            2614            3065     20.2741E-03     20.2588E-03
            2614            3066     19.5430E-03     19.5331E-03
            2615            3049     16.5977E-03     16.6239E-03
            2615            3050     16.3547E-03     16.1962E-03
            2615            3066     19.5430E-03     19.5331E-03
            2615            3067     18.7204E-03     18.7093E-03
            2616            3050     16.3547E-03     16.1962E-03
            2616            3051     16.3931E-03     16.0589E-03
            2616            3067     18.7204E-03     18.7093E-03
            2616            3068     18.0515E-03     18.2303E-03
            2617            3051     16.3931E-03     16.0589E-03
            2617            3052     16.3245E-03     15.7943E-03
            2617            3068     18.0515E-03     18.2303E-03
            2617            3069     17.3664E-03     18.1978E-03
            2618             405     16.8579E-03     18.1196E-03
            2618             406     16.0227E-03     15.3854E-03
            2618            3052     16.3245E-03     15.7943E-03
            2618            3069     17.3664E-03     18.1978E-03
            2619             481     25.2752E-03     23.9063E-03
            2619             482     27.8942E-03     28.8068E-03
            2619            3053     27.3610E-03     27.6129E-03
            2619            3070     28.3228E-03     26.8246E-03
            2620            3053     27.3610E-03     27.6129E-03
            2620            3054     26.5242E-03     26.1990E-03
            2620            3070     28.3228E-03     26.8246E-03
            2620            3071     32.8077E-03     31.1527E-03
            2621            3054     26.5242E-03     26.1990E-03
            2621            3055     26.3712E-03     26.1167E-03
            2621            3071     32.8077E-03     31.1527E-03
            2621            3072     34.6732E-03     33.0789E-03
            2622            3055     26.3712E-03     26.1167E-03
            2622            3056     26.3673E-03     26.1821E-03
            2622            3072     34.6732E-03     33.0789E-03
            2622            3073     35.0596E-03     33.6587E-03
            2623            3056     26.3673E-03     26.1821E-03
            2623            3057     26.0792E-03     25.9916E-03
            2623            3073     35.0596E-03     33.6587E-03
            2623            3074     34.6554E-03     33.4322E-03
            2624            3057     26.0792E-03     25.9916E-03
            2624            3058     25.6482E-03     25.6122E-03
            2624            3074     34.6554E-03     33.4322E-03
            2624            3075     33.7203E-03     32.6632E-03
            2625            3058     25.6482E-03     25.6122E-03
            2625            3059     25.0043E-03     25.0088E-03
            2625            3075     33.7203E-03     32.6632E-03
            2625            3076     32.4656E-03     31.5568E-03
            2626            3059     25.0043E-03     25.0088E-03
            2626            3060     24.2636E-03     24.2888E-03
            2626            3076     32.4656E-03     31.5568E-03
            2626            3077     31.0175E-03     30.2313E-03
            2627            3060     24.2636E-03     24.2888E-03
            2627            3061     23.4564E-03     23.4899E-03
            2627            3077     31.0175E-03     30.2313E-03
            2627            3078     29.4704E-03     28.8056E-03
            2628            3061     23.4564E-03     23.4899E-03
            2628            3062     22.6364E-03     22.6678E-03
            2628            3078     29.4704E-03     28.8056E-03
            2628            3079     27.9108E-03     27.3511E-03
            2629            3062     22.6364E-03     22.6678E-03
            2629            3063     21.8269E-03     21.8483E-03
            2629            3079     27.9108E-03     27.3511E-03
            2629            3080     26.3790E-03     25.9380E-03
            2630            3063     21.8269E-03     21.8483E-03
            2630            3064     21.0498E-03     21.0576E-03
            2630            3080     26.3790E-03     25.9380E-03
            2630            3081     24.9348E-03     24.6146E-03
            2631            3064     21.0498E-03     21.0576E-03
            2631            3065     20.2741E-03     20.2588E-03
            2631            3081     24.9348E-03     24.6146E-03
            2631            3082     23.5672E-03     23.4141E-03
            2632            3065     20.2741E-03     20.2588E-03
            2632            3066     19.5430E-03     19.5331E-03
            2632            3082     23.5672E-03     23.4141E-03
            2632            3083     22.2916E-03     22.3644E-03
            2633            3066     19.5430E-03     19.5331E-03
            2633            3067     18.7204E-03     18.7093E-03
            2633            3083     22.2916E-03     22.3644E-03
            2633            3084     20.9970E-03     21.4356E-03
            2634            3067     18.7204E-03     18.7093E-03
            2634            3068     18.0515E-03     18.2303E-03
            2634            3084     20.9970E-03     21.4356E-03
            2634            3085     19.5238E-03     20.7576E-03
            2635            3068     18.0515E-03     18.2303E-03
            2635            3069     17.3664E-03     18.1978E-03
            2635            3085     19.5238E-03     20.7576E-03
            2635            3086     17.5999E-03     19.5918E-03
            2636             404     16.4538E-03     18.6614E-03
            2636             405     16.8579E-03     18.1196E-03
            2636            3069     17.3664E-03     18.1978E-03
            2636            3086     17.5999E-03     19.5918E-03
            2637             480     31.9878E-03     32.1792E-03
            2637             481     25.2752E-03     23.9063E-03
            2637            3070     28.3228E-03     26.8246E-03
            2637            3087     33.0905E-03     33.3119E-03
            2638            3070     28.3228E-03     26.8246E-03
            2638            3071     32.8077E-03     31.1527E-03
            2638            3087     33.0905E-03     33.3119E-03
            2638            3088     35.5805E-03     35.5597E-03
            2639            3071     32.8077E-03     31.1527E-03
            2639            3072     34.6732E-03     33.0789E-03
            2639            3088     35.5805E-03     35.5597E-03
            2639            3089     37.2404E-03     36.8206E-03
            2640            3072     34.6732E-03     33.0789E-03
            2640            3073     35.0596E-03     33.6587E-03
            2640            3089     37.2404E-03     36.8206E-03
            2640            3090     37.2506E-03     36.6487E-03
            2641            3073     35.0596E-03     33.6587E-03
            2641            3074     34.6554E-03     33.4322E-03
            2641            3090     37.2506E-03     36.6487E-03
            2641            3091     36.3367E-03     35.6935E-03
            2642            3074     34.6554E-03     33.4322E-03
            2642            3075     33.7203E-03     32.6632E-03
            2642            3091     36.3367E-03     35.6935E-03
            2642            3092     34.8604E-03     34.2330E-03
            2643            3075     33.7203E-03     32.6632E-03
            2643            3076     32.4656E-03     31.5568E-03
            2643            3092     34.8604E-03     34.2330E-03
            2643            3093     33.0710E-03     32.4858E-03
            2644            3076     32.4656E-03     31.5568E-03
            2644            3077     31.0175E-03     30.2313E-03
            2644            3093     33.0710E-03     32.4858E-03
            2644            3094     31.1282E-03     30.6068E-03
            2645            3077     31.0175E-03     30.2313E-03
            2645            3078     29.4704E-03     28.8056E-03
            2645            3094     31.1282E-03     30.6068E-03
            2645            3095     29.1631E-03     28.7066E-03
            2646            3078     29.4704E-03     28.8056E-03
            2646            3079     27.9108E-03     27.3511E-03
            2646            3095     29.1631E-03     28.7066E-03
            2646            3096     27.2498E-03     26.8749E-03
            2647            3079     27.9108E-03     27.3511E-03
            2647            3080     26.3790E-03     25.9380E-03
            2647            3096     27.2498E-03     26.8749E-03
            2647            3097     25.4699E-03     25.1893E-03
            2648            3080     26.3790E-03     25.9380E-03
            2648            3081     24.9348E-03     24.6146E-03
            2648            3097     25.4699E-03     25.1893E-03
            2648            3098     23.8522E-03     23.6961E-03
            2649            3081     24.9348E-03     24.6146E-03
            2649            3082     23.5672E-03     23.4141E-03
            2649            3098     23.8522E-03     23.6961E-03
            2649            3099     22.4299E-03     22.4545E-03
            2650            3082     23.5672E-03     23.4141E-03
            2650            3083     22.2916E-03     22.3644E-03
            2650            3099     22.4299E-03     22.4545E-03
            2650            3100     21.1808E-03     21.4411E-03
            2651            3083     22.2916E-03     22.3644E-03
            2651            3084     20.9970E-03     21.4356E-03
            2651            3100     21.1808E-03     21.4411E-03
            2651            3101     20.0068E-03     20.6757E-03
            2652            3084     20.9970E-03     21.4356E-03
            2652            3085     19.5238E-03     20.7576E-03
            2652            3101     20.0068E-03     20.6757E-03
            2652            3102     18.8709E-03     19.8225E-03
            2653            3085     19.5238E-03     20.7576E-03
            2653            3086     17.5999E-03     19.5918E-03
            2653            3102     18.8709E-03     19.8225E-03
            2653            3103     17.5133E-03     17.8013E-03
            2654             403     16.7083E-03     16.3334E-03
            2654             404     16.4538E-03     18.6614E-03
            2654            3086     17.5999E-03     19.5918E-03
            2654            3103     17.5133E-03     17.8013E-03
            2655             479     38.5192E-03     38.5657E-03
            2655             480     31.9878E-03     32.1792E-03
            2655            3087     33.0905E-03     33.3119E-03
            2655            3104     38.4199E-03     38.7975E-03
            2656            3087     33.0905E-03     33.3119E-03
            2656            3088     35.5805E-03     35.5597E-03
            2656            3104     38.4199E-03     38.7975E-03
            2656            3105     38.8288E-03     39.4781E-03
            2657            3088     35.5805E-03     35.5597E-03
            2657            3089     37.2404E-03     36.8206E-03
            2657            3105     38.8288E-03     39.4781E-03
            2657            3106     39.4756E-03     39.8721E-03
            2658            3089     37.2404E-03     36.8206E-03
            2658            3090     37.2506E-03     36.6487E-03
            2658            3106     39.4756E-03     39.8721E-03
            2658            3107     39.0981E-03     39.2161E-03
            2659            3090     37.2506E-03     36.6487E-03
            2659            3091     36.3367E-03     35.6935E-03
            2659            3107     39.0981E-03     39.2161E-03
            2659            3108     37.7754E-03     37.7180E-03
            2660            3091     36.3367E-03     35.6935E-03
            2660            3092     34.8604E-03     34.2330E-03
            2660            3108     37.7754E-03     37.7180E-03
            2660            3109     35.8885E-03     35.7310E-03
            2661            3092     34.8604E-03     34.2330E-03
            2661            3093     33.0710E-03     32.4858E-03
            2661            3109     35.8885E-03     35.7310E-03
            2661            3110     33.6751E-03     33.4833E-03
            2662            3093     33.0710E-03     32.4858E-03
            2662            3094     31.1282E-03     30.6068E-03
            2662            3110     33.6751E-03     33.4833E-03
            2662            3111     31.3509E-03     31.1471E-03
            2663            3094     31.1282E-03     30.6068E-03
            2663            3095     29.1631E-03     28.7066E-03
            2663            3111     31.3509E-03     31.1471E-03
            2663            3112     29.0313E-03     28.8474E-03
            2664            3095     29.1631E-03     28.7066E-03
            2664            3096     27.2498E-03     26.8749E-03
            2664            3112     29.0313E-03     28.8474E-03
            2664            3113     26.8353E-03     26.6874E-03
            2665            3096     27.2498E-03     26.8749E-03
            2665            3097     25.4699E-03     25.1893E-03
            2665            3113     26.8353E-03     26.6874E-03
            2665            3114     24.8243E-03     24.7346E-03
            2666            3097     25.4699E-03     25.1893E-03
            2666            3098     23.8522E-03     23.6961E-03
            2666            3114     24.8243E-03     24.7346E-03
            2666            3115     23.0620E-03     23.0639E-03
            2667            3098     23.8522E-03     23.6961E-03
            2667            3099     22.4299E-03     22.4545E-03
            2667            3115     23.0620E-03     23.0639E-03
            2667            3116     21.5657E-03     21.6803E-03
            2668            3099     22.4299E-03     22.4545E-03
            2668            3100     21.1808E-03     21.4411E-03
            2668            3116     21.5657E-03     21.6803E-03
            2668            3117     20.3114E-03     20.5790E-03
            2669            3100     21.1808E-03     21.4411E-03
            2669            3101     20.0068E-03     20.6757E-03
            2669            3117     20.3114E-03     20.5790E-03
            2669            3118     19.2574E-03     19.5934E-03
            2670            3101     20.0068E-03     20.6757E-03
            2670            3102     18.8709E-03     19.8225E-03
            2670            3118     19.2574E-03     19.5934E-03
            2670            3119     18.2495E-03     18.1864E-03
            2671            3102     18.8709E-03     19.8225E-03
            2671            3103     17.5133E-03     17.8013E-03
            2671            3119     18.2495E-03     18.1864E-03
            2671            3120     16.7518E-03     16.1396E-03
            2672             402     15.7846E-03     14.9889E-03
            2672             403     16.7083E-03     16.3334E-03
            2672            3103     17.5133E-03     17.8013E-03
            2672            3120     16.7518E-03     16.1396E-03
            2673             478     43.8862E-03     44.2369E-03
            2673             479     38.5192E-03     38.5657E-03
            2673            3104     38.4199E-03     38.7975E-03
            2673            3121     43.2983E-03     43.7847E-03
            2674            3104     38.4199E-03     38.7975E-03
            2674            3105     38.8288E-03     39.4781E-03
            2674            3121     43.2983E-03     43.7847E-03
            2674            3122     42.4176E-03     43.1562E-03
            2675            3105     38.8288E-03     39.4781E-03
            2675            3106     39.4756E-03     39.8721E-03
            2675            3122     42.4176E-03     43.1562E-03
            2675            3123     41.7419E-03     42.5437E-03
            2676            3106     39.4756E-03     39.8721E-03
            2676            3107     39.0981E-03     39.2161E-03
            2676            3123     41.7419E-03     42.5437E-03
            2676            3124     40.6752E-03     41.2865E-03
            2677            3107     39.0981E-03     39.2161E-03
            2677            3108     37.7754E-03     37.7180E-03
            2677            3124     40.6752E-03     41.2865E-03
            2677            3125     38.9101E-03     39.3291E-03
            2678            3108     37.7754E-03     37.7180E-03
            2678            3109     35.8885E-03     35.7310E-03
            2678            3125     38.9101E-03     39.3291E-03
            2678            3126     36.6290E-03     36.9184E-03
            2679            3109     35.8885E-03     35.7310E-03
            2679            3110     33.6751E-03     33.4833E-03
            2679            3126     36.6290E-03     36.9184E-03
            2679            3127     34.0948E-03     34.2836E-03
            2680            3110     33.6751E-03     33.4833E-03
            2680            3111     31.3509E-03     31.1471E-03
            2680            3127     34.0948E-03     34.2836E-03
            2680            3128     31.4587E-03     31.5973E-03
            2681            3111     31.3509E-03     31.1471E-03
            2681            3112     29.0313E-03     28.8474E-03
            2681            3128     31.4587E-03     31.5973E-03
            2681            3129     28.8870E-03     28.9947E-03
            2682            3112     29.0313E-03     28.8474E-03
            2682            3113     26.8353E-03     26.6874E-03
            2682            3129     28.8870E-03     28.9947E-03
            2682            3130     26.4653E-03     26.5632E-03
            2683            3113     26.8353E-03     26.6874E-03
            2683            3114     24.8243E-03     24.7346E-03
            2683            3130     26.4653E-03     26.5632E-03
            2683            3131     24.2820E-03     24.3900E-03
            2684            3114     24.8243E-03     24.7346E-03
            2684            3115     23.0620E-03     23.0639E-03
            2684            3131     24.2820E-03     24.3900E-03
            2684            3132     22.3875E-03     22.5115E-03
            2685            3115     23.0620E-03     23.0639E-03
            2685            3116     21.5657E-03     21.6803E-03
            2685            3132     22.3875E-03     22.5115E-03
            2685            3133     20.8133E-03     20.9546E-03
            2686            3116     21.5657E-03     21.6803E-03
            2686            3117     20.3114E-03     20.5790E-03
            2686            3133     20.8133E-03     20.9546E-03
            2686            3134     19.5316E-03     19.6379E-03
            2687            3117     20.3114E-03     20.5790E-03
            2687            3118     19.2574E-03     19.5934E-03
            2687            3134     19.5316E-03     19.6379E-03
            2687            3135     18.4703E-03     18.3306E-03
            2688            3118     19.2574E-03     19.5934E-03
            2688            3119     18.2495E-03     18.1864E-03
            2688            3135     18.4703E-03     18.3306E-03
            2688            3136     17.3677E-03     16.8674E-03
            2689            3119     18.2495E-03     18.1864E-03
            2689            3120     16.7518E-03     16.1396E-03
            2689            3136     17.3677E-03     16.8674E-03
            2689            3137     16.1750E-03     15.3148E-03
            2690             401     15.5938E-03     14.5377E-03
            2690             402     15.7846E-03     14.9889E-03
            2690            3120     16.7518E-03     16.1396E-03
            2690            3137     16.1750E-03     15.3148E-03
            2691             477     49.1865E-03     49.4245E-03
            2691             478     43.8862E-03     44.2369E-03
            2691            3121     43.2983E-03     43.7847E-03
            2691            3138     47.9408E-03     48.4472E-03
            2692            3121     43.2983E-03     43.7847E-03
            2692            3122     42.4176E-03     43.1562E-03
            2692            3138     47.9408E-03     48.4472E-03
            2692            3139     45.8326E-03     46.6890E-03
            2693            3122     42.4176E-03     43.1562E-03
            2693            3123     41.7419E-03     42.5437E-03
            2693            3139     45.8326E-03     46.6890E-03
            2693            3140     44.0944E-03     45.0187E-03
            2694            3123     41.7419E-03     42.5437E-03
            2694            3124     40.6752E-03     41.2865E-03
            2694            3140     44.0944E-03     45.0187E-03
            2694            3141     42.0916E-03     42.9887E-03
            2695            3124     40.6752E-03     41.2865E-03
            2695            3125     38.9101E-03     39.3291E-03
            2695            3141     42.0916E-03     42.9887E-03
            2695            3142     39.7260E-03     40.5115E-03
            2696            3125     38.9101E-03     39.3291E-03
            2696            3126     36.6290E-03     36.9184E-03
            2696            3142     39.7260E-03     40.5115E-03
            2696            3143     37.0529E-03     37.6940E-03
            2697            3126     36.6290E-03     36.9184E-03
            2697            3127     34.0948E-03     34.2836E-03
            2697            3143     37.0529E-03     37.6940E-03
            2697            3144     34.1912E-03     34.7391E-03
            2698            3127     34.0948E-03     34.2836E-03
            2698            3128     31.4587E-03     31.5973E-03
            2698            3144     34.1912E-03     34.7391E-03
            2698            3145     31.3366E-03     31.7992E-03
            2699            3128     31.4587E-03     31.5973E-03
            2699            3129     28.8870E-03     28.9947E-03
            2699            3145     31.3366E-03     31.7992E-03
            2699            3146     28.5714E-03     28.9692E-03
            2700            3129     28.8870E-03     28.9947E-03
            2700            3130     26.4653E-03     26.5632E-03
            2700            3146     28.5714E-03     28.9692E-03
            2700            3147     25.9970E-03     26.3434E-03
            2701            3130     26.4653E-03     26.5632E-03
            2701            3131     24.2820E-03     24.3900E-03
            2701            3147     25.9970E-03     26.3434E-03
            2701            3148     23.6878E-03     23.9808E-03
            2702            3131     24.2820E-03     24.3900E-03
            2702            3132     22.3875E-03     22.5115E-03
            2702            3148     23.6878E-03     23.9808E-03
            2702            3149     21.7000E-03     21.9311E-03
            2703            3132     22.3875E-03     22.5115E-03
            2703            3133     20.8133E-03     20.9546E-03
            2703            3149     21.7000E-03     21.9311E-03
            2703            3150     20.0507E-03     20.1796E-03
            2704            3133     20.8133E-03     20.9546E-03
            2704            3134     19.5316E-03     19.6379E-03
            2704            3150     20.0507E-03     20.1796E-03
            2704            3151     18.7445E-03     18.6624E-03
            2705            3134     19.5316E-03     19.6379E-03
            2705            3135     18.4703E-03     18.3306E-03
            2705            3151     18.7445E-03     18.6624E-03
            2705            3152     17.6362E-03     17.2536E-03
            2706            3135     18.4703E-03     18.3306E-03
            2706            3136     17.3677E-03     16.8674E-03
            2706            3152     17.6362E-03     17.2536E-03
            2706            3153     16.6771E-03     15.9142E-03
            2707            3136     17.3677E-03     16.8674E-03
            2707            3137     16.1750E-03     15.3148E-03
            2707            3153     16.6771E-03     15.9142E-03
            2707            3154     15.9018E-03     14.7540E-03
            2708             400     15.5497E-03     14.2384E-03
            2708             401     15.5938E-03     14.5377E-03
            2708            3137     16.1750E-03     15.3148E-03
            2708            3154     15.9018E-03     14.7540E-03
            2709             476     53.9410E-03     54.6451E-03
            2709             477     49.1865E-03     49.4245E-03
            2709            3138     47.9408E-03     48.4472E-03
            2709            3155     52.3201E-03     53.0103E-03
            2710            3138     47.9408E-03     48.4472E-03
            2710            3139     45.8326E-03     46.6890E-03
            2710            3155     52.3201E-03     53.0103E-03
            2710            3156     49.2301E-03     50.0461E-03
            2711            3139     45.8326E-03     46.6890E-03
            2711            3140     44.0944E-03     45.0187E-03
            2711            3156     49.2301E-03     50.0461E-03
            2711            3157     46.2637E-03     47.3024E-03
            2712            3140     44.0944E-03     45.0187E-03
            2712            3141     42.0916E-03     42.9887E-03
            2712            3157     46.2637E-03     47.3024E-03
            2712            3158     43.3034E-03     44.3796E-03
            2713            3141     42.0916E-03     42.9887E-03
            2713            3142     39.7260E-03     40.5115E-03
            2713            3158     43.3034E-03     44.3796E-03
            2713            3159     40.2312E-03     41.2378E-03
            2714            3142     39.7260E-03     40.5115E-03
            2714            3143     37.0529E-03     37.6940E-03
            2714            3159     40.2312E-03     41.2378E-03
            2714            3160     37.0557E-03     38.0033E-03
            2715            3143     37.0529E-03     37.6940E-03
            2715            3144     34.1912E-03     34.7391E-03
            2715            3160     37.0557E-03     38.0033E-03
            2715            3161     33.9352E-03     34.7889E-03
            2716            3144     34.1912E-03     34.7391E-03
            2716            3145     31.3366E-03     31.7992E-03
            2716            3161     33.9352E-03     34.7889E-03
            2716            3162     30.8876E-03     31.6501E-03
            2717            3145     31.3366E-03     31.7992E-03
            2717            3146     28.5714E-03     28.9692E-03
            2717            3162     30.8876E-03     31.6501E-03
            2717            3163     27.9942E-03     28.6730E-03
            2718            3146     28.5714E-03     28.9692E-03
            2718            3147     25.9970E-03     26.3434E-03
            2718            3163     27.9942E-03     28.6730E-03
            2718            3164     25.3241E-03     25.9077E-03
            2719            3147     25.9970E-03     26.3434E-03
            2719            3148     23.6878E-03     23.9808E-03
            2719            3164     25.3241E-03     25.9077E-03
            2719            3165     22.9295E-03     23.4093E-03
            2720            3148     23.6878E-03     23.9808E-03
            2720            3149     21.7000E-03     21.9311E-03
            2720            3165     22.9295E-03     23.4093E-03
            2720            3166     20.8857E-03     21.2210E-03
            2721            3149     21.7000E-03     21.9311E-03
            2721            3150     20.0507E-03     20.1796E-03
            2721            3166     20.8857E-03     21.2210E-03
            2721            3167     19.2282E-03     19.3521E-03
            2722            3150     20.0507E-03     20.1796E-03
            2722            3151     18.7445E-03     18.6624E-03
            2722            3167     19.2282E-03     19.3521E-03
            2722            3168     17.9057E-03     17.7350E-03
            2723            3151     18.7445E-03     18.6624E-03
            2723            3152     17.6362E-03     17.2536E-03
            2723            3168     17.9057E-03     17.7350E-03
            2723            3169     16.9338E-03     16.3815E-03
            2724            3152     17.6362E-03     17.2536E-03
            2724            3153     16.6771E-03     15.9142E-03
            2724            3169     16.9338E-03     16.3815E-03
            2724            3170     16.2373E-03     15.2844E-03
            2725            3153     16.6771E-03     15.9142E-03
            2725            3154     15.9018E-03     14.7540E-03
            2725            3170     16.2373E-03     15.2844E-03
            2725            3171     15.8988E-03     14.6545E-03
            2726             399     15.8689E-03     14.5198E-03
            2726             400     15.5497E-03     14.2384E-03
            2726            3154     15.9018E-03     14.7540E-03
            2726            3171     15.8988E-03     14.6545E-03
            2727             475     59.1219E-03     59.3716E-03
            2727             476     53.9410E-03     54.6451E-03
            2727            3155     52.3201E-03     53.0103E-03
            2727            3172     56.8253E-03     57.3936E-03
            2728            3155     52.3201E-03     53.0103E-03
            2728            3156     49.2301E-03     50.0461E-03
            2728            3172     56.8253E-03     57.3936E-03
            2728            3173     52.3678E-03     53.3569E-03
            2729            3156     49.2301E-03     50.0461E-03
            2729            3157     46.2637E-03     47.3024E-03
            2729            3173     52.3678E-03     53.3569E-03
            2729            3174     48.2066E-03     49.2939E-03
            2730            3157     46.2637E-03     47.3024E-03
            2730            3158     43.3034E-03     44.3796E-03
            2730            3174     48.2066E-03     49.2939E-03
            2730            3175     44.1291E-03     45.2716E-03
            2731            3158     43.3034E-03     44.3796E-03
            2731            3159     40.2312E-03     41.2378E-03
            2731            3175     44.1291E-03     45.2716E-03
            2731            3176     40.2076E-03     41.4339E-03
            2732            3159     40.2312E-03     41.2378E-03
            2732            3160     37.0557E-03     38.0033E-03
            2732            3176     40.2076E-03     41.4339E-03
            2732            3177     36.6409E-03     37.8361E-03
            2733            3160     37.0557E-03     38.0033E-03
            2733            3161     33.9352E-03     34.7889E-03
            2733            3177     36.6409E-03     37.8361E-03
            2733            3178     33.2661E-03     34.3894E-03
            2734            3161     33.9352E-03     34.7889E-03
            2734            3162     30.8876E-03     31.6501E-03
            2734            3178     33.2661E-03     34.3894E-03
            2734            3179     30.0830E-03     31.1286E-03
            2735            3162     30.8876E-03     31.6501E-03
            2735            3163     27.9942E-03     28.6730E-03
            2735            3179     30.0830E-03     31.1286E-03
            2735            3180     27.1126E-03     28.0531E-03
            2736            3163     27.9942E-03     28.6730E-03
            2736            3164     25.3241E-03     25.9077E-03
            2736            3180     27.1126E-03     28.0531E-03
            2736            3181     24.3708E-03     25.1973E-03
            2737            3164     25.3241E-03     25.9077E-03
            2737            3165     22.9295E-03     23.4093E-03
            2737            3181     24.3708E-03     25.1973E-03
            2737            3182     21.9404E-03     22.6111E-03
            2738            3165     22.9295E-03     23.4093E-03
            2738            3166     20.8857E-03     21.2210E-03
            2738            3182     21.9404E-03     22.6111E-03
            2738            3183     19.8625E-03     20.3258E-03
            2739            3166     20.8857E-03     21.2210E-03
            2739            3167     19.2282E-03     19.3521E-03
            2739            3183     19.8625E-03     20.3258E-03
            2739            3184     18.2334E-03     18.4058E-03
            2740            3167     19.2282E-03     19.3521E-03
            2740            3168     17.9057E-03     17.7350E-03
            2740            3184     18.2334E-03     18.4058E-03
            2740            3185     17.1019E-03     16.8947E-03
            2741            3168     17.9057E-03     17.7350E-03
            2741            3169     16.9338E-03     16.3815E-03
            2741            3185     17.1019E-03     16.8947E-03
            2741            3186     16.3538E-03     15.7114E-03
            2742            3169     16.9338E-03     16.3815E-03
            2742            3170     16.2373E-03     15.2844E-03
            2742            3186     16.3538E-03     15.7114E-03
            2742            3187     16.0802E-03     15.0263E-03
            2743            3170     16.2373E-03     15.2844E-03
            2743            3171     15.8988E-03     14.6545E-03
            2743            3187     16.0802E-03     15.0263E-03
            2743            3188     16.3298E-03     14.9953E-03
            2744             398     16.5568E-03     15.1288E-03
            2744             399     15.8689E-03     14.5198E-03
            2744            3171     15.8988E-03     14.6545E-03
            2744            3188     16.3298E-03     14.9953E-03
            2745             474     63.8738E-03     65.1612E-03
            2745             475     59.1219E-03     59.3716E-03
            2745            3172     56.8253E-03     57.3936E-03
            2745            3189     61.1115E-03     62.1654E-03
            2746            3172     56.8253E-03     57.3936E-03
            2746            3173     52.3678E-03     53.3569E-03
            2746            3189     61.1115E-03     62.1654E-03
            2746            3190     55.4482E-03     56.2922E-03
            2747            3173     52.3678E-03     53.3569E-03
            2747            3174     48.2066E-03     49.2939E-03
            2747            3190     55.4482E-03     56.2922E-03
            2747            3191     49.5097E-03     50.5473E-03
            2748            3174     48.2066E-03     49.2939E-03
            2748            3175     44.1291E-03     45.2716E-03
            2748            3191     49.5097E-03     50.5473E-03
            2748            3192     44.0652E-03     45.4074E-03
            2749            3175     44.1291E-03     45.2716E-03
            2749            3176     40.2076E-03     41.4339E-03
            2749            3192     44.0652E-03     45.4074E-03
            2749            3193     39.6441E-03     41.0768E-03
            2750            3176     40.2076E-03     41.4339E-03
            2750            3177     36.6409E-03     37.8361E-03
            2750            3193     39.6441E-03     41.0768E-03
            2750            3194     35.7482E-03     37.1628E-03
            2751            3177     36.6409E-03     37.8361E-03
            2751            3178     33.2661E-03     34.3894E-03
            2751            3194     35.7482E-03     37.1628E-03
            2751            3195     32.2028E-03     33.5884E-03
            2752            3178     33.2661E-03     34.3894E-03
            2752            3179     30.0830E-03     31.1286E-03
            2752            3195     32.2028E-03     33.5884E-03
            2752            3196     28.9471E-03     30.2487E-03
            2753            3179     30.0830E-03     31.1286E-03
            2753            3180     27.1126E-03     28.0531E-03
            2753            3196     28.9471E-03     30.2487E-03
            2753            3197     25.9108E-03     27.1199E-03
            2754            3180     27.1126E-03     28.0531E-03
            2754            3181     24.3708E-03     25.1973E-03
            2754            3197     25.9108E-03     27.1199E-03
            2754            3198     23.1409E-03     24.2136E-03
            2755            3181     24.3708E-03     25.1973E-03
            2755            3182     21.9404E-03     22.6111E-03
            2755            3198     23.1409E-03     24.2136E-03
            2755            3199     20.6549E-03     21.5470E-03
            2756            3182     21.9404E-03     22.6111E-03
            2756            3183     19.8625E-03     20.3258E-03
            2756            3199     20.6549E-03     21.5470E-03
            2756            3200     18.5793E-03     19.2103E-03
            2757            3183     19.8625E-03     20.3258E-03
            2757            3184     18.2334E-03     18.4058E-03
            2757            3200     18.5793E-03     19.2103E-03
            2757            3201     16.9888E-03     17.2658E-03
            2758            3184     18.2334E-03     18.4058E-03
            2758            3185     17.1019E-03     16.8947E-03
            2758            3201     16.9888E-03     17.2658E-03
            2758            3202     16.0881E-03     15.9067E-03
            2759            3185     17.1019E-03     16.8947E-03
            2759            3186     16.3538E-03     15.7114E-03
            2759            3202     16.0881E-03     15.9067E-03
            2759            3203     15.9891E-03     15.3137E-03
            2760            3186     16.3538E-03     15.7114E-03
            2760            3187     16.0802E-03     15.0263E-03
            2760            3203     15.9891E-03     15.3137E-03
            2760            3204     16.3517E-03     15.2543E-03
            2761            3187     16.0802E-03     15.0263E-03
            2761            3188     16.3298E-03     14.9953E-03
            2761            3204     16.3517E-03     15.2543E-03
            2761            3205     17.1421E-03     15.8000E-03
            2762             397     17.6962E-03     16.2954E-03
            2762             398     16.5568E-03     15.1288E-03
            2762            3188     16.3298E-03     14.9953E-03
            2762            3205     17.1421E-03     15.8000E-03
            2763             473     69.9250E-03     69.6754E-03
            2763             474     63.8738E-03     65.1612E-03
            2763            3189     61.1115E-03     62.1654E-03
            2763            3206     66.0049E-03     66.0929E-03
            2764            3189     61.1115E-03     62.1654E-03
            2764            3190     55.4482E-03     56.2922E-03
            2764            3206     66.0049E-03     66.0929E-03
            2764            3207     57.2844E-03     58.0776E-03
            2765            3190     55.4482E-03     56.2922E-03
            2765            3191     49.5097E-03     50.5473E-03
            2765            3207     57.2844E-03     58.0776E-03
            2765            3208     49.0767E-03     50.4779E-03
            2766            3191     49.5097E-03     50.5473E-03
            2766            3192     44.0652E-03     45.4074E-03
            2766            3208     49.0767E-03     50.4779E-03
            2766            3209     43.2040E-03     44.8087E-03
            2767            3192     44.0652E-03     45.4074E-03
            2767            3193     39.6441E-03     41.0768E-03
            2767            3209     43.2040E-03     44.8087E-03
            2767            3210     38.5125E-03     40.1350E-03
            2768            3193     39.6441E-03     41.0768E-03
            2768            3194     35.7482E-03     37.1628E-03
            2768            3210     38.5125E-03     40.1350E-03
            2768            3211     34.4438E-03     36.0961E-03
            2769            3194     35.7482E-03     37.1628E-03
            2769            3195     32.2028E-03     33.5884E-03
            2769            3211     34.4438E-03     36.0961E-03
            2769            3212     30.8510E-03     32.4661E-03
            2770            3195     32.2028E-03     33.5884E-03
            2770            3196     28.9471E-03     30.2487E-03
            2770            3212     30.8510E-03     32.4661E-03
            2770            3213     27.5300E-03     29.0977E-03
            2771            3196     28.9471E-03     30.2487E-03
            2771            3197     25.9108E-03     27.1199E-03
            2771            3213     27.5300E-03     29.0977E-03
            2771            3214     24.4700E-03     25.9496E-03
            2772            3197     25.9108E-03     27.1199E-03
            2772            3198     23.1409E-03     24.2136E-03
            2772            3214     24.4700E-03     25.9496E-03
            2772            3215     21.6378E-03     22.9874E-03
            2773            3198     23.1409E-03     24.2136E-03
            2773            3199     20.6549E-03     21.5470E-03
            2773            3215     21.6378E-03     22.9874E-03
            2773            3216     19.1091E-03     20.2618E-03
            2774            3199     20.6549E-03     21.5470E-03
            2774            3200     18.5793E-03     19.2103E-03
            2774            3216     19.1091E-03     20.2618E-03
            2774            3217     16.9591E-03     17.8198E-03
            2775            3200     18.5793E-03     19.2103E-03
            2775            3201     16.9888E-03     17.2658E-03
            2775            3217     16.9591E-03     17.8198E-03
            2775            3218     15.4244E-03     15.8651E-03
            2776            3201     16.9888E-03     17.2658E-03
            2776            3202     16.0881E-03     15.9067E-03
            2776            3218     15.4244E-03     15.8651E-03
            2776            3219     14.6749E-03     14.5811E-03
            2777            3202     16.0881E-03     15.9067E-03
            2777            3203     15.9891E-03     15.3137E-03
            2777            3219     14.6749E-03     14.5811E-03
            2777            3220     15.1662E-03     14.4952E-03
            2778            3203     15.9891E-03     15.3137E-03
            2778            3204     16.3517E-03     15.2543E-03
            2778            3220     15.1662E-03     14.4952E-03
            2778            3221     17.0108E-03     15.8895E-03
            2779            3204     16.3517E-03     15.2543E-03
            2779            3205     17.1421E-03     15.8000E-03
            2779            3221     17.0108E-03     15.8895E-03
            2779            3222     18.9350E-03     17.6104E-03
            2780             396     19.6851E-03     18.3167E-03
            2780             397     17.6962E-03     16.2954E-03
            2780            3205     17.1421E-03     15.8000E-03
            2780            3222     18.9350E-03     17.6104E-03
            2781             472     75.3232E-03     76.3582E-03
            2781             473     69.9250E-03     69.6754E-03
            2781            3206     66.0049E-03     66.0929E-03
            2781            3223     68.0800E-03     69.5560E-03
            2782            3206     66.0049E-03     66.0929E-03
            2782            3207     57.2844E-03     58.0776E-03
            2782            3223     68.0800E-03     69.5560E-03
            2782            3224     55.6723E-03     57.5872E-03
            2783            3207     57.2844E-03     58.0776E-03
            2783            3208     49.0767E-03     50.4779E-03
            2783            3224     55.6723E-03     57.5872E-03
            2783            3225     47.4831E-03     49.3495E-03
            2784            3208     49.0767E-03     50.4779E-03
            2784            3209     43.2040E-03     44.8087E-03
            2784            3225     47.4831E-03     49.3495E-03
            2784            3226     41.7749E-03     43.5804E-03
            2785            3209     43.2040E-03     44.8087E-03
            2785            3210     38.5125E-03     40.1350E-03
            2785            3226     41.7749E-03     43.5804E-03
            2785            3227     36.9992E-03     38.8245E-03
            2786            3210     38.5125E-03     40.1350E-03
            2786            3211     34.4438E-03     36.0961E-03
            2786            3227     36.9992E-03     38.8245E-03
            2786            3228     32.9731E-03     34.8187E-03
            2787            3211     34.4438E-03     36.0961E-03
            2787            3212     30.8510E-03     32.4661E-03
            2787            3228     32.9731E-03     34.8187E-03
            2787            3229     29.3278E-03     31.1788E-03
            2788            3212     30.8510E-03     32.4661E-03
            2788            3213     27.5300E-03     29.0977E-03
            2788            3229     29.3278E-03     31.1788E-03
            2788            3230     25.9904E-03     27.8281E-03
            2789            3213     27.5300E-03     29.0977E-03
            2789            3214     24.4700E-03     25.9496E-03
            2789            3230     25.9904E-03     27.8281E-03
            2789            3231     22.8676E-03     24.6447E-03
            2790            3214     24.4700E-03     25.9496E-03
            2790            3215     21.6378E-03     22.9874E-03
            2790            3231     22.8676E-03     24.6447E-03
            2790            3232     19.9649E-03     21.6350E-03
            2791            3215     21.6378E-03     22.9874E-03
            2791            3216     19.1091E-03     20.2618E-03
            2791            3232     19.9649E-03     21.6350E-03
            2791            3233     17.3205E-03     18.7958E-03
            2792            3216     19.1091E-03     20.2618E-03
            2792            3217     16.9591E-03     17.8198E-03
            2792            3233     17.3205E-03     18.7958E-03
            2792            3234     15.0674E-03     16.2322E-03
            2793            3217     16.9591E-03     17.8198E-03
            2793            3218     15.4244E-03     15.8651E-03
            2793            3234     15.0674E-03     16.2322E-03
            2793            3235     13.4117E-03     14.0978E-03
            2794            3218     15.4244E-03     15.8651E-03
            2794            3219     14.6749E-03     14.5811E-03
            2794            3235     13.4117E-03     14.0978E-03
            2794            3236     12.8033E-03     12.8374E-03
            2795            3219     14.6749E-03     14.5811E-03
            2795            3220     15.1662E-03     14.4952E-03
            2795            3236     12.8033E-03     12.8374E-03
            2795            3237     13.4913E-03     12.8381E-03
            2796            3220     15.1662E-03     14.4952E-03
            2796            3221     17.0108E-03     15.8895E-03
            2796            3237     13.4913E-03     12.8381E-03
            2796            3238     16.3774E-03     15.1937E-03
            2797            3221     17.0108E-03     15.8895E-03
            2797            3222     18.9350E-03     17.6104E-03
            2797            3238     16.3774E-03     15.1937E-03
            2797            3239     21.1980E-03     19.7919E-03
            2798             395     23.7878E-03     22.3707E-03
            2798             396     19.6851E-03     18.3167E-03
            2798            3222     18.9350E-03     17.6104E-03
            2798            3239     21.1980E-03     19.7919E-03
            2799             471     70.5571E-03     72.9663E-03
            2799             472     75.3232E-03     76.3582E-03
            2799            3223     68.0800E-03     69.5560E-03
            2799            3240     66.3384E-03     67.7145E-03
            2800            3223     68.0800E-03     69.5560E-03
            2800            3224     55.6723E-03     57.5872E-03
            2800            3240     66.3384E-03     67.7145E-03
            2800            3241     59.8579E-03     59.9269E-03
            2801            3224     55.6723E-03     57.5872E-03
            2801            3225     47.4831E-03     49.3495E-03
            2801            3241     59.8579E-03     59.9269E-03
            2801            3242     55.3151E-03     55.2894E-03
            2802            3225     47.4831E-03     49.3495E-03
            2802            3226     41.7749E-03     43.5804E-03
            2802            3242     55.3151E-03     55.2894E-03
            2802            3243     51.1076E-03     51.2506E-03
            2803            3226     41.7749E-03     43.5804E-03
            2803            3227     36.9992E-03     38.8245E-03
            2803            3243     51.1076E-03     51.2506E-03
            2803            3244     47.2133E-03     47.5056E-03
            2804            3227     36.9992E-03     38.8245E-03
            2804            3228     32.9731E-03     34.8187E-03
            2804            3244     47.2133E-03     47.5056E-03
            2804            3245     43.4197E-03     43.9036E-03
            2805            3228     32.9731E-03     34.8187E-03
            2805            3229     29.3278E-03     31.1788E-03
            2805            3245     43.4197E-03     43.9036E-03
            2805            3246     39.7281E-03     40.3300E-03
            2806            3229     29.3278E-03     31.1788E-03
            2806            3230     25.9904E-03     27.8281E-03
            2806            3246     39.7281E-03     40.3300E-03
            2806            3247     36.1008E-03     36.8090E-03
            2807            3230     25.9904E-03     27.8281E-03
            2807            3231     22.8676E-03     24.6447E-03
            2807            3247     36.1008E-03     36.8090E-03
            2807            3248     32.5761E-03     33.3273E-03
            2808            3231     22.8676E-03     24.6447E-03
            2808            3232     19.9649E-03     21.6350E-03
            2808            3248     32.5761E-03     33.3273E-03
            2808            3249     29.1844E-03     29.9433E-03
            2809            3232     19.9649E-03     21.6350E-03
            2809            3233     17.3205E-03     18.7958E-03
            2809            3249     29.1844E-03     29.9433E-03
            2809            3250     26.0057E-03     26.7082E-03
            2810            3233     17.3205E-03     18.7958E-03
            2810            3234     15.0674E-03     16.2322E-03
            2810            3250     26.0057E-03     26.7082E-03
            2810            3251     23.1609E-03     23.7409E-03
            2811            3234     15.0674E-03     16.2322E-03
            2811            3235     13.4117E-03     14.0978E-03
            2811            3251     23.1609E-03     23.7409E-03
            2811            3252     20.8029E-03     21.1635E-03
            2812            3235     13.4117E-03     14.0978E-03
            2812            3236     12.8033E-03     12.8374E-03
            2812            3252     20.8029E-03     21.1635E-03
            2812            3253     19.2228E-03     19.3327E-03
            2813            3236     12.8033E-03     12.8374E-03
            2813            3237     13.4913E-03     12.8381E-03
            2813            3253     19.2228E-03     19.3327E-03
            2813            3254     18.5980E-03     18.5020E-03
            2814            3237     13.4913E-03     12.8381E-03
            2814            3238     16.3774E-03     15.1937E-03
            2814            3254     18.5980E-03     18.5020E-03
            2814            3255     19.0095E-03     19.2319E-03
            2815            3238     16.3774E-03     15.1937E-03
            2815            3239     21.1980E-03     19.7919E-03
            2815            3255     19.0095E-03     19.2319E-03
            2815            3256     20.8570E-03     23.0236E-03
            2816             394     22.1848E-03     25.8840E-03
            2816             395     23.7878E-03     22.3707E-03
            2816            3239     21.1980E-03     19.7919E-03
            2816            3256     20.8570E-03     23.0236E-03
            2817             470     68.5666E-03     67.1050E-03
            2817             471     70.5571E-03     72.9663E-03
            2817            3240     66.3384E-03     67.7145E-03
            2817            3257     68.7382E-03     67.4614E-03
            2818            3240     66.3384E-03     67.7145E-03
            2818            3241     59.8579E-03     59.9269E-03
            2818            3257     68.7382E-03     67.4614E-03
            2818            3258     68.1264E-03     66.9509E-03
            2819            3241     59.8579E-03     59.9269E-03
            2819            3242     55.3151E-03     55.2894E-03
            2819            3258     68.1264E-03     66.9509E-03
            2819            3259     66.0528E-03     64.8210E-03
            2820            3242     55.3151E-03     55.2894E-03
            2820            3243     51.1076E-03     51.2506E-03
            2820            3259     66.0528E-03     64.8210E-03
            2820            3260     63.0530E-03     61.9743E-03
            2821            3243     51.1076E-03     51.2506E-03
            2821            3244     47.2133E-03     47.5056E-03
            2821            3260     63.0530E-03     61.9743E-03
            2821            3261     59.4676E-03     58.5722E-03
            2822            3244     47.2133E-03     47.5056E-03
            2822            3245     43.4197E-03     43.9036E-03
            2822            3261     59.4676E-03     58.5722E-03
            2822            3262     55.5131E-03     54.7983E-03
            2823            3245     43.4197E-03     43.9036E-03
            2823            3246     39.7281E-03     40.3300E-03
            2823            3262     55.5131E-03     54.7983E-03
            2823            3263     51.3313E-03     50.7827E-03
            2824            3246     39.7281E-03     40.3300E-03
            2824            3247     36.1008E-03     36.8090E-03
            2824            3263     51.3313E-03     50.7827E-03
            2824            3264     47.0520E-03     46.6276E-03
            2825            3247     36.1008E-03     36.8090E-03
            2825            3248     32.5761E-03     33.3273E-03
            2825            3264     47.0520E-03     46.6276E-03
            2825            3265     42.7714E-03     42.4609E-03
            2826            3248     32.5761E-03     33.3273E-03
            2826            3249     29.1844E-03     29.9433E-03
            2826            3265     42.7714E-03     42.4609E-03
            2826            3266     38.6130E-03     38.3772E-03
            2827            3249     29.1844E-03     29.9433E-03
            2827            3250     26.0057E-03     26.7082E-03
            2827            3266     38.6130E-03     38.3772E-03
            2827            3267     34.6684E-03     34.5134E-03
            2828            3250     26.0057E-03     26.7082E-03
            2828            3251     23.1609E-03     23.7409E-03
            2828            3267     34.6684E-03     34.5134E-03
            2828            3268     31.0850E-03     30.9987E-03
            2829            3251     23.1609E-03     23.7409E-03
            2829            3252     20.8029E-03     21.1635E-03
            2829            3268     31.0850E-03     30.9987E-03
            2829            3269     27.9592E-03     28.0092E-03
            2830            3252     20.8029E-03     21.1635E-03
            2830            3253     19.2228E-03     19.3327E-03
            2830            3269     27.9592E-03     28.0092E-03
            2830            3270     25.4277E-03     25.7162E-03
            2831            3253     19.2228E-03     19.3327E-03
            2831            3254     18.5980E-03     18.5020E-03
            2831            3270     25.4277E-03     25.7162E-03
            2831            3271     23.5111E-03     24.2959E-03
            2832            3254     18.5980E-03     18.5020E-03
            2832            3255     19.0095E-03     19.2319E-03
            2832            3271     23.5111E-03     24.2959E-03
            2832            3272     22.0165E-03     23.9774E-03
            2833            3255     19.0095E-03     19.2319E-03
            2833            3256     20.8570E-03     23.0236E-03
            2833            3272     22.0165E-03     23.9774E-03
            2833            3273     21.4684E-03     24.5391E-03
            2834             393     21.5966E-03     24.9652E-03
            2834             394     22.1848E-03     25.8840E-03
            2834            3256     20.8570E-03     23.0236E-03
            2834            3273     21.4684E-03     24.5391E-03
            2835             469     75.3646E-03     75.5011E-03
            2835             470     68.5666E-03     67.1050E-03
            2835            3257     68.7382E-03     67.4614E-03
            2835            3274     74.6265E-03     74.9598E-03
            2836            3257     68.7382E-03     67.4614E-03
            2836            3258     68.1264E-03     66.9509E-03
            2836            3274     74.6265E-03     74.9598E-03
            2836            3275     72.7535E-03     73.1969E-03
            2837            3258     68.1264E-03     66.9509E-03
            2837            3259     66.0528E-03     64.8210E-03
            2837            3275     72.7535E-03     73.1969E-03
            2837            3276     69.9657E-03     70.1891E-03
            2838            3259     66.0528E-03     64.8210E-03
            2838            3260     63.0530E-03     61.9743E-03
            2838            3276     69.9657E-03     70.1891E-03
            2838            3277     66.2979E-03     66.2844E-03
            2839            3260     63.0530E-03     61.9743E-03
            2839            3261     59.4676E-03     58.5722E-03
            2839            3277     66.2979E-03     66.2844E-03
            2839            3278     61.9634E-03     61.8633E-03
            2840            3261     59.4676E-03     58.5722E-03
            2840            3262     55.5131E-03     54.7983E-03
            2840            3278     61.9634E-03     61.8633E-03
            2840            3279     57.2379E-03     57.1205E-03
            2841            3262     55.5131E-03     54.7983E-03
            2841            3263     51.3313E-03     50.7827E-03
            2841            3279     57.2379E-03     57.1205E-03
            2841            3280     52.2978E-03     52.1900E-03
            2842            3263     51.3313E-03     50.7827E-03
            2842            3264     47.0520E-03     46.6276E-03
            2842            3280     52.2978E-03     52.1900E-03
            2842            3281     47.2798E-03     47.2115E-03
            2843            3264     47.0520E-03     46.6276E-03
            2843            3265     42.7714E-03     42.4609E-03
            2843            3281     47.2798E-03     47.2115E-03
            2843            3282     42.3199E-03     42.2823E-03
            2844            3265     42.7714E-03     42.4609E-03
            2844            3266     38.6130E-03     38.3772E-03
            2844            3282     42.3199E-03     42.2823E-03
            2844            3283     37.5240E-03     37.5324E-03
            2845            3266     38.6130E-03     38.3772E-03
            2845            3267     34.6684E-03     34.5134E-03
            2845            3283     37.5240E-03     37.5324E-03
            2845            3284     33.0386E-03     33.0961E-03
            2846            3267     34.6684E-03     34.5134E-03
            2846            3268     31.0850E-03     30.9987E-03
            2846            3284     33.0386E-03     33.0961E-03
            2846            3285     29.0103E-03     29.1533E-03
            2847            3268     31.0850E-03     30.9987E-03
            2847            3269     27.9592E-03     28.0092E-03
            2847            3285     29.0103E-03     29.1533E-03
            2847            3286     25.6411E-03     25.9409E-03
            2848            3269     27.9592E-03     28.0092E-03
            2848            3270     25.4277E-03     25.7162E-03
            2848            3286     25.6411E-03     25.9409E-03
            2848            3287     23.1549E-03     23.7009E-03
            2849            3270     25.4277E-03     25.7162E-03
            2849            3271     23.5111E-03     24.2959E-03
            2849            3287     23.1549E-03     23.7009E-03
            2849            3288     21.6560E-03     22.6608E-03
            2850            3271     23.5111E-03     24.2959E-03
            2850            3272     22.0165E-03     23.9774E-03
            2850            3288     21.6560E-03     22.6608E-03
            2850            3289     21.5884E-03     22.6611E-03
            2851            3272     22.0165E-03     23.9774E-03
            2851            3273     21.4684E-03     24.5391E-03
            2851            3289     21.5884E-03     22.6611E-03
            2851            3290     22.8605E-03     22.4794E-03
            2852             392     23.6808E-03     22.1006E-03
            2852             393     21.5966E-03     24.9652E-03
            2852            3273     21.4684E-03     24.5391E-03
            2852            3290     22.8605E-03     22.4794E-03
            2853             468     81.6495E-03     82.3169E-03
            2853             469     75.3646E-03     75.5011E-03
            2853            3274     74.6265E-03     74.9598E-03
            2853            3291     80.0525E-03     81.0115E-03
            2854            3274     74.6265E-03     74.9598E-03
            2854            3275     72.7535E-03     73.1969E-03
            2854            3291     80.0525E-03     81.0115E-03
            2854            3292     76.9511E-03     78.1416E-03
            2855            3275     72.7535E-03     73.1969E-03
            2855            3276     69.9657E-03     70.1891E-03
            2855            3292     76.9511E-03     78.1416E-03
            2855            3293     73.4423E-03     74.4836E-03
            2856            3276     69.9657E-03     70.1891E-03
            2856            3277     66.2979E-03     66.2844E-03
            2856            3293     73.4423E-03     74.4836E-03
            2856            3294     69.0822E-03     69.9276E-03
            2857            3277     66.2979E-03     66.2844E-03
            2857            3278     61.9634E-03     61.8633E-03
            2857            3294     69.0822E-03     69.9276E-03
            2857            3295     64.1512E-03     64.7717E-03
            2858            3278     61.9634E-03     61.8633E-03
            2858            3279     57.2379E-03     57.1205E-03
            2858            3295     64.1512E-03     64.7717E-03
            2858            3296     58.7973E-03     59.2781E-03
            2859            3279     57.2379E-03     57.1205E-03
            2859            3280     52.2978E-03     52.1900E-03
            2859            3296     58.7973E-03     59.2781E-03
            2859            3297     53.2410E-03     53.6406E-03
            2860            3280     52.2978E-03     52.1900E-03
            2860            3281     47.2798E-03     47.2115E-03
            2860            3297     53.2410E-03     53.6406E-03
            2860            3298     47.6411E-03     47.9830E-03
            2861            3281     47.2798E-03     47.2115E-03
            2861            3282     42.3199E-03     42.2823E-03
            2861            3298     47.6411E-03     47.9830E-03
            2861            3299     42.1162E-03     42.4378E-03
            2862            3282     42.3199E-03     42.2823E-03
            2862            3283     37.5240E-03     37.5324E-03
            2862            3299     42.1162E-03     42.4378E-03
            2862            3300     36.8058E-03     37.1200E-03
            2863            3283     37.5240E-03     37.5324E-03
            2863            3284     33.0386E-03     33.0961E-03
            2863            3300     36.8058E-03     37.1200E-03
            2863            3301     31.8494E-03     32.1815E-03
            2864            3284     33.0386E-03     33.0961E-03
            2864            3285     29.0103E-03     29.1533E-03
            2864            3301     31.8494E-03     32.1815E-03
            2864            3302     27.4505E-03     27.8334E-03
            2865            3285     29.0103E-03     29.1533E-03
            2865            3286     25.6411E-03     25.9409E-03
            2865            3302     27.4505E-03     27.8334E-03
            2865            3303     23.8769E-03     24.3346E-03
            2866            3286     25.6411E-03     25.9409E-03
            2866            3287     23.1549E-03     23.7009E-03
            2866            3303     23.8769E-03     24.3346E-03
            2866            3304     21.4399E-03     21.9942E-03
            2867            3287     23.1549E-03     23.7009E-03
            2867            3288     21.6560E-03     22.6608E-03
            2867            3304     21.4399E-03     21.9942E-03
            2867            3305     20.4994E-03     20.9214E-03
            2868            3288     21.6560E-03     22.6608E-03
            2868            3289     21.5884E-03     22.6611E-03
            2868            3305     20.4994E-03     20.9214E-03
            2868            3306     21.0744E-03     20.6572E-03
            2869            3289     21.5884E-03     22.6611E-03
            2869            3290     22.8605E-03     22.4794E-03
            2869            3306     21.0744E-03     20.6572E-03
            2869            3307     22.0352E-03     20.7939E-03
            2870             391     22.3938E-03     20.9658E-03
            2870             392     23.6808E-03     22.1006E-03
            2870            3290     22.8605E-03     22.4794E-03
            2870            3307     22.0352E-03     20.7939E-03
            2871             467     86.9178E-03     87.5354E-03
            2871             468     81.6495E-03     82.3169E-03
            2871            3291     80.0525E-03     81.0115E-03
            2871            3308     84.9397E-03     85.8480E-03
            2872            3291     80.0525E-03     81.0115E-03
            2872            3292     76.9511E-03     78.1416E-03
            2872            3308     84.9397E-03     85.8480E-03
            2872            3309     80.8279E-03     82.2055E-03
            2873            3292     76.9511E-03     78.1416E-03
            2873            3293     73.4423E-03     74.4836E-03
            2873            3309     80.8279E-03     82.2055E-03
            2873            3310     76.3665E-03     77.8652E-03
            2874            3293     73.4423E-03     74.4836E-03
            2874            3294     69.0822E-03     69.9276E-03
            2874            3310     76.3665E-03     77.8652E-03
            2874            3311     71.3893E-03     72.7343E-03
            2875            3294     69.0822E-03     69.9276E-03
            2875            3295     64.1512E-03     64.7717E-03
            2875            3311     71.3893E-03     72.7343E-03
            2875            3312     65.8339E-03     67.0113E-03
            2876            3295     64.1512E-03     64.7717E-03
            2876            3296     58.7973E-03     59.2781E-03
            2876            3312     65.8339E-03     67.0113E-03
            2876            3313     59.9540E-03     60.9597E-03
            2877            3296     58.7973E-03     59.2781E-03
            2877            3297     53.2410E-03     53.6406E-03
            2877            3313     59.9540E-03     60.9597E-03
            2877            3314     53.9141E-03     54.7774E-03
            2878            3297     53.2410E-03     53.6406E-03
            2878            3298     47.6411E-03     47.9830E-03
            2878            3314     53.9141E-03     54.7774E-03
            2878            3315     47.8554E-03     48.6236E-03
            2879            3298     47.6411E-03     47.9830E-03
            2879            3299     42.1162E-03     42.4378E-03
            2879            3315     47.8554E-03     48.6236E-03
            2879            3316     41.9162E-03     42.6106E-03
            2880            3299     42.1162E-03     42.4378E-03
            2880            3300     36.8058E-03     37.1200E-03
            2880            3316     41.9162E-03     42.6106E-03
            2880            3317     36.2085E-03     36.8553E-03
            2881            3300     36.8058E-03     37.1200E-03
            2881            3301     31.8494E-03     32.1815E-03
            2881            3317     36.2085E-03     36.8553E-03
            2881            3318     30.8879E-03     31.5069E-03
            2882            3301     31.8494E-03     32.1815E-03
            2882            3302     27.4505E-03     27.8334E-03
            2882            3318     30.8879E-03     31.5069E-03
            2882            3319     26.1775E-03     26.7700E-03
            2883            3302     27.4505E-03     27.8334E-03
            2883            3303     23.8769E-03     24.3346E-03
            2883            3319     26.1775E-03     26.7700E-03
            2883            3320     22.4182E-03     22.9491E-03
            2884            3303     23.8769E-03     24.3346E-03
            2884            3304     21.4399E-03     21.9942E-03
            2884            3320     22.4182E-03     22.9491E-03
            2884            3321     20.0135E-03     20.3373E-03
            2885            3304     21.4399E-03     21.9942E-03
            2885            3305     20.4994E-03     20.9214E-03
            2885            3321     20.0135E-03     20.3373E-03
            2885            3322     19.2995E-03     19.0448E-03
            2886            3305     20.4994E-03     20.9214E-03
            2886            3306     21.0744E-03     20.6572E-03
            2886            3322     19.2995E-03     19.0448E-03
            2886            3323     19.9073E-03     18.9307E-03
            2887            3306     21.0744E-03     20.6572E-03
            2887            3307     22.0352E-03     20.7939E-03
            2887            3323     19.9073E-03     18.9307E-03
            2887            3324     21.4474E-03     19.8111E-03
            2888             390     22.4623E-03     20.4806E-03
            2888             391     22.3938E-03     20.9658E-03
            2888            3307     22.0352E-03     20.7939E-03
            2888            3324     21.4474E-03     19.8111E-03
            2889             466     91.9103E-03     92.5736E-03
            2889             467     86.9178E-03     87.5354E-03
            2889            3308     84.9397E-03     85.8480E-03
            2889            3325     89.3677E-03     90.3546E-03
            2890            3308     84.9397E-03     85.8480E-03
            2890            3309     80.8279E-03     82.2055E-03
            2890            3325     89.3677E-03     90.3546E-03
            2890            3326     84.2732E-03     85.7246E-03
            2891            3309     80.8279E-03     82.2055E-03
            2891            3310     76.3665E-03     77.8652E-03
            2891            3326     84.2732E-03     85.7246E-03
            2891            3327     78.9470E-03     80.5775E-03
            2892            3310     76.3665E-03     77.8652E-03
            2892            3311     71.3893E-03     72.7343E-03
            2892            3327     78.9470E-03     80.5775E-03
            2892            3328     73.1329E-03     74.7916E-03
            2893            3311     71.3893E-03     72.7343E-03
            2893            3312     65.8339E-03     67.0113E-03
            2893            3328     73.1329E-03     74.7916E-03
            2893            3329     66.9692E-03     68.5242E-03
            2894            3312     65.8339E-03     67.0113E-03
            2894            3313     59.9540E-03     60.9597E-03
            2894            3329     66.9692E-03     68.5242E-03
            2894            3330     60.5950E-03     61.9956E-03
            2895            3313     59.9540E-03     60.9597E-03
            2895            3314     53.9141E-03     54.7774E-03
            2895            3330     60.5950E-03     61.9956E-03
            2895            3331     54.1444E-03     55.4169E-03
            2896            3314     53.9141E-03     54.7774E-03
            2896            3315     47.8554E-03     48.6236E-03
            2896            3331     54.1444E-03     55.4169E-03
            2896            3332     47.7679E-03     48.9179E-03
            2897            3315     47.8554E-03     48.6236E-03
            2897            3316     41.9162E-03     42.6106E-03
            2897            3332     47.7679E-03     48.9179E-03
            2897            3333     41.5338E-03     42.5850E-03
            2898            3316     41.9162E-03     42.6106E-03
            2898            3317     36.2085E-03     36.8553E-03
            2898            3333     41.5338E-03     42.5850E-03
            2898            3334     35.5489E-03     36.5200E-03
            2899            3317     36.2085E-03     36.8553E-03
            2899            3318     30.8879E-03     31.5069E-03
            2899            3334     35.5489E-03     36.5200E-03
            2899            3335     29.9650E-03     30.8515E-03
            2900            3318     30.8879E-03     31.5069E-03
            2900            3319     26.1775E-03     26.7700E-03
            2900            3335     29.9650E-03     30.8515E-03
            2900            3336     25.0103E-03     25.7818E-03
            2901            3319     26.1775E-03     26.7700E-03
            2901            3320     22.4182E-03     22.9491E-03
            2901            3336     25.0103E-03     25.7818E-03
            2901            3337     21.0523E-03     21.5995E-03
            2902            3320     22.4182E-03     22.9491E-03
            2902            3321     20.0135E-03     20.3373E-03
            2902            3337     21.0523E-03     21.5995E-03
            2902            3338     18.6383E-03     18.6963E-03
            2903            3321     20.0135E-03     20.3373E-03
            2903            3322     19.2995E-03     19.0448E-03
            2903            3338     18.6383E-03     18.6963E-03
            2903            3339     17.9735E-03     17.3307E-03
            2904            3322     19.2995E-03     19.0448E-03
            2904            3323     19.9073E-03     18.9307E-03
            2904            3339     17.9735E-03     17.3307E-03
            2904            3340     18.9658E-03     17.5760E-03
            2905            3323     19.9073E-03     18.9307E-03
            2905            3324     21.4474E-03     19.8111E-03
            2905            3340     18.9658E-03     17.5760E-03
            2905            3341     21.1787E-03     19.2197E-03
            2906             389     22.4883E-03     20.3381E-03
            2906             390     22.4623E-03     20.4806E-03
            2906            3324     21.4474E-03     19.8111E-03
            2906            3341     21.1787E-03     19.2197E-03
            2907             465     96.3477E-03     97.4408E-03
            2907             466     91.9103E-03     92.5736E-03
            2907            3325     89.3677E-03     90.3546E-03
            2907            3342     93.4571E-03     94.6146E-03
            2908            3325     89.3677E-03     90.3546E-03
            2908            3326     84.2732E-03     85.7246E-03
            2908            3342     93.4571E-03     94.6146E-03
            2908            3343     87.4733E-03     88.8866E-03
            2909            3326     84.2732E-03     85.7246E-03
            2909            3327     78.9470E-03     80.5775E-03
            2909            3343     87.4733E-03     88.8866E-03
            2909            3344     81.0306E-03     82.7694E-03
            2910            3327     78.9470E-03     80.5775E-03
            2910            3328     73.1329E-03     74.7916E-03
            2910            3344     81.0306E-03     82.7694E-03
            2910            3345     74.3271E-03     76.1592E-03
            2911            3328     73.1329E-03     74.7916E-03
            2911            3329     66.9692E-03     68.5242E-03
            2911            3345     74.3271E-03     76.1592E-03
            2911            3346     67.4808E-03     69.2545E-03
            2912            3329     66.9692E-03     68.5242E-03
            2912            3330     60.5950E-03     61.9956E-03
            2912            3346     67.4808E-03     69.2545E-03
            2912            3347     60.5998E-03     62.3129E-03
            2913            3330     60.5950E-03     61.9956E-03
            2913            3331     54.1444E-03     55.4169E-03
            2913            3347     60.5998E-03     62.3129E-03
            2913            3348     53.8692E-03     55.4642E-03
            2914            3331     54.1444E-03     55.4169E-03
            2914            3332     47.7679E-03     48.9179E-03
            2914            3348     53.8692E-03     55.4642E-03
            2914            3349     47.2668E-03     48.7455E-03
            2915            3332     47.7679E-03     48.9179E-03
            2915            3333     41.5338E-03     42.5850E-03
            2915            3349     47.2668E-03     48.7455E-03
            2915            3350     40.8545E-03     42.2301E-03
            2916            3333     41.5338E-03     42.5850E-03
            2916            3334     35.5489E-03     36.5200E-03
            2916            3350     40.8545E-03     42.2301E-03
            2916            3351     34.7063E-03     35.9701E-03
            2917            3334     35.5489E-03     36.5200E-03
            2917            3335     29.9650E-03     30.8515E-03
            2917            3351     34.7063E-03     35.9701E-03
            2917            3352     28.9295E-03     30.0707E-03
            2918            3335     29.9650E-03     30.8515E-03
            2918            3336     25.0103E-03     25.7818E-03
            2918            3352     28.9295E-03     30.0707E-03
            2918            3353     23.7877E-03     24.7216E-03
            2919            3336     25.0103E-03     25.7818E-03
            2919            3337     21.0523E-03     21.5995E-03
            2919            3353     23.7877E-03     24.7216E-03
            2919            3354     19.6948E-03     20.2400E-03
            2920            3337     21.0523E-03     21.5995E-03
            2920            3338     18.6383E-03     18.6963E-03
            2920            3354     19.6948E-03     20.2400E-03
            2920            3355     17.1817E-03     17.0789E-03
            2921            3338     18.6383E-03     18.6963E-03
            2921            3339     17.9735E-03     17.3307E-03
            2921            3355     17.1817E-03     17.0789E-03
            2921            3356     16.8120E-03     15.8520E-03
            2922            3339     17.9735E-03     17.3307E-03
            2922            3340     18.9658E-03     17.5760E-03
            2922            3356     16.8120E-03     15.8520E-03
            2922            3357     18.3809E-03     16.6631E-03
            2923            3340     18.9658E-03     17.5760E-03
            2923            3341     21.1787E-03     19.2197E-03
            2923            3357     18.3809E-03     16.6631E-03
            2923            3358     21.2848E-03     19.1835E-03
            2924             388     23.0319E-03     20.8414E-03
            2924             389     22.4883E-03     20.3381E-03
            2924            3341     21.1787E-03     19.2197E-03
            2924            3358     21.2848E-03     19.1835E-03
            2925             464     101.131E-03     101.645E-03
            2925             465     96.3477E-03     97.4408E-03
            2925            3342     93.4571E-03     94.6146E-03
            2925            3359     97.5771E-03     98.5554E-03
            2926            3342     93.4571E-03     94.6146E-03
            2926            3343     87.4733E-03     88.8866E-03
            2926            3359     97.5771E-03     98.5554E-03
            2926            3360     90.2090E-03     91.8221E-03
            2927            3343     87.4733E-03     88.8866E-03
            2927            3344     81.0306E-03     82.7694E-03
            2927            3360     90.2090E-03     91.8221E-03
            2927            3361     82.5885E-03     84.3586E-03
            2928            3344     81.0306E-03     82.7694E-03
            2928            3345     74.3271E-03     76.1592E-03
            2928            3361     82.5885E-03     84.3586E-03
            2928            3362     74.7985E-03     76.6545E-03
            2929            3345     74.3271E-03     76.1592E-03
            2929            3346     67.4808E-03     69.2545E-03
            2929            3362     74.7985E-03     76.6545E-03
            2929            3363     67.1505E-03     69.1270E-03
            2930            3346     67.4808E-03     69.2545E-03
            2930            3347     60.5998E-03     62.3129E-03
            2930            3363     67.1505E-03     69.1270E-03
            2930            3364     59.9670E-03     61.8963E-03
            2931            3347     60.5998E-03     62.3129E-03
            2931            3348     53.8692E-03     55.4642E-03
            2931            3364     59.9670E-03     61.8963E-03
            2931            3365     53.0239E-03     54.8708E-03
            2932            3348     53.8692E-03     55.4642E-03
            2932            3349     47.2668E-03     48.7455E-03
            2932            3365     53.0239E-03     54.8708E-03
            2932            3366     46.3167E-03     48.0776E-03
            2933            3349     47.2668E-03     48.7455E-03
            2933            3350     40.8545E-03     42.2301E-03
            2933            3366     46.3167E-03     48.0776E-03
            2933            3367     39.8321E-03     41.4846E-03
            2934            3350     40.8545E-03     42.2301E-03
            2934            3351     34.7063E-03     35.9701E-03
            2934            3367     39.8321E-03     41.4846E-03
            2934            3368     33.5839E-03     35.1292E-03
            2935            3351     34.7063E-03     35.9701E-03
            2935            3352     28.9295E-03     30.0707E-03
            2935            3368     33.5839E-03     35.1292E-03
            2935            3369     27.7060E-03     29.0877E-03
            2936            3352     28.9295E-03     30.0707E-03
            2936            3353     23.7877E-03     24.7216E-03
            2936            3369     27.7060E-03     29.0877E-03
            2936            3370     22.3878E-03     23.5083E-03
            2937            3353     23.7877E-03     24.7216E-03
            2937            3354     19.6948E-03     20.2400E-03
            2937            3370     22.3878E-03     23.5083E-03
            2937            3371     18.1592E-03     18.7679E-03
            2938            3354     19.6948E-03     20.2400E-03
            2938            3355     17.1817E-03     17.0789E-03
            2938            3371     18.1592E-03     18.7679E-03
            2938            3372     15.8110E-03     15.5614E-03
            2939            3355     17.1817E-03     17.0789E-03
            2939            3356     16.8120E-03     15.8520E-03
            2939            3372     15.8110E-03     15.5614E-03
            2939            3373     15.8308E-03     14.6106E-03
            2940            3356     16.8120E-03     15.8520E-03
            2940            3357     18.3809E-03     16.6631E-03
            2940            3373     15.8308E-03     14.6106E-03
            2940            3374     18.1625E-03     16.2522E-03
            2941            3357     18.3809E-03     16.6631E-03
            2941            3358     21.2848E-03     19.1835E-03
            2941            3374     18.1625E-03     16.2522E-03
            2941            3375     21.9802E-03     19.7127E-03
            2942             387     24.0926E-03     21.7020E-03
            2942             388     23.0319E-03     20.8414E-03
            2942            3358     21.2848E-03     19.1835E-03
            2942            3375     21.9802E-03     19.7127E-03
            2943             463     105.306E-03     107.110E-03
            2943             464     101.131E-03     101.645E-03
            2943            3359     97.5771E-03     98.5554E-03
            2943            3376     101.267E-03     102.852E-03
            2944            3359     97.5771E-03     98.5554E-03
            2944            3360     90.2090E-03     91.8221E-03
            2944            3376     101.267E-03     102.852E-03
            2944            3377     92.6672E-03     94.0430E-03
            2945            3360     90.2090E-03     91.8221E-03
            2945            3361     82.5885E-03     84.3586E-03
            2945            3377     92.6672E-03     94.0430E-03
            2945            3378     83.1417E-03     84.7817E-03
            2946            3361     82.5885E-03     84.3586E-03
            2946            3362     74.7985E-03     76.6545E-03
            2946            3378     83.1417E-03     84.7817E-03
            2946            3379     73.9981E-03     76.0212E-03
            2947            3362     74.7985E-03     76.6545E-03
            2947            3363     67.1505E-03     69.1270E-03
            2947            3379     73.9981E-03     76.0212E-03
            2947            3380     66.0416E-03     68.1386E-03
            2948            3363     67.1505E-03     69.1270E-03
            2948            3364     59.9670E-03     61.8963E-03
            2948            3380     66.0416E-03     68.1386E-03
            2948            3381     58.6466E-03     60.7269E-03
            2949            3364     59.9670E-03     61.8963E-03
            2949            3365     53.0239E-03     54.8708E-03
            2949            3381     58.6466E-03     60.7269E-03
            2949            3382     51.6529E-03     53.7080E-03
            2950            3365     53.0239E-03     54.8708E-03
            2950            3366     46.3167E-03     48.0776E-03
            2950            3382     51.6529E-03     53.7080E-03
            2950            3383     44.9513E-03     46.9339E-03
            2951            3366     46.3167E-03     48.0776E-03
            2951            3367     39.8321E-03     41.4846E-03
            2951            3383     44.9513E-03     46.9339E-03
            2951            3384     38.4538E-03     40.3710E-03
            2952            3367     39.8321E-03     41.4846E-03
            2952            3368     33.5839E-03     35.1292E-03
            2952            3384     38.4538E-03     40.3710E-03
            2952            3385     32.1927E-03     34.0035E-03
            2953            3368     33.5839E-03     35.1292E-03
            2953            3369     27.7060E-03     29.0877E-03
            2953            3385     32.1927E-03     34.0035E-03
            2953            3386     26.2092E-03     27.8667E-03
            2954            3369     27.7060E-03     29.0877E-03
            2954            3370     22.3878E-03     23.5083E-03
            2954            3386     26.2092E-03     27.8667E-03
            2954            3387     20.7698E-03     22.1239E-03
            2955            3370     22.3878E-03     23.5083E-03
            2955            3371     18.1592E-03     18.7679E-03
            2955            3387     20.7698E-03     22.1239E-03
            2955            3388     16.3360E-03     17.1156E-03
            2956            3371     18.1592E-03     18.7679E-03
            2956            3372     15.8110E-03     15.5614E-03
            2956            3388     16.3360E-03     17.1156E-03
            2956            3389     14.1014E-03     13.8395E-03
            2957            3372     15.8110E-03     15.5614E-03
            2957            3373     15.8308E-03     14.6106E-03
            2957            3389     14.1014E-03     13.8395E-03
            2957            3390     15.1221E-03     13.6715E-03
            2958            3373     15.8308E-03     14.6106E-03
            2958            3374     18.1625E-03     16.2522E-03
            2958            3390     15.1221E-03     13.6715E-03
            2958            3391     18.5838E-03     16.4234E-03
            2959            3374     18.1625E-03     16.2522E-03
            2959            3375     21.9802E-03     19.7127E-03
            2959            3391     18.5838E-03     16.4234E-03
            2959            3392     23.0947E-03     20.8539E-03
            2960             386     25.5103E-03     23.3774E-03
            2960             387     24.0926E-03     21.7020E-03
            2960            3375     21.9802E-03     19.7127E-03
            2960            3392     23.0947E-03     20.8539E-03
            2961             462     110.757E-03     110.478E-03
            2961             463     105.306E-03     107.110E-03
            2961            3376     101.267E-03     102.852E-03
            2961            3393     105.473E-03     105.672E-03
            2962            3376     101.267E-03     102.852E-03
            2962            3377     92.6672E-03     94.0430E-03
            2962            3393     105.473E-03     105.672E-03
            2962            3394     93.3901E-03     94.5656E-03
            2963            3377     92.6672E-03     94.0430E-03
            2963            3378     83.1417E-03     84.7817E-03
            2963            3394     93.3901E-03     94.5656E-03
            2963            3395     81.4552E-03     83.3827E-03
            2964            3378     83.1417E-03     84.7817E-03
            2964            3379     73.9981E-03     76.0212E-03
            2964            3395     81.4552E-03     83.3827E-03
            2964            3396     72.1827E-03     74.3006E-03
            2965            3379     73.9981E-03     76.0212E-03
            2965            3380     66.0416E-03     68.1386E-03
            2965            3396     72.1827E-03     74.3006E-03
            2965            3397     64.1505E-03     66.2909E-03
            2966            3380     66.0416E-03     68.1386E-03
            2966            3381     58.6466E-03     60.7269E-03
            2966            3397     64.1505E-03     66.2909E-03
            2966            3398     56.7822E-03     58.9777E-03
            2967            3381     58.6466E-03     60.7269E-03
            2967            3382     51.6529E-03     53.7080E-03
            2967            3398     56.7822E-03     58.9777E-03
            2967            3399     49.8931E-03     52.0835E-03
            2968            3382     51.6529E-03     53.7080E-03
            2968            3383     44.9513E-03     46.9339E-03
            2968            3399     49.8931E-03     52.0835E-03
            2968            3400     43.2511E-03     45.4464E-03
            2969            3383     44.9513E-03     46.9339E-03
            2969            3384     38.4538E-03     40.3710E-03
            2969            3400     43.2511E-03     45.4464E-03
            2969            3401     36.8229E-03     38.9875E-03
            2970            3384     38.4538E-03     40.3710E-03
            2970            3385     32.1927E-03     34.0035E-03
            2970            3401     36.8229E-03     38.9875E-03
            2970            3402     30.5552E-03     32.6613E-03
            2971            3385     32.1927E-03     34.0035E-03
            2971            3386     26.2092E-03     27.8667E-03
            2971            3402     30.5552E-03     32.6613E-03
            2971            3403     24.5132E-03     26.4901E-03
            2972            3386     26.2092E-03     27.8667E-03
            2972            3387     20.7698E-03     22.1239E-03
            2972            3403     24.5132E-03     26.4901E-03
            2972            3404     18.8461E-03     20.5573E-03
            2973            3387     20.7698E-03     22.1239E-03
            2973            3388     16.3360E-03     17.1156E-03
            2973            3404     18.8461E-03     20.5573E-03
            2973            3405     14.1891E-03     15.2779E-03
            2974            3388     16.3360E-03     17.1156E-03
            2974            3389     14.1014E-03     13.8395E-03
            2974            3405     14.1891E-03     15.2779E-03
            2974            3406     11.8128E-03     11.7290E-03
            2975            3389     14.1014E-03     13.8395E-03
            2975            3390     15.1221E-03     13.6715E-03
            2975            3406     11.8128E-03     11.7290E-03
            2975            3407     13.5047E-03     12.0832E-03
            2976            3390     15.1221E-03     13.6715E-03
            2976            3391     18.5838E-03     16.4234E-03
            2976            3407     13.5047E-03     12.0832E-03
            2976            3408     19.1497E-03     16.9075E-03
            2977            3391     18.5838E-03     16.4234E-03
            2977            3392     23.0947E-03     20.8539E-03
            2977            3408     19.1497E-03     16.9075E-03
            2977            3409     25.5510E-03     22.9763E-03
            2978             385     28.4090E-03     25.7198E-03
            2978             386     25.5103E-03     23.3774E-03
            2978            3392     23.0947E-03     20.8539E-03
            2978            3409     25.5510E-03     22.9763E-03
            2979             461     115.242E-03     116.005E-03
            2979             462     110.757E-03     110.478E-03
            2979            3393     105.473E-03     105.672E-03
            2979            3410     106.059E-03     107.502E-03
            2980            3393     105.473E-03     105.672E-03
            2980            3394     93.3901E-03     94.5656E-03
            2980            3410     106.059E-03     107.502E-03
            2980            3411     89.9310E-03     92.0416E-03
            2981            3394     93.3901E-03     94.5656E-03
            2981            3395     81.4552E-03     83.3827E-03
            2981            3411     89.9310E-03     92.0416E-03
            2981            3412     78.4517E-03     80.4911E-03
            2982            3395     81.4552E-03     83.3827E-03
            2982            3396     72.1827E-03     74.3006E-03
            2982            3412     78.4517E-03     80.4911E-03
            2982            3413     69.6541E-03     71.6732E-03
            2983            3396     72.1827E-03     74.3006E-03
            2983            3397     64.1505E-03     66.2909E-03
            2983            3413     69.6541E-03     71.6732E-03
            2983            3414     61.7872E-03     63.9006E-03
            2984            3397     64.1505E-03     66.2909E-03
            2984            3398     56.7822E-03     58.9777E-03
            2984            3414     61.7872E-03     63.9006E-03
            2984            3415     54.6809E-03     56.8985E-03
            2985            3398     56.7822E-03     58.9777E-03
            2985            3399     49.8931E-03     52.0835E-03
            2985            3415     54.6809E-03     56.8985E-03
            2985            3416     47.9182E-03     50.2359E-03
            2986            3399     49.8931E-03     52.0835E-03
            2986            3400     43.2511E-03     45.4464E-03
            2986            3416     47.9182E-03     50.2359E-03
            2986            3417     41.4213E-03     43.8195E-03
            2987            3400     43.2511E-03     45.4464E-03
            2987            3401     36.8229E-03     38.9875E-03
            2987            3417     41.4213E-03     43.8195E-03
            2987            3418     35.0679E-03     37.5093E-03
            2988            3401     36.8229E-03     38.9875E-03
            2988            3402     30.5552E-03     32.6613E-03
            2988            3418     35.0679E-03     37.5093E-03
            2988            3419     28.8296E-03     31.2757E-03
            2989            3402     30.5552E-03     32.6613E-03
            2989            3403     24.5132E-03     26.4901E-03
            2989            3419     28.8296E-03     31.2757E-03
            2989            3420     22.7144E-03     25.0932E-03
            2990            3403     24.5132E-03     26.4901E-03
            2990            3404     18.8461E-03     20.5573E-03
            2990            3420     22.7144E-03     25.0932E-03
            2990            3421     16.8136E-03     19.0060E-03
            2991            3404     18.8461E-03     20.5573E-03
            2991            3405     14.1891E-03     15.2779E-03
            2991            3421     16.8136E-03     19.0060E-03
            2991            3422     11.5779E-03     13.2583E-03
            2992            3405     14.1891E-03     15.2779E-03
            2992            3406     11.8128E-03     11.7290E-03
            2992            3422     11.5779E-03     13.2583E-03
            2992            3423     8.89179E-03     9.20766E-03
            2993            3406     11.8128E-03     11.7290E-03
            2993            3407     13.5047E-03     12.0832E-03
            2993            3423     8.89179E-03     9.20766E-03
            2993            3424     10.7294E-03     9.50986E-03
            2994            3407     13.5047E-03     12.0832E-03
            2994            3408     19.1497E-03     16.9075E-03
            2994            3424     10.7294E-03     9.50986E-03
            2994            3425     17.4240E-03     15.6372E-03
            2995            3408     19.1497E-03     16.9075E-03
            2995            3409     25.5510E-03     22.9763E-03
            2995            3425     17.4240E-03     15.6372E-03
            2995            3426     27.4011E-03     25.6625E-03
            2996             384     32.8792E-03     31.2031E-03
            2996             385     28.4090E-03     25.7198E-03
            2996            3409     25.5510E-03     22.9763E-03
            2996            3426     27.4011E-03     25.6625E-03
            2997             460     109.932E-03     113.602E-03
            2997             461     115.242E-03     116.005E-03
            2997            3410     106.059E-03     107.502E-03
            2997            3427     103.125E-03     105.295E-03
            2998            3410     106.059E-03     107.502E-03
            2998            3411     89.9310E-03     92.0416E-03
            2998            3427     103.125E-03     105.295E-03
            2998            3428     92.6740E-03     92.8554E-03
            2999            3411     89.9310E-03     92.0416E-03
            2999            3412     78.4517E-03     80.4911E-03
            2999            3428     92.6740E-03     92.8554E-03
            2999            3429     85.0852E-03     85.1051E-03
            3000            3412     78.4517E-03     80.4911E-03
            3000            3413     69.6541E-03     71.6732E-03
            3000            3429     85.0852E-03     85.1051E-03
            3000            3430     77.8873E-03     78.1692E-03
            3001            3413     69.6541E-03     71.6732E-03
            3001            3414     61.7872E-03     63.9006E-03
            3001            3430     77.8873E-03     78.1692E-03
            3001            3431     71.1607E-03     71.6638E-03
            3002            3414     61.7872E-03     63.9006E-03
            3002            3415     54.6809E-03     56.8985E-03
            3002            3431     71.1607E-03     71.6638E-03
            3002            3432     64.5184E-03     65.3356E-03
            3003            3415     54.6809E-03     56.8985E-03
            3003            3416     47.9182E-03     50.2359E-03
            3003            3432     64.5184E-03     65.3356E-03
            3003            3433     58.0253E-03     59.0382E-03
            3004            3416     47.9182E-03     50.2359E-03
            3004            3417     41.4213E-03     43.8195E-03
            3004            3433     58.0253E-03     59.0382E-03
            3004            3434     51.5682E-03     52.7798E-03
            3005            3417     41.4213E-03     43.8195E-03
            3005            3418     35.0679E-03     37.5093E-03
            3005            3434     51.5682E-03     52.7798E-03
            3005            3435     45.2249E-03     46.5415E-03
            3006            3418     35.0679E-03     37.5093E-03
            3006            3419     28.8296E-03     31.2757E-03
            3006            3435     45.2249E-03     46.5415E-03
            3006            3436     38.9761E-03     40.3679E-03
            3007            3419     28.8296E-03     31.2757E-03
            3007            3420     22.7144E-03     25.0932E-03
            3007            3436     38.9761E-03     40.3679E-03
            3007            3437     32.9369E-03     34.3286E-03
            3008            3420     22.7144E-03     25.0932E-03
            3008            3421     16.8136E-03     19.0060E-03
            3008            3437     32.9369E-03     34.3286E-03
            3008            3438     27.1932E-03     28.5172E-03
            3009            3421     16.8136E-03     19.0060E-03
            3009            3422     11.5779E-03     13.2583E-03
            3009            3438     27.1932E-03     28.5172E-03
            3009            3439     22.0409E-03     23.1458E-03
            3010            3422     11.5779E-03     13.2583E-03
            3010            3423     8.89179E-03     9.20766E-03
            3010            3439     22.0409E-03     23.1458E-03
            3010            3440     18.6165E-03     19.0750E-03
            3011            3423     8.89179E-03     9.20766E-03
            3011            3424     10.7294E-03     9.50986E-03
            3011            3440     18.6165E-03     19.0750E-03
            3011            3441     18.4071E-03     18.1939E-03
            3012            3424     10.7294E-03     9.50986E-03
            3012            3425     17.4240E-03     15.6372E-03
            3012            3441     18.4071E-03     18.1939E-03
            3012            3442     20.6561E-03     21.0674E-03
            3013            3425     17.4240E-03     15.6372E-03
            3013            3426     27.4011E-03     25.6625E-03
            3013            3442     20.6561E-03     21.0674E-03
            3013            3443     25.8649E-03     29.5463E-03
            3014             383     29.6296E-03     35.7802E-03
            3014             384     32.8792E-03     31.2031E-03
            3014            3426     27.4011E-03     25.6625E-03
            3014            3443     25.8649E-03     29.5463E-03
            3015             459     109.021E-03     107.504E-03
            3015             460     109.932E-03     113.602E-03
            3015            3427     103.125E-03     105.295E-03
            3015            3444     106.704E-03     105.621E-03
            3016            3427     103.125E-03     105.295E-03
            3016            3428     92.6740E-03     92.8554E-03
            3016            3444     106.704E-03     105.621E-03
            3016            3445     101.582E-03     100.823E-03
            3017            3428     92.6740E-03     92.8554E-03
            3017            3429     85.0852E-03     85.1051E-03
            3017            3445     101.582E-03     100.823E-03
            3017            3446     95.9530E-03     95.0816E-03
            3018            3429     85.0852E-03     85.1051E-03
            3018            3430     77.8873E-03     78.1692E-03
            3018            3446     95.9530E-03     95.0816E-03
            3018            3447     89.8982E-03     89.1781E-03
            3019            3430     77.8873E-03     78.1692E-03
            3019            3431     71.1607E-03     71.6638E-03
            3019            3447     89.8982E-03     89.1781E-03
            3019            3448     83.4062E-03     82.9028E-03
            3020            3431     71.1607E-03     71.6638E-03
            3020            3432     64.5184E-03     65.3356E-03
            3020            3448     83.4062E-03     82.9028E-03
            3020            3449     76.6729E-03     76.3875E-03
            3021            3432     64.5184E-03     65.3356E-03
            3021            3433     58.0253E-03     59.0382E-03
            3021            3449     76.6729E-03     76.3875E-03
            3021            3450     69.7650E-03     69.6822E-03
            3022            3433     58.0253E-03     59.0382E-03
            3022            3434     51.5682E-03     52.7798E-03
            3022            3450     69.7650E-03     69.6822E-03
            3022            3451     62.8120E-03     62.8749E-03
            3023            3434     51.5682E-03     52.7798E-03
            3023            3435     45.2249E-03     46.5415E-03
            3023            3451     62.8120E-03     62.8749E-03
            3023            3452     55.9023E-03     56.0873E-03
            3024            3435     45.2249E-03     46.5415E-03
            3024            3436     38.9761E-03     40.3679E-03
            3024            3452     55.9023E-03     56.0873E-03
            3024            3453     49.1821E-03     49.4255E-03
            3025            3436     38.9761E-03     40.3679E-03
            3025            3437     32.9369E-03     34.3286E-03
            3025            3453     49.1821E-03     49.4255E-03
            3025            3454     42.7880E-03     43.0759E-03
            3026            3437     32.9369E-03     34.3286E-03
            3026            3438     27.1932E-03     28.5172E-03
            3026            3454     42.7880E-03     43.0759E-03
            3026            3455     36.9578E-03     37.2469E-03
            3027            3438     27.1932E-03     28.5172E-03
            3027            3439     22.0409E-03     23.1458E-03
            3027            3455     36.9578E-03     37.2469E-03
            3027            3456     31.9507E-03     32.3007E-03
            3028            3439     22.0409E-03     23.1458E-03
            3028            3440     18.6165E-03     19.0750E-03
            3028            3456     31.9507E-03     32.3007E-03
            3028            3457     28.1559E-03     28.6808E-03
            3029            3440     18.6165E-03     19.0750E-03
            3029            3441     18.4071E-03     18.1939E-03
            3029            3457     28.1559E-03     28.6808E-03
            3029            3458     25.9073E-03     26.9549E-03
            3030            3441     18.4071E-03     18.1939E-03
            3030            3442     20.6561E-03     21.0674E-03
            3030            3458     25.9073E-03     26.9549E-03
            3030            3459     25.2396E-03     27.6476E-03
            3031            3442     20.6561E-03     21.0674E-03
            3031            3443     25.8649E-03     29.5463E-03
            3031            3459     25.2396E-03     27.6476E-03
            3031            3460     27.4551E-03     30.9467E-03
            3032             382     29.6420E-03     33.2739E-03
            3032             383     29.6296E-03     35.7802E-03
            3032            3443     25.8649E-03     29.5463E-03
            3032            3460     27.4551E-03     30.9467E-03
            3033             458     115.892E-03     115.976E-03
            3033             459     109.021E-03     107.504E-03
            3033            3444     106.704E-03     105.621E-03
            3033            3461     113.556E-03     113.991E-03
            3034            3444     106.704E-03     105.621E-03
            3034            3445     101.582E-03     100.823E-03
            3034            3461     113.556E-03     113.991E-03
            3034            3462     107.904E-03     108.756E-03
            3035            3445     101.582E-03     100.823E-03
            3035            3446     95.9530E-03     95.0816E-03
            3035            3462     107.904E-03     108.756E-03
            3035            3463     101.191E-03     101.997E-03
            3036            3446     95.9530E-03     95.0816E-03
            3036            3447     89.8982E-03     89.1781E-03
            3036            3463     101.191E-03     101.997E-03
            3036            3464     94.1992E-03     94.7573E-03
            3037            3447     89.8982E-03     89.1781E-03
            3037            3448     83.4062E-03     82.9028E-03
            3037            3464     94.1992E-03     94.7573E-03
            3037            3465     86.7510E-03     87.2051E-03
            3038            3448     83.4062E-03     82.9028E-03
            3038            3449     76.6729E-03     76.3875E-03
            3038            3465     86.7510E-03     87.2051E-03
            3038            3466     79.0347E-03     79.4672E-03
            3039            3449     76.6729E-03     76.3875E-03
            3039            3450     69.7650E-03     69.6822E-03
            3039            3466     79.0347E-03     79.4672E-03
            3039            3467     71.1762E-03     71.6089E-03
            3040            3450     69.7650E-03     69.6822E-03
            3040            3451     62.8120E-03     62.8749E-03
            3040            3467     71.1762E-03     71.6089E-03
            3040            3468     63.2771E-03     63.7466E-03
            3041            3451     62.8120E-03     62.8749E-03
            3041            3452     55.9023E-03     56.0873E-03
            3041            3468     63.2771E-03     63.7466E-03
            3041            3469     55.4694E-03     55.9567E-03
            3042            3452     55.9023E-03     56.0873E-03
            3042            3453     49.1821E-03     49.4255E-03
            3042            3469     55.4694E-03     55.9567E-03
            3042            3470     47.8679E-03     48.3828E-03
            3043            3453     49.1821E-03     49.4255E-03
            3043            3454     42.7880E-03     43.0759E-03
            3043            3470     47.8679E-03     48.3828E-03
            3043            3471     40.6579E-03     41.1872E-03
            3044            3454     42.7880E-03     43.0759E-03
            3044            3455     36.9578E-03     37.2469E-03
            3044            3471     40.6579E-03     41.1872E-03
            3044            3472     34.0962E-03     34.6625E-03
            3045            3455     36.9578E-03     37.2469E-03
            3045            3456     31.9507E-03     32.3007E-03
            3045            3472     34.0962E-03     34.6625E-03
            3045            3473     28.6086E-03     29.2661E-03
            3046            3456     31.9507E-03     32.3007E-03
            3046            3457     28.1559E-03     28.6808E-03
            3046            3473     28.6086E-03     29.2661E-03
            3046            3474     24.8598E-03     25.6880E-03
            3047            3457     28.1559E-03     28.6808E-03
            3047            3458     25.9073E-03     26.9549E-03
            3047            3474     24.8598E-03     25.6880E-03
            3047            3475     23.4488E-03     24.6302E-03
            3048            3458     25.9073E-03     26.9549E-03
            3048            3459     25.2396E-03     27.6476E-03
            3048            3475     23.4488E-03     24.6302E-03
            3048            3476     25.3308E-03     26.1874E-03
            3049            3459     25.2396E-03     27.6476E-03
            3049            3460     27.4551E-03     30.9467E-03
            3049            3476     25.3308E-03     26.1874E-03
            3049            3477     29.8371E-03     28.5488E-03
            3050             381     32.3590E-03     29.5115E-03
            3050             382     29.6420E-03     33.2739E-03
            3050            3460     27.4551E-03     30.9467E-03
            3050            3477     29.8371E-03     28.5488E-03
            3051             457     121.920E-03     123.159E-03
            3051             458     115.892E-03     115.976E-03
            3051            3461     113.556E-03     113.991E-03
            3051            3478     118.955E-03     120.463E-03
            3052            3461     113.556E-03     113.991E-03
            3052            3462     107.904E-03     108.756E-03
            3052            3478     118.955E-03     120.463E-03
            3052            3479     112.805E-03     114.517E-03
            3053            3462     107.904E-03     108.756E-03
            3053            3463     101.191E-03     101.997E-03
            3053            3479     112.805E-03     114.517E-03
            3053            3480     105.750E-03     107.390E-03
            3054            3463     101.191E-03     101.997E-03
            3054            3464     94.1992E-03     94.7573E-03
            3054            3480     105.750E-03     107.390E-03
            3054            3481     97.8693E-03     99.3963E-03
            3055            3464     94.1992E-03     94.7573E-03
            3055            3465     86.7510E-03     87.2051E-03
            3055            3481     97.8693E-03     99.3963E-03
            3055            3482     89.6867E-03     90.9659E-03
            3056            3465     86.7510E-03     87.2051E-03
            3056            3466     79.0347E-03     79.4672E-03
            3056            3482     89.6867E-03     90.9659E-03
            3056            3483     81.1738E-03     82.2910E-03
            3057            3466     79.0347E-03     79.4672E-03
            3057            3467     71.1762E-03     71.6089E-03
            3057            3483     81.1738E-03     82.2910E-03
            3057            3484     72.5380E-03     73.5501E-03
            3058            3467     71.1762E-03     71.6089E-03
            3058            3468     63.2771E-03     63.7466E-03
            3058            3484     72.5380E-03     73.5501E-03
            3058            3485     63.8950E-03     64.8237E-03
            3059            3468     63.2771E-03     63.7466E-03
            3059            3469     55.4694E-03     55.9567E-03
            3059            3485     63.8950E-03     64.8237E-03
            3059            3486     55.3499E-03     56.2391E-03
            3060            3469     55.4694E-03     55.9567E-03
            3060            3470     47.8679E-03     48.3828E-03
            3060            3486     55.3499E-03     56.2391E-03
            3060            3487     47.0404E-03     47.8994E-03
            3061            3470     47.8679E-03     48.3828E-03
            3061            3471     40.6579E-03     41.1872E-03
            3061            3487     47.0404E-03     47.8994E-03
            3061            3488     39.1435E-03     39.9956E-03
            3062            3471     40.6579E-03     41.1872E-03
            3062            3472     34.0962E-03     34.6625E-03
            3062            3488     39.1435E-03     39.9956E-03
            3062            3489     31.9714E-03     32.8356E-03
            3063            3472     34.0962E-03     34.6625E-03
            3063            3473     28.6086E-03     29.2661E-03
            3063            3489     31.9714E-03     32.8356E-03
            3063            3490     26.1016E-03     26.9713E-03
            3064            3473     28.6086E-03     29.2661E-03
            3064            3474     24.8598E-03     25.6880E-03
            3064            3490     26.1016E-03     26.9713E-03
            3064            3491     22.4521E-03     23.2575E-03
            3065            3474     24.8598E-03     25.6880E-03
            3065            3475     23.4488E-03     24.6302E-03
            3065            3491     22.4521E-03     23.2575E-03
            3065            3492     22.1044E-03     22.4025E-03
            3066            3475     23.4488E-03     24.6302E-03
            3066            3476     25.3308E-03     26.1874E-03
            3066            3492     22.1044E-03     22.4025E-03
            3066            3493     24.9859E-03     23.9493E-03
            3067            3476     25.3308E-03     26.1874E-03
            3067            3477     29.8371E-03     28.5488E-03
            3067            3493     24.9859E-03     23.9493E-03
            3067            3494     28.8196E-03     26.7925E-03
            3068             380     30.5906E-03     28.4408E-03
            3068             381     32.3590E-03     29.5115E-03
            3068            3477     29.8371E-03     28.5488E-03
            3068            3494     28.8196E-03     26.7925E-03
            3069             456     127.074E-03     127.929E-03
            3069             457     121.920E-03     123.159E-03
            3069            3478     118.955E-03     120.463E-03
            3069            3495     123.801E-03     125.101E-03
            3070            3478     118.955E-03     120.463E-03
            3070            3479     112.805E-03     114.517E-03
            3070            3495     123.801E-03     125.101E-03
            3070            3496     116.830E-03     118.818E-03
            3071            3479     112.805E-03     114.517E-03
            3071            3480     105.750E-03     107.390E-03
            3071            3496     116.830E-03     118.818E-03
            3071            3497     109.155E-03     111.321E-03
            3072            3480     105.750E-03     107.390E-03
            3072            3481     97.8693E-03     99.3963E-03
            3072            3497     109.155E-03     111.321E-03
            3072            3498     100.806E-03     102.842E-03
            3073            3481     97.8693E-03     99.3963E-03
            3073            3482     89.6867E-03     90.9659E-03
            3073            3498     100.806E-03     102.842E-03
            3073            3499     91.8925E-03     93.7854E-03
            3074            3482     89.6867E-03     90.9659E-03
            3074            3483     81.1738E-03     82.2910E-03
            3074            3499     91.8925E-03     93.7854E-03
            3074            3500     82.7698E-03     84.4609E-03
            3075            3483     81.1738E-03     82.2910E-03
            3075            3484     72.5380E-03     73.5501E-03
            3075            3500     82.7698E-03     84.4609E-03
            3075            3501     73.5332E-03     75.0512E-03
            3076            3484     72.5380E-03     73.5501E-03
            3076            3485     63.8950E-03     64.8237E-03
            3076            3501     73.5332E-03     75.0512E-03
            3076            3502     64.3185E-03     65.7128E-03
            3077            3485     63.8950E-03     64.8237E-03
            3077            3486     55.3499E-03     56.2391E-03
            3077            3502     64.3185E-03     65.7128E-03
            3077            3503     55.2363E-03     56.5307E-03
            3078            3486     55.3499E-03     56.2391E-03
            3078            3487     47.0404E-03     47.8994E-03
            3078            3503     55.2363E-03     56.5307E-03
            3078            3504     46.3945E-03     47.6241E-03
            3079            3487     47.0404E-03     47.8994E-03
            3079            3488     39.1435E-03     39.9956E-03
            3079            3504     46.3945E-03     47.6241E-03
            3079            3505     37.9686E-03     39.1550E-03
            3080            3488     39.1435E-03     39.9956E-03
            3080            3489     31.9714E-03     32.8356E-03
            3080            3505     37.9686E-03     39.1550E-03
            3080            3506     30.3016E-03     31.4368E-03
            3081            3489     31.9714E-03     32.8356E-03
            3081            3490     26.1016E-03     26.9713E-03
            3081            3506     30.3016E-03     31.4368E-03
            3081            3507     24.0959E-03     25.0734E-03
            3082            3490     26.1016E-03     26.9713E-03
            3082            3491     22.4521E-03     23.2575E-03
            3082            3507     24.0959E-03     25.0734E-03
            3082            3508     20.5263E-03     21.0097E-03
            3083            3491     22.4521E-03     23.2575E-03
            3083            3492     22.1044E-03     22.4025E-03
            3083            3508     20.5263E-03     21.0097E-03
            3083            3509     20.6392E-03     20.0613E-03
            3084            3492     22.1044E-03     22.4025E-03
            3084            3493     24.9859E-03     23.9493E-03
            3084            3509     20.6392E-03     20.0613E-03
            3084            3510     23.6501E-03     21.9762E-03
            3085            3493     24.9859E-03     23.9493E-03
            3085            3494     28.8196E-03     26.7925E-03
            3085            3510     23.6501E-03     21.9762E-03
            3085            3511     28.2049E-03     25.6919E-03
            3086             379     30.7858E-03     27.8519E-03
            3086             380     30.5906E-03     28.4408E-03
            3086            3494     28.8196E-03     26.7925E-03
            3086            3511     28.2049E-03     25.6919E-03
            3087             455     131.750E-03     132.802E-03
            3087             456     127.074E-03     127.929E-03
            3087            3495     123.801E-03     125.101E-03
            3087            3512     127.991E-03     129.425E-03
            3088            3495     123.801E-03     125.101E-03
            3088            3496     116.830E-03     118.818E-03
            3088            3512     127.991E-03     129.425E-03
            3088            3513     120.235E-03     122.254E-03
            3089            3496     116.830E-03     118.818E-03
            3089            3497     109.155E-03     111.321E-03
            3089            3513     120.235E-03     122.254E-03
            3089            3514     111.854E-03     114.160E-03
            3090            3497     109.155E-03     111.321E-03
            3090            3498     100.806E-03     102.842E-03
            3090            3514     111.854E-03     114.160E-03
            3090            3515     102.783E-03     105.161E-03
            3091            3498     100.806E-03     102.842E-03
            3091            3499     91.8925E-03     93.7854E-03
            3091            3515     102.783E-03     105.161E-03
            3091            3516     93.3069E-03     95.5773E-03
            3092            3499     91.8925E-03     93.7854E-03
            3092            3500     82.7698E-03     84.4609E-03
            3092            3516     93.3069E-03     95.5773E-03
            3092            3517     83.6377E-03     85.7388E-03
            3093            3500     82.7698E-03     84.4609E-03
            3093            3501     73.5332E-03     75.0512E-03
            3093            3517     83.6377E-03     85.7388E-03
            3093            3518     73.9452E-03     75.8860E-03
            3094            3501     73.5332E-03     75.0512E-03
            3094            3502     64.3185E-03     65.7128E-03
            3094            3518     73.9452E-03     75.8860E-03
            3094            3519     64.3510E-03     66.1392E-03
            3095            3502     64.3185E-03     65.7128E-03
            3095            3503     55.2363E-03     56.5307E-03
            3095            3519     64.3510E-03     66.1392E-03
            3095            3520     54.9080E-03     56.5754E-03
            3096            3503     55.2363E-03     56.5307E-03
            3096            3504     46.3945E-03     47.6241E-03
            3096            3520     54.9080E-03     56.5754E-03
            3096            3521     45.7052E-03     47.2813E-03
            3097            3504     46.3945E-03     47.6241E-03
            3097            3505     37.9686E-03     39.1550E-03
            3097            3521     45.7052E-03     47.2813E-03
            3097            3522     36.9116E-03     38.4006E-03
            3098            3505     37.9686E-03     39.1550E-03
            3098            3506     30.3016E-03     31.4368E-03
            3098            3522     36.9116E-03     38.4006E-03
            3098            3523     28.8546E-03     30.2135E-03
            3099            3506     30.3016E-03     31.4368E-03
            3099            3507     24.0959E-03     25.0734E-03
            3099            3523     28.8546E-03     30.2135E-03
            3099            3524     22.2908E-03     23.3115E-03
            3100            3507     24.0959E-03     25.0734E-03
            3100            3508     20.5263E-03     21.0097E-03
            3100            3524     22.2908E-03     23.3115E-03
            3100            3525     18.6964E-03     18.8351E-03
            3101            3508     20.5263E-03     21.0097E-03
            3101            3509     20.6392E-03     20.0613E-03
            3101            3525     18.6964E-03     18.8351E-03
            3101            3526     19.0029E-03     17.8878E-03
            3102            3509     20.6392E-03     20.0613E-03
            3102            3510     23.6501E-03     21.9762E-03
            3102            3526     19.0029E-03     17.8878E-03
            3102            3527     22.6193E-03     20.4163E-03
            3103            3510     23.6501E-03     21.9762E-03
            3103            3511     28.2049E-03     25.6919E-03
            3103            3527     22.6193E-03     20.4163E-03
            3103            3528     27.9630E-03     25.1350E-03
            3104             378     30.8328E-03     27.8377E-03
            3104             379     30.7858E-03     27.8519E-03
            3104            3511     28.2049E-03     25.6919E-03
            3104            3528     27.9630E-03     25.1350E-03
            3105             454     135.865E-03     137.310E-03
            3105             455     131.750E-03     132.802E-03
            3105            3512     127.991E-03     129.425E-03
            3105            3529     131.783E-03     133.372E-03
            3106            3512     127.991E-03     129.425E-03
            3106            3513     120.235E-03     122.254E-03
            3106            3529     131.783E-03     133.372E-03
            3106            3530     123.209E-03     125.191E-03
            3107            3513     120.235E-03     122.254E-03
            3107            3514     111.854E-03     114.160E-03
            3107            3530     123.209E-03     125.191E-03
            3107            3531     113.801E-03     116.205E-03
            3108            3514     111.854E-03     114.160E-03
            3108            3515     102.783E-03     105.161E-03
            3108            3531     113.801E-03     116.205E-03
            3108            3532     103.907E-03     106.445E-03
            3109            3515     102.783E-03     105.161E-03
            3109            3516     93.3069E-03     95.5773E-03
            3109            3532     103.907E-03     106.445E-03
            3109            3533     93.7945E-03     96.2668E-03
            3110            3516     93.3069E-03     95.5773E-03
            3110            3517     83.6377E-03     85.7388E-03
            3110            3533     93.7945E-03     96.2668E-03
            3110            3534     83.6456E-03     86.0387E-03
            3111            3517     83.6377E-03     85.7388E-03
            3111            3518     73.9452E-03     75.8860E-03
            3111            3534     83.6456E-03     86.0387E-03
            3111            3535     73.6816E-03     75.9267E-03
            3112            3518     73.9452E-03     75.8860E-03
            3112            3519     64.3510E-03     66.1392E-03
            3112            3535     73.6816E-03     75.9267E-03
            3112            3536     63.8623E-03     65.9638E-03
            3113            3519     64.3510E-03     66.1392E-03
            3113            3520     54.9080E-03     56.5754E-03
            3113            3536     63.8623E-03     65.9638E-03
            3113            3537     54.2294E-03     56.2120E-03
            3114            3520     54.9080E-03     56.5754E-03
            3114            3521     45.7052E-03     47.2813E-03
            3114            3537     54.2294E-03     56.2120E-03
            3114            3538     44.8385E-03     46.7065E-03
            3115            3521     45.7052E-03     47.2813E-03
            3115            3522     36.9116E-03     38.4006E-03
            3115            3538     44.8385E-03     46.7065E-03
            3115            3539     35.7920E-03     37.5499E-03
            3116            3522     36.9116E-03     38.4006E-03
            3116            3523     28.8546E-03     30.2135E-03
            3116            3539     35.7920E-03     37.5499E-03
            3116            3540     27.4404E-03     28.9880E-03
            3117            3523     28.8546E-03     30.2135E-03
            3117            3524     22.2908E-03     23.3115E-03
            3117            3540     27.4404E-03     28.9880E-03
            3117            3541     20.5736E-03     21.5977E-03
            3118            3524     22.2908E-03     23.3115E-03
            3118            3525     18.6964E-03     18.8351E-03
            3118            3541     20.5736E-03     21.5977E-03
            3118            3542     16.7717E-03     16.6768E-03
            3119            3525     18.6964E-03     18.8351E-03
            3119            3526     19.0029E-03     17.8878E-03
            3119            3542     16.7717E-03     16.6768E-03
            3119            3543     17.5764E-03     16.0134E-03
            3120            3526     19.0029E-03     17.8878E-03
            3120            3527     22.6193E-03     20.4163E-03
            3120            3543     17.5764E-03     16.0134E-03
            3120            3544     22.0735E-03     19.4665E-03
            3121            3527     22.6193E-03     20.4163E-03
            3121            3528     27.9630E-03     25.1350E-03
            3121            3544     22.0735E-03     19.4665E-03
            3121            3545     28.2238E-03     25.2470E-03
            3122             377     31.5489E-03     28.5201E-03
            3122             378     30.8328E-03     27.8377E-03
            3122            3528     27.9630E-03     25.1350E-03
            3122            3545     28.2238E-03     25.2470E-03
            3123             453     140.247E-03     140.999E-03
            3123             454     135.865E-03     137.310E-03
            3123            3529     131.783E-03     133.372E-03
            3123            3546     135.519E-03     136.876E-03
            3124            3529     131.783E-03     133.372E-03
            3124            3530     123.209E-03     125.191E-03
            3124            3546     135.519E-03     136.876E-03
            3124            3547     125.550E-03     127.750E-03
            3125            3530     123.209E-03     125.191E-03
            3125            3531     113.801E-03     116.205E-03
            3125            3547     125.550E-03     127.750E-03
            3125            3548     114.970E-03     117.382E-03
            3126            3531     113.801E-03     116.205E-03
            3126            3532     103.907E-03     106.445E-03
            3126            3548     114.970E-03     117.382E-03
            3126            3549     104.019E-03     106.522E-03
            3127            3532     103.907E-03     106.445E-03
            3127            3533     93.7945E-03     96.2668E-03
            3127            3549     104.019E-03     106.522E-03
            3127            3550     93.1480E-03     95.7808E-03
            3128            3533     93.7945E-03     96.2668E-03
            3128            3534     83.6456E-03     86.0387E-03
            3128            3550     93.1480E-03     95.7808E-03
            3128            3551     82.7886E-03     85.3424E-03
            3129            3534     83.6456E-03     86.0387E-03
            3129            3535     73.6816E-03     75.9267E-03
            3129            3551     82.7886E-03     85.3424E-03
            3129            3552     72.6781E-03     75.1229E-03
            3130            3535     73.6816E-03     75.9267E-03
            3130            3536     63.8623E-03     65.9638E-03
            3130            3552     72.6781E-03     75.1229E-03
            3130            3553     62.8130E-03     65.1537E-03
            3131            3536     63.8623E-03     65.9638E-03
            3131            3537     54.2294E-03     56.2120E-03
            3131            3553     62.8130E-03     65.1537E-03
            3131            3554     53.1539E-03     55.3773E-03
            3132            3537     54.2294E-03     56.2120E-03
            3132            3538     44.8385E-03     46.7065E-03
            3132            3554     53.1539E-03     55.3773E-03
            3132            3555     43.6907E-03     45.8169E-03
            3133            3538     44.8385E-03     46.7065E-03
            3133            3539     35.7920E-03     37.5499E-03
            3133            3555     43.6907E-03     45.8169E-03
            3133            3556     34.5406E-03     36.5264E-03
            3134            3539     35.7920E-03     37.5499E-03
            3134            3540     27.4404E-03     28.9880E-03
            3134            3556     34.5406E-03     36.5264E-03
            3134            3557     25.9184E-03     27.6681E-03
            3135            3540     27.4404E-03     28.9880E-03
            3135            3541     20.5736E-03     21.5977E-03
            3135            3557     25.9184E-03     27.6681E-03
            3135            3558     18.7164E-03     19.8201E-03
            3136            3541     20.5736E-03     21.5977E-03
            3136            3542     16.7717E-03     16.6768E-03
            3136            3558     18.7164E-03     19.8201E-03
            3136            3559     15.0013E-03     14.6561E-03
            3137            3542     16.7717E-03     16.6768E-03
            3137            3543     17.5764E-03     16.0134E-03
            3137            3559     15.0013E-03     14.6561E-03
            3137            3560     16.4321E-03     14.4595E-03
            3138            3543     17.5764E-03     16.0134E-03
            3138            3544     22.0735E-03     19.4665E-03
            3138            3560     16.4321E-03     14.4595E-03
            3138            3561     21.9924E-03     19.1756E-03
            3139            3544     22.0735E-03     19.4665E-03
            3139            3545     28.2238E-03     25.2470E-03
            3139            3561     21.9924E-03     19.1756E-03
            3139            3562     29.2064E-03     26.0571E-03
            3140             376     32.9372E-03     29.6367E-03
            3140             377     31.5489E-03     28.5201E-03
            3140            3545     28.2238E-03     25.2470E-03
            3140            3562     29.2064E-03     26.0571E-03
            3141             452     143.853E-03     146.126E-03
            3141             453     140.247E-03     140.999E-03
            3141            3546     135.519E-03     136.876E-03
            3141            3563     138.633E-03     140.708E-03
            3142            3546     135.519E-03     136.876E-03
            3142            3547     125.550E-03     127.750E-03
            3142            3563     138.633E-03     140.708E-03
            3142            3564     127.425E-03     129.300E-03
            3143            3547     125.550E-03     127.750E-03
            3143            3548     114.970E-03     117.382E-03
            3143            3564     127.425E-03     129.300E-03
            3143            3565     114.829E-03     117.010E-03
            3144            3548     114.970E-03     117.382E-03
            3144            3549     104.019E-03     106.522E-03
            3144            3565     114.829E-03     117.010E-03
            3144            3566     102.506E-03     105.115E-03
            3145            3549     104.019E-03     106.522E-03
            3145            3550     93.1480E-03     95.7808E-03
            3145            3566     102.506E-03     105.115E-03
            3145            3567     91.4850E-03     94.1332E-03
            3146            3550     93.1480E-03     95.7808E-03
            3146            3551     82.7886E-03     85.3424E-03
            3146            3567     91.4850E-03     94.1332E-03
            3146            3568     81.0322E-03     83.6425E-03
            3147            3551     82.7886E-03     85.3424E-03
            3147            3552     72.6781E-03     75.1229E-03
            3147            3568     81.0322E-03     83.6425E-03
            3147            3569     71.0011E-03     73.5718E-03
            3148            3552     72.6781E-03     75.1229E-03
            3148            3553     62.8130E-03     65.1537E-03
            3148            3569     71.0011E-03     73.5718E-03
            3148            3570     61.2534E-03     63.7433E-03
            3149            3553     62.8130E-03     65.1537E-03
            3149            3554     53.1539E-03     55.3773E-03
            3149            3570     61.2534E-03     63.7433E-03
            3149            3571     51.6821E-03     54.1150E-03
            3150            3554     53.1539E-03     55.3773E-03
            3150            3555     43.6907E-03     45.8169E-03
            3150            3571     51.6821E-03     54.1150E-03
            3150            3572     42.2905E-03     44.6367E-03
            3151            3555     43.6907E-03     45.8169E-03
            3151            3556     34.5406E-03     36.5264E-03
            3151            3572     42.2905E-03     44.6367E-03
            3151            3573     33.0847E-03     35.3194E-03
            3152            3556     34.5406E-03     36.5264E-03
            3152            3557     25.9184E-03     27.6681E-03
            3152            3573     33.0847E-03     35.3194E-03
            3152            3574     24.3074E-03     26.2849E-03
            3153            3557     25.9184E-03     27.6681E-03
            3153            3558     18.7164E-03     19.8201E-03
            3153            3574     24.3074E-03     26.2849E-03
            3153            3575     16.6111E-03     17.9500E-03
            3154            3558     18.7164E-03     19.8201E-03
            3154            3559     15.0013E-03     14.6561E-03
            3154            3575     16.6111E-03     17.9500E-03
            3154            3576     12.7471E-03     12.3877E-03
            3155            3559     15.0013E-03     14.6561E-03
            3155            3560     16.4321E-03     14.4595E-03
            3155            3576     12.7471E-03     12.3877E-03
            3155            3577     15.5166E-03     13.2167E-03
            3156            3560     16.4321E-03     14.4595E-03
            3156            3561     21.9924E-03     19.1756E-03
            3156            3577     15.5166E-03     13.2167E-03
            3156            3578     22.7156E-03     19.5647E-03
            3157            3561     21.9924E-03     19.1756E-03
            3157            3562     29.2064E-03     26.0571E-03
            3157            3578     22.7156E-03     19.5647E-03
            3157            3579     30.6538E-03     27.6023E-03
            3158             375     34.5850E-03     31.7774E-03
            3158             376     32.9372E-03     29.6367E-03
            3158            3562     29.2064E-03     26.0571E-03
            3158            3579     30.6538E-03     27.6023E-03
            3159             451     148.706E-03     148.395E-03
            3159             452     143.853E-03     146.126E-03
            3159            3563     138.633E-03     140.708E-03
            3159            3580     142.187E-03     142.485E-03
            3160            3563     138.633E-03     140.708E-03
            3160            3564     127.425E-03     129.300E-03
            3160            3580     142.187E-03     142.485E-03
            3160            3581     127.136E-03     128.641E-03
            3161            3564     127.425E-03     129.300E-03
            3161            3565     114.829E-03     117.010E-03
            3161            3581     127.136E-03     128.641E-03
            3161            3582     111.964E-03     114.325E-03
            3162            3565     114.829E-03     117.010E-03
            3162            3566     102.506E-03     105.115E-03
            3162            3582     111.964E-03     114.325E-03
            3162            3583     99.7454E-03     102.269E-03
            3163            3566     102.506E-03     105.115E-03
            3163            3567     91.4850E-03     94.1332E-03
            3163            3583     99.7454E-03     102.269E-03
            3163            3584     88.8194E-03     91.3503E-03
            3164            3567     91.4850E-03     94.1332E-03
            3164            3568     81.0322E-03     83.6425E-03
            3164            3584     88.8194E-03     91.3503E-03
            3164            3585     78.5833E-03     81.1732E-03
            3165            3568     81.0322E-03     83.6425E-03
            3165            3569     71.0011E-03     73.5718E-03
            3165            3585     78.5833E-03     81.1732E-03
            3165            3586     68.8288E-03     71.4205E-03
            3166            3569     71.0011E-03     73.5718E-03
            3166            3570     61.2534E-03     63.7433E-03
            3166            3586     68.8288E-03     71.4205E-03
            3166            3587     59.3018E-03     61.9194E-03
            3167            3570     61.2534E-03     63.7433E-03
            3167            3571     51.6821E-03     54.1150E-03
            3167            3587     59.3018E-03     61.9194E-03
            3167            3588     49.9531E-03     52.5627E-03
            3168            3571     51.6821E-03     54.1150E-03
            3168            3572     42.2905E-03     44.6367E-03
            3168            3588     49.9531E-03     52.5627E-03
            3168            3589     40.7030E-03     43.2895E-03
            3169            3572     42.2905E-03     44.6367E-03
            3169            3573     33.0847E-03     35.3194E-03
            3169            3589     40.7030E-03     43.2895E-03
            3169            3590     31.5598E-03     34.0701E-03
            3170            3573     33.0847E-03     35.3194E-03
            3170            3574     24.3074E-03     26.2849E-03
            3170            3590     31.5598E-03     34.0701E-03
            3170            3591     22.5987E-03     24.9286E-03
            3171            3574     24.3074E-03     26.2849E-03
            3171            3575     16.6111E-03     17.9500E-03
            3171            3591     22.5987E-03     24.9286E-03
            3171            3592     14.4217E-03     16.1656E-03
            3172            3575     16.6111E-03     17.9500E-03
            3172            3576     12.7471E-03     12.3877E-03
            3172            3592     14.4217E-03     16.1656E-03
            3172            3593     9.86992E-03     9.79116E-03
            3173            3576     12.7471E-03     12.3877E-03
            3173            3577     15.5166E-03     13.2167E-03
            3173            3593     9.86992E-03     9.79116E-03
            3173            3594     13.1854E-03     11.0814E-03
            3174            3577     15.5166E-03     13.2167E-03
            3174            3578     22.7156E-03     19.5647E-03
            3174            3594     13.1854E-03     11.0814E-03
            3174            3595     23.1556E-03     20.1467E-03
            3175            3578     22.7156E-03     19.5647E-03
            3175            3579     30.6538E-03     27.6023E-03
            3175            3595     23.1556E-03     20.1467E-03
            3175            3596     33.7002E-03     30.1377E-03
            3176             374     38.3455E-03     34.4852E-03
            3176             375     34.5850E-03     31.7774E-03
            3176            3579     30.6538E-03     27.6023E-03
            3176            3596     33.7002E-03     30.1377E-03
            3177             450     152.302E-03     152.809E-03
            3177             451     148.706E-03     148.395E-03
            3177            3580     142.187E-03     142.485E-03
            3177            3597     141.379E-03     142.769E-03
            3178            3580     142.187E-03     142.485E-03
            3178            3581     127.136E-03     128.641E-03
            3178            3597     141.379E-03     142.769E-03
            3178            3598     121.934E-03     124.174E-03
            3179            3581     127.136E-03     128.641E-03
            3179            3582     111.964E-03     114.325E-03
            3179            3598     121.934E-03     124.174E-03
            3179            3599     107.569E-03     109.703E-03
            3180            3582     111.964E-03     114.325E-03
            3180            3583     99.7454E-03     102.269E-03
            3180            3599     107.569E-03     109.703E-03
            3180            3600     96.0983E-03     98.2357E-03
            3181            3583     99.7454E-03     102.269E-03
            3181            3584     88.8194E-03     91.3503E-03
            3181            3600     96.0983E-03     98.2357E-03
            3181            3601     85.5698E-03     87.8532E-03
            3182            3584     88.8194E-03     91.3503E-03
            3182            3585     78.5833E-03     81.1732E-03
            3182            3601     85.5698E-03     87.8532E-03
            3182            3602     75.8247E-03     78.2686E-03
            3183            3585     78.5833E-03     81.1732E-03
            3183            3586     68.8288E-03     71.4205E-03
            3183            3602     75.8247E-03     78.2686E-03
            3183            3603     66.4040E-03     69.0057E-03
            3184            3586     68.8288E-03     71.4205E-03
            3184            3587     59.3018E-03     61.9194E-03
            3184            3603     66.4040E-03     69.0057E-03
            3184            3604     57.2306E-03     59.9616E-03
            3185            3587     59.3018E-03     61.9194E-03
            3185            3588     49.9531E-03     52.5627E-03
            3185            3604     57.2306E-03     59.9616E-03
            3185            3605     48.1652E-03     50.9861E-03
            3186            3588     49.9531E-03     52.5627E-03
            3186            3589     40.7030E-03     43.2895E-03
            3186            3605     48.1652E-03     50.9861E-03
            3186            3606     39.1582E-03     42.0258E-03
            3187            3589     40.7030E-03     43.2895E-03
            3187            3590     31.5598E-03     34.0701E-03
            3187            3606     39.1582E-03     42.0258E-03
            3187            3607     30.1832E-03     33.0348E-03
            3188            3590     31.5598E-03     34.0701E-03
            3188            3591     22.5987E-03     24.9286E-03
            3188            3607     30.1832E-03     33.0348E-03
            3188            3608     21.1944E-03     23.9535E-03
            3189            3591     22.5987E-03     24.9286E-03
            3189            3592     14.4217E-03     16.1656E-03
            3189            3608     21.1944E-03     23.9535E-03
            3189            3609     12.4248E-03     14.8607E-03
            3190            3592     14.4217E-03     16.1656E-03
            3190            3593     9.86992E-03     9.79116E-03
            3190            3609     12.4248E-03     14.8607E-03
            3190            3610     6.73631E-03     7.08274E-03
            3191            3593     9.86992E-03     9.79116E-03
            3191            3594     13.1854E-03     11.0814E-03
            3191            3610     6.73631E-03     7.08274E-03
            3191            3611     9.70221E-03     7.93485E-03
            3192            3594     13.1854E-03     11.0814E-03
            3192            3595     23.1556E-03     20.1467E-03
            3192            3611     9.70221E-03     7.93485E-03
            3192            3612     20.5671E-03     18.7523E-03
            3193            3595     23.1556E-03     20.1467E-03
            3193            3596     33.7002E-03     30.1377E-03
            3193            3612     20.5671E-03     18.7523E-03
            3193            3613     34.9804E-03     33.4261E-03
            3194             373     42.9657E-03     41.4308E-03
            3194             374     38.3455E-03     34.4852E-03
            3194            3596     33.7002E-03     30.1377E-03
            3194            3613     34.9804E-03     33.4261E-03
            3195             449     146.443E-03     151.290E-03
            3195             450     152.302E-03     152.809E-03
            3195            3597     141.379E-03     142.769E-03
            3195            3614     137.320E-03     140.233E-03
            3196            3597     141.379E-03     142.769E-03
            3196            3598     121.934E-03     124.174E-03
            3196            3614     137.320E-03     140.233E-03
            3196            3615     123.340E-03     123.621E-03
            3197            3598     121.934E-03     124.174E-03
            3197            3599     107.569E-03     109.703E-03
            3197            3615     123.340E-03     123.621E-03
            3197            3616     113.067E-03     113.124E-03
            3198            3599     107.569E-03     109.703E-03
            3198            3600     96.0983E-03     98.2357E-03
            3198            3616     113.067E-03     113.124E-03
            3198            3617     103.192E-03     103.619E-03
            3199            3600     96.0983E-03     98.2357E-03
            3199            3601     85.5698E-03     87.8532E-03
            3199            3617     103.192E-03     103.619E-03
            3199            3618     93.9443E-03     94.6549E-03
            3200            3601     85.5698E-03     87.8532E-03
            3200            3602     75.8247E-03     78.2686E-03
            3200            3618     93.9443E-03     94.6549E-03
            3200            3619     84.7299E-03     85.8545E-03
            3201            3602     75.8247E-03     78.2686E-03
            3201            3603     66.4040E-03     69.0057E-03
            3201            3619     84.7299E-03     85.8545E-03
            3201            3620     75.7109E-03     77.0864E-03
            3202            3603     66.4040E-03     69.0057E-03
            3202            3604     57.2306E-03     59.9616E-03
            3202            3620     75.7109E-03     77.0864E-03
            3202            3621     66.7019E-03     68.3260E-03
            3203            3604     57.2306E-03     59.9616E-03
            3203            3605     48.1652E-03     50.9861E-03
            3203            3621     66.7019E-03     68.3260E-03
            3203            3622     57.8046E-03     59.5612E-03
            3204            3605     48.1652E-03     50.9861E-03
            3204            3606     39.1582E-03     42.0258E-03
            3204            3622     57.8046E-03     59.5612E-03
            3204            3623     49.0110E-03     50.8584E-03
            3205            3606     39.1582E-03     42.0258E-03
            3205            3607     30.1832E-03     33.0348E-03
            3205            3623     49.0110E-03     50.8584E-03
            3205            3624     40.4064E-03     42.2569E-03
            3206            3607     30.1832E-03     33.0348E-03
            3206            3608     21.1944E-03     23.9535E-03
            3206            3624     40.4064E-03     42.2569E-03
            3206            3625     32.1111E-03     33.9001E-03
            3207            3608     21.1944E-03     23.9535E-03
            3207            3609     12.4248E-03     14.8607E-03
            3207            3625     32.1111E-03     33.9001E-03
            3207            3626     24.2868E-03     25.9323E-03
            3208            3609     12.4248E-03     14.8607E-03
            3208            3610     6.73631E-03     7.08274E-03
            3208            3626     24.2868E-03     25.9323E-03
            3208            3627     18.4307E-03     18.9900E-03
            3209            3610     6.73631E-03     7.08274E-03
            3209            3611     9.70221E-03     7.93485E-03
            3209            3627     18.4307E-03     18.9900E-03
            3209            3628     18.6016E-03     18.1732E-03
            3210            3611     9.70221E-03     7.93485E-03
            3210            3612     20.5671E-03     18.7523E-03
            3210            3628     18.6016E-03     18.1732E-03
            3210            3629     23.1592E-03     23.8929E-03
            3211            3612     20.5671E-03     18.7523E-03
            3211            3613     34.9804E-03     33.4261E-03
            3211            3629     23.1592E-03     23.8929E-03
            3211            3630     31.8423E-03     36.7249E-03
            3212             372     38.1715E-03     46.0825E-03
            3212             373     42.9657E-03     41.4308E-03
            3212            3613     34.9804E-03     33.4261E-03
            3212            3630     31.8423E-03     36.7249E-03
            3213             448     146.524E-03     145.073E-03
            3213             449     146.443E-03     151.290E-03
            3213            3614     137.320E-03     140.233E-03
            3213            3631     142.029E-03     141.159E-03
            3214            3614     137.320E-03     140.233E-03
            3214            3615     123.340E-03     123.621E-03
            3214            3631     142.029E-03     141.159E-03
            3214            3632     132.877E-03     132.527E-03
            3215            3615     123.340E-03     123.621E-03
            3215            3616     113.067E-03     113.124E-03
            3215            3632     132.877E-03     132.527E-03
            3215            3633     124.020E-03     123.578E-03
            3216            3616     113.067E-03     113.124E-03
            3216            3617     103.192E-03     103.619E-03
            3216            3633     124.020E-03     123.578E-03
            3216            3634     115.167E-03     114.854E-03
            3217            3617     103.192E-03     103.619E-03
            3217            3618     93.9443E-03     94.6549E-03
            3217            3634     115.167E-03     114.854E-03
            3217            3635     105.900E-03     105.875E-03
            3218            3618     93.9443E-03     94.6549E-03
            3218            3619     84.7299E-03     85.8545E-03
            3218            3635     105.900E-03     105.875E-03
            3218            3636     96.5118E-03     96.7320E-03
            3219            3619     84.7299E-03     85.8545E-03
            3219            3620     75.7109E-03     77.0864E-03
            3219            3636     96.5118E-03     96.7320E-03
            3219            3637     86.9448E-03     87.3905E-03
            3220            3620     75.7109E-03     77.0864E-03
            3220            3621     66.7019E-03     68.3260E-03
            3220            3637     86.9448E-03     87.3905E-03
            3220            3638     77.3682E-03     77.9833E-03
            3221            3621     66.7019E-03     68.3260E-03
            3221            3622     57.8046E-03     59.5612E-03
            3221            3638     77.3682E-03     77.9833E-03
            3221            3639     67.8568E-03     68.5790E-03
            3222            3622     57.8046E-03     59.5612E-03
            3222            3623     49.0110E-03     50.8584E-03
            3222            3639     67.8568E-03     68.5790E-03
            3222            3640     58.5573E-03     59.3342E-03
            3223            3623     49.0110E-03     50.8584E-03
            3223            3624     40.4064E-03     42.2569E-03
            3223            3640     58.5573E-03     59.3342E-03
            3223            3641     49.6716E-03     50.4435E-03
            3224            3624     40.4064E-03     42.2569E-03
            3224            3625     32.1111E-03     33.9001E-03
            3224            3641     49.6716E-03     50.4435E-03
            3224            3642     41.4738E-03     42.1902E-03
            3225            3625     32.1111E-03     33.9001E-03
            3225            3626     24.2868E-03     25.9323E-03
            3225            3642     41.4738E-03     42.1902E-03
            3225            3643     34.4903E-03     35.1522E-03
            3226            3626     24.2868E-03     25.9323E-03
            3226            3627     18.4307E-03     18.9900E-03
            3226            3643     34.4903E-03     35.1522E-03
            3226            3644     29.4414E-03     30.1347E-03
            3227            3627     18.4307E-03     18.9900E-03
            3227            3628     18.6016E-03     18.1732E-03
            3227            3644     29.4414E-03     30.1347E-03
            3227            3645     27.1855E-03     28.2926E-03
            3228            3628     18.6016E-03     18.1732E-03
            3228            3629     23.1592E-03     23.8929E-03
            3228            3645     27.1855E-03     28.2926E-03
            3228            3646     28.1201E-03     30.4844E-03
            3229            3629     23.1592E-03     23.8929E-03
            3229            3630     31.8423E-03     36.7249E-03
            3229            3646     28.1201E-03     30.4844E-03
            3229            3647     33.7100E-03     36.8657E-03
            3230             371     38.0612E-03     41.1204E-03
            3230             372     38.1715E-03     46.0825E-03
            3230            3630     31.8423E-03     36.7249E-03
            3230            3647     33.7100E-03     36.8657E-03
            3231             447     153.563E-03     153.454E-03
            3231             448     146.524E-03     145.073E-03
            3231            3631     142.029E-03     141.159E-03
            3231            3648     149.740E-03     150.289E-03
            3232            3631     142.029E-03     141.159E-03
            3232            3632     132.877E-03     132.527E-03
            3232            3648     149.740E-03     150.289E-03
            3232            3649     140.669E-03     142.007E-03
            3233            3632     132.877E-03     132.527E-03
            3233            3633     124.020E-03     123.578E-03
            3233            3649     140.669E-03     142.007E-03
            3233            3650     130.391E-03     131.786E-03
            3234            3633     124.020E-03     123.578E-03
            3234            3634     115.167E-03     114.854E-03
            3234            3650     130.391E-03     131.786E-03
            3234            3651     120.229E-03     121.429E-03
            3235            3634     115.167E-03     114.854E-03
            3235            3635     105.900E-03     105.875E-03
            3235            3651     120.229E-03     121.429E-03
            3235            3652     109.822E-03     110.873E-03
            3236            3635     105.900E-03     105.875E-03
            3236            3636     96.5118E-03     96.7320E-03
            3236            3652     109.822E-03     110.873E-03
            3236            3653     99.1998E-03     100.228E-03
            3237            3636     96.5118E-03     96.7320E-03
            3237            3637     86.9448E-03     87.3905E-03
            3237            3653     99.1998E-03     100.228E-03
            3237            3654     88.5086E-03     89.5352E-03
            3238            3637     86.9448E-03     87.3905E-03
            3238            3638     77.3682E-03     77.9833E-03
            3238            3654     88.5086E-03     89.5352E-03
            3238            3655     77.8180E-03     78.8606E-03
            3239            3638     77.3682E-03     77.9833E-03
            3239            3639     67.8568E-03     68.5790E-03
            3239            3655     77.8180E-03     78.8606E-03
            3239            3656     67.2350E-03     68.2955E-03
            3240            3639     67.8568E-03     68.5790E-03
            3240            3640     58.5573E-03     59.3342E-03
            3240            3656     67.2350E-03     68.2955E-03
            3240            3657     56.8961E-03     57.9527E-03
            3241            3640     58.5573E-03     59.3342E-03
            3241            3641     49.6716E-03     50.4435E-03
            3241            3657     56.8961E-03     57.9527E-03
            3241            3658     46.9689E-03     48.0151E-03
            3242            3641     49.6716E-03     50.4435E-03
            3242            3642     41.4738E-03     42.1902E-03
            3242            3658     46.9689E-03     48.0151E-03
            3242            3659     37.8503E-03     38.8592E-03
            3243            3642     41.4738E-03     42.1902E-03
            3243            3643     34.4903E-03     35.1522E-03
            3243            3659     37.8503E-03     38.8592E-03
            3243            3660     30.1521E-03     31.1477E-03
            3244            3643     34.4903E-03     35.1522E-03
            3244            3644     29.4414E-03     30.1347E-03
            3244            3660     30.1521E-03     31.1477E-03
            3244            3661     25.2783E-03     26.2357E-03
            3245            3644     29.4414E-03     30.1347E-03
            3245            3645     27.1855E-03     28.2926E-03
            3245            3661     25.2783E-03     26.2357E-03
            3245            3662     24.5375E-03     25.5028E-03
            3246            3645     27.1855E-03     28.2926E-03
            3246            3646     28.1201E-03     30.4844E-03
            3246            3662     24.5375E-03     25.5028E-03
            3246            3663     29.0156E-03     29.1599E-03
            3247            3646     28.1201E-03     30.4844E-03
            3247            3647     33.7100E-03     36.8657E-03
            3247            3663     29.0156E-03     29.1599E-03
            3247            3664     36.7607E-03     34.3041E-03
            3248             370     40.7536E-03     36.5774E-03
            3248             371     38.0612E-03     41.1204E-03
            3248            3647     33.7100E-03     36.8657E-03
            3248            3664     36.7607E-03     34.3041E-03
            3249             446     159.115E-03     161.210E-03
            3249             447     153.563E-03     153.454E-03
            3249            3648     149.740E-03     150.289E-03
            3249            3665     155.014E-03     157.163E-03
            3250            3648     149.740E-03     150.289E-03
            3250            3649     140.669E-03     142.007E-03
            3250            3665     155.014E-03     157.163E-03
            3250            3666     146.120E-03     148.360E-03
            3251            3649     140.669E-03     142.007E-03
            3251            3650     130.391E-03     131.786E-03
            3251            3666     146.120E-03     148.360E-03
            3251            3667     135.660E-03     138.019E-03
            3252            3650     130.391E-03     131.786E-03
            3252            3651     120.229E-03     121.429E-03
            3252            3667     135.660E-03     138.019E-03
            3252            3668     124.459E-03     126.701E-03
            3253            3651     120.229E-03     121.429E-03
            3253            3652     109.822E-03     110.873E-03
            3253            3668     124.459E-03     126.701E-03
            3253            3669     113.100E-03     115.081E-03
            3254            3652     109.822E-03     110.873E-03
            3254            3653     99.1998E-03     100.228E-03
            3254            3669     113.100E-03     115.081E-03
            3254            3670     101.522E-03     103.317E-03
            3255            3653     99.1998E-03     100.228E-03
            3255            3654     88.5086E-03     89.5352E-03
            3255            3670     101.522E-03     103.317E-03
            3255            3671     89.9321E-03     91.5708E-03
            3256            3654     88.5086E-03     89.5352E-03
            3256            3655     77.8180E-03     78.8606E-03
            3256            3671     89.9321E-03     91.5708E-03
            3256            3672     78.3704E-03     79.9177E-03
            3257            3655     77.8180E-03     78.8606E-03
            3257            3656     67.2350E-03     68.2955E-03
            3257            3672     78.3704E-03     79.9177E-03
            3257            3673     66.9662E-03     68.4381E-03
            3258            3656     67.2350E-03     68.2955E-03
            3258            3657     56.8961E-03     57.9527E-03
            3258            3673     66.9662E-03     68.4381E-03
            3258            3674     55.7942E-03     57.2210E-03
            3259            3657     56.8961E-03     57.9527E-03
            3259            3658     46.9689E-03     48.0151E-03
            3259            3674     55.7942E-03     57.2210E-03
            3259            3675     45.0649E-03     46.4481E-03
            3260            3658     46.9689E-03     48.0151E-03
            3260            3659     37.8503E-03     38.8592E-03
            3260            3675     45.0649E-03     46.4481E-03
            3260            3676     35.1255E-03     36.4768E-03
            3261            3659     37.8503E-03     38.8592E-03
            3261            3660     30.1521E-03     31.1477E-03
            3261            3676     35.1255E-03     36.4768E-03
            3261            3677     26.9741E-03     28.1783E-03
            3262            3660     30.1521E-03     31.1477E-03
            3262            3661     25.2783E-03     26.2357E-03
            3262            3677     26.9741E-03     28.1783E-03
            3262            3678     22.3209E-03     23.1257E-03
            3263            3661     25.2783E-03     26.2357E-03
            3263            3662     24.5375E-03     25.5028E-03
            3263            3678     22.3209E-03     23.1257E-03
            3263            3679     23.2535E-03     22.9952E-03
            3264            3662     24.5375E-03     25.5028E-03
            3264            3663     29.0156E-03     29.1599E-03
            3264            3679     23.2535E-03     22.9952E-03
            3264            3680     28.9909E-03     26.9464E-03
            3265            3663     29.0156E-03     29.1599E-03
            3265            3664     36.7607E-03     34.3041E-03
            3265            3680     28.9909E-03     26.9464E-03
            3265            3681     35.5864E-03     32.5940E-03
            3266             369     38.5835E-03     35.6328E-03
            3266             370     40.7536E-03     36.5774E-03
            3266            3664     36.7607E-03     34.3041E-03
            3266            3681     35.5864E-03     32.5940E-03
            3267             445     164.534E-03     165.216E-03
            3267             446     159.115E-03     161.210E-03
            3267            3665     155.014E-03     157.163E-03
            3267            3682     159.823E-03     161.469E-03
            3268            3665     155.014E-03     157.163E-03
            3268            3666     146.120E-03     148.360E-03
            3268            3682     159.823E-03     161.469E-03
            3268            3683     149.939E-03     152.751E-03
            3269            3666     146.120E-03     148.360E-03
            3269            3667     135.660E-03     138.019E-03
            3269            3683     149.939E-03     152.751E-03
            3269            3684     139.242E-03     142.113E-03
            3270            3667     135.660E-03     138.019E-03
            3270            3668     124.459E-03     126.701E-03
            3270            3684     139.242E-03     142.113E-03
            3270            3685     127.510E-03     130.321E-03
            3271            3668     124.459E-03     126.701E-03
            3271            3669     113.100E-03     115.081E-03
            3271            3685     127.510E-03     130.321E-03
            3271            3686     115.300E-03     117.959E-03
            3272            3669     113.100E-03     115.081E-03
            3272            3670     101.522E-03     103.317E-03
            3272            3686     115.300E-03     117.959E-03
            3272            3687     103.061E-03     105.434E-03
            3273            3670     101.522E-03     103.317E-03
            3273            3671     89.9321E-03     91.5708E-03
            3273            3687     103.061E-03     105.434E-03
            3273            3688     90.7693E-03     92.9634E-03
            3274            3671     89.9321E-03     91.5708E-03
            3274            3672     78.3704E-03     79.9177E-03
            3274            3688     90.7693E-03     92.9634E-03
            3274            3689     78.6432E-03     80.6551E-03
            3275            3672     78.3704E-03     79.9177E-03
            3275            3673     66.9662E-03     68.4381E-03
            3275            3689     78.6432E-03     80.6551E-03
            3275            3690     66.6518E-03     68.5474E-03
            3276            3673     66.9662E-03     68.4381E-03
            3276            3674     55.7942E-03     57.2210E-03
            3276            3690     66.6518E-03     68.5474E-03
            3276            3691     54.9167E-03     56.7226E-03
            3277            3674     55.7942E-03     57.2210E-03
            3277            3675     45.0649E-03     46.4481E-03
            3277            3691     54.9167E-03     56.7226E-03
            3277            3692     43.5836E-03     45.3252E-03
            3278            3675     45.0649E-03     46.4481E-03
            3278            3676     35.1255E-03     36.4768E-03
            3278            3692     43.5836E-03     45.3252E-03
            3278            3693     33.0605E-03     34.7042E-03
            3279            3676     35.1255E-03     36.4768E-03
            3279            3677     26.9741E-03     28.1783E-03
            3279            3693     33.0605E-03     34.7042E-03
            3279            3694     24.3808E-03     25.7271E-03
            3280            3677     26.9741E-03     28.1783E-03
            3280            3678     22.3209E-03     23.1257E-03
            3280            3694     24.3808E-03     25.7271E-03
            3280            3695     20.0497E-03     20.3755E-03
            3281            3678     22.3209E-03     23.1257E-03
            3281            3679     23.2535E-03     22.9952E-03
            3281            3695     20.0497E-03     20.3755E-03
            3281            3696     21.7854E-03     20.4055E-03
            3282            3679     23.2535E-03     22.9952E-03
            3282            3680     28.9909E-03     26.9464E-03
            3282            3696     21.7854E-03     20.4055E-03
            3282            3697     27.6786E-03     25.0176E-03
            3283            3680     28.9909E-03     26.9464E-03
            3283            3681     35.5864E-03     32.5940E-03
            3283            3697     27.6786E-03     25.0176E-03
            3283            3698     35.1919E-03     31.6349E-03
            3284             368     39.2041E-03     35.1103E-03
            3284             369     38.5835E-03     35.6328E-03
            3284            3681     35.5864E-03     32.5940E-03
            3284            3698     35.1919E-03     31.6349E-03
            3285             444     168.150E-03     170.303E-03
            3285             445     164.534E-03     165.216E-03
            3285            3682     159.823E-03     161.469E-03
            3285            3699     163.410E-03     165.575E-03
            3286            3682     159.823E-03     161.469E-03
            3286            3683     149.939E-03     152.751E-03
            3286            3699     163.410E-03     165.575E-03
            3286            3700     153.188E-03     155.733E-03
            3287            3683     149.939E-03     152.751E-03
            3287            3684     139.242E-03     142.113E-03
            3287            3700     153.188E-03     155.733E-03
            3287            3701     141.476E-03     144.635E-03
            3288            3684     139.242E-03     142.113E-03
            3288            3685     127.510E-03     130.321E-03
            3288            3701     141.476E-03     144.635E-03
            3288            3702     129.076E-03     132.242E-03
            3289            3685     127.510E-03     130.321E-03
            3289            3686     115.300E-03     117.959E-03
            3289            3702     129.076E-03     132.242E-03
            3289            3703     116.315E-03     119.279E-03
            3290            3686     115.300E-03     117.959E-03
            3290            3687     103.061E-03     105.434E-03
            3290            3703     116.315E-03     119.279E-03
            3290            3704     103.451E-03     106.278E-03
            3291            3687     103.061E-03     105.434E-03
            3291            3688     90.7693E-03     92.9634E-03
            3291            3704     103.451E-03     106.278E-03
            3291            3705     90.8479E-03     93.4275E-03
            3292            3688     90.7693E-03     92.9634E-03
            3292            3689     78.6432E-03     80.6551E-03
            3292            3705     90.8479E-03     93.4275E-03
            3292            3706     78.3519E-03     80.7621E-03
            3293            3689     78.6432E-03     80.6551E-03
            3293            3690     66.6518E-03     68.5474E-03
            3293            3706     78.3519E-03     80.7621E-03
            3293            3707     66.0698E-03     68.3316E-03
            3294            3690     66.6518E-03     68.5474E-03
            3294            3691     54.9167E-03     56.7226E-03
            3294            3707     66.0698E-03     68.3316E-03
            3294            3708     54.0057E-03     56.1607E-03
            3295            3691     54.9167E-03     56.7226E-03
            3295            3692     43.5836E-03     45.3252E-03
            3295            3708     54.0057E-03     56.1607E-03
            3295            3709     42.2836E-03     44.3526E-03
            3296            3692     43.5836E-03     45.3252E-03
            3296            3693     33.0605E-03     34.7042E-03
            3296            3709     42.2836E-03     44.3526E-03
            3296            3710     31.3101E-03     33.2196E-03
            3297            3693     33.0605E-03     34.7042E-03
            3297            3694     24.3808E-03     25.7271E-03
            3297            3710     31.3101E-03     33.2196E-03
            3297            3711     22.2148E-03     23.5878E-03
            3298            3694     24.3808E-03     25.7271E-03
            3298            3695     20.0497E-03     20.3755E-03
            3298            3711     22.2148E-03     23.5878E-03
            3298            3712     17.7550E-03     17.6603E-03
            3299            3695     20.0497E-03     20.3755E-03
            3299            3696     21.7854E-03     20.4055E-03
            3299            3712     17.7550E-03     17.6603E-03
            3299            3713     20.0590E-03     18.0635E-03
            3300            3696     21.7854E-03     20.4055E-03
            3300            3697     27.6786E-03     25.0176E-03
            3300            3713     20.0590E-03     18.0635E-03
            3300            3714     27.0464E-03     23.7062E-03
            3301            3697     27.6786E-03     25.0176E-03
            3301            3698     35.1919E-03     31.6349E-03
            3301            3714     27.0464E-03     23.7062E-03
            3301            3715     35.2356E-03     31.4614E-03
            3302             367     39.3036E-03     35.5996E-03
            3302             368     39.2041E-03     35.1103E-03
            3302            3698     35.1919E-03     31.6349E-03
            3302            3715     35.2356E-03     31.4614E-03
            3303             443     172.763E-03     173.435E-03
            3303             444     168.150E-03     170.303E-03
            3303            3699     163.410E-03     165.575E-03
            3303            3716     167.145E-03     168.816E-03
            3304            3699     163.410E-03     165.575E-03
            3304            3700     153.188E-03     155.733E-03
            3304            3716     167.145E-03     168.816E-03
            3304            3717     155.299E-03     158.217E-03
            3305            3700     153.188E-03     155.733E-03
            3305            3701     141.476E-03     144.635E-03
            3305            3717     155.299E-03     158.217E-03
            3305            3718     142.626E-03     145.704E-03
            3306            3701     141.476E-03     144.635E-03
            3306            3702     129.076E-03     132.242E-03
            3306            3718     142.626E-03     145.704E-03
            3306            3719     129.198E-03     132.365E-03
            3307            3702     129.076E-03     132.242E-03
            3307            3703     116.315E-03     119.279E-03
            3307            3719     129.198E-03     132.365E-03
            3307            3720     115.734E-03     118.945E-03
            3308            3703     116.315E-03     119.279E-03
            3308            3704     103.451E-03     106.278E-03
            3308            3720     115.734E-03     118.945E-03
            3308            3721     102.755E-03     105.773E-03
            3309            3704     103.451E-03     106.278E-03
            3309            3705     90.8479E-03     93.4275E-03
            3309            3721     102.755E-03     105.773E-03
            3309            3722     89.9667E-03     92.8216E-03
            3310            3705     90.8479E-03     93.4275E-03
            3310            3706     78.3519E-03     80.7621E-03
            3310            3722     89.9667E-03     92.8216E-03
            3310            3723     77.4406E-03     80.1287E-03
            3311            3706     78.3519E-03     80.7621E-03
            3311            3707     66.0698E-03     68.3316E-03
            3311            3723     77.4406E-03     80.1287E-03
            3311            3724     65.0820E-03     67.6402E-03
            3312            3707     66.0698E-03     68.3316E-03
            3312            3708     54.0057E-03     56.1607E-03
            3312            3724     65.0820E-03     67.6402E-03
            3312            3725     52.9104E-03     55.3683E-03
            3313            3708     54.0057E-03     56.1607E-03
            3313            3709     42.2836E-03     44.3526E-03
            3313            3725     52.9104E-03     55.3683E-03
            3313            3726     41.0283E-03     43.3783E-03
            3314            3709     42.2836E-03     44.3526E-03
            3314            3710     31.3101E-03     33.2196E-03
            3314            3726     41.0283E-03     43.3783E-03
            3314            3727     29.6704E-03     31.8416E-03
            3315            3710     31.3101E-03     33.2196E-03
            3315            3711     22.2148E-03     23.5878E-03
            3315            3727     29.6704E-03     31.8416E-03
            3315            3728     20.0596E-03     21.5495E-03
            3316            3711     22.2148E-03     23.5878E-03
            3316            3712     17.7550E-03     17.6603E-03
            3316            3728     20.0596E-03     21.5495E-03
            3316            3729     15.5935E-03     15.1479E-03
            3317            3712     17.7550E-03     17.6603E-03
            3317            3713     20.0590E-03     18.0635E-03
            3317            3729     15.5935E-03     15.1479E-03
            3317            3730     18.7023E-03     16.0767E-03
            3318            3713     20.0590E-03     18.0635E-03
            3318            3714     27.0464E-03     23.7062E-03
            3318            3730     18.7023E-03     16.0767E-03
            3318            3731     26.8015E-03     23.2398E-03
            3319            3714     27.0464E-03     23.7062E-03
            3319            3715     35.2356E-03     31.4614E-03
            3319            3731     26.8015E-03     23.2398E-03
            3319            3732     36.2394E-03     32.2590E-03
            3320             366     41.0662E-03     36.7853E-03
            3320             367     39.3036E-03     35.5996E-03
            3320            3715     35.2356E-03     31.4614E-03
            3320            3732     36.2394E-03     32.2590E-03
            3321             442     175.680E-03     178.508E-03
            3321             443     172.763E-03     173.435E-03
            3321            3716     167.145E-03     168.816E-03
            3321            3733     169.778E-03     172.341E-03
            3322            3716     167.145E-03     168.816E-03
            3322            3717     155.299E-03     158.217E-03
            3322            3733     169.778E-03     172.341E-03
            3322            3734     156.864E-03     159.244E-03
            3323            3717     155.299E-03     158.217E-03
            3323            3718     142.626E-03     145.704E-03
            3323            3734     156.864E-03     159.244E-03
            3323            3735     142.012E-03     144.823E-03
            3324            3718     142.626E-03     145.704E-03
            3324            3719     129.198E-03     132.365E-03
            3324            3735     142.012E-03     144.823E-03
            3324            3736     127.300E-03     130.505E-03
            3325            3719     129.198E-03     132.365E-03
            3325            3720     115.734E-03     118.945E-03
            3325            3736     127.300E-03     130.505E-03
            3325            3737     113.825E-03     117.010E-03
            3326            3720     115.734E-03     118.945E-03
            3326            3721     102.755E-03     105.773E-03
            3326            3737     113.825E-03     117.010E-03
            3326            3738     100.849E-03     103.927E-03
            3327            3721     102.755E-03     105.773E-03
            3327            3722     89.9667E-03     92.8216E-03
            3327            3738     100.849E-03     103.927E-03
            3327            3739     88.2551E-03     91.2312E-03
            3328            3722     89.9667E-03     92.8216E-03
            3328            3723     77.4406E-03     80.1287E-03
            3328            3739     88.2551E-03     91.2312E-03
            3328            3740     75.8935E-03     78.7637E-03
            3329            3723     77.4406E-03     80.1287E-03
            3329            3724     65.0820E-03     67.6402E-03
            3329            3740     75.8935E-03     78.7637E-03
            3329            3741     63.6879E-03     66.4798E-03
            3330            3724     65.0820E-03     67.6402E-03
            3330            3725     52.9104E-03     55.3683E-03
            3330            3741     63.6879E-03     66.4798E-03
            3330            3742     51.6230E-03     54.3395E-03
            3331            3725     52.9104E-03     55.3683E-03
            3331            3726     41.0283E-03     43.3783E-03
            3331            3742     51.6230E-03     54.3395E-03
            3331            3743     39.7056E-03     42.3383E-03
            3332            3726     41.0283E-03     43.3783E-03
            3332            3727     29.6704E-03     31.8416E-03
            3332            3743     39.7056E-03     42.3383E-03
            3332            3744     28.1759E-03     30.6134E-03
            3333            3727     29.6704E-03     31.8416E-03
            3333            3728     20.0596E-03     21.5495E-03
            3333            3744     28.1759E-03     30.6134E-03
            3333            3745     17.7885E-03     19.5960E-03
            3334            3728     20.0596E-03     21.5495E-03
            3334            3729     15.5935E-03     15.1479E-03
            3334            3745     17.7885E-03     19.5960E-03
            3334            3746     12.8163E-03     12.3725E-03
            3335            3729     15.5935E-03     15.1479E-03
            3335            3730     18.7023E-03     16.0767E-03
            3335            3746     12.8163E-03     12.3725E-03
            3335            3747     17.4050E-03     14.4149E-03
            3336            3730     18.7023E-03     16.0767E-03
            3336            3731     26.8015E-03     23.2398E-03
            3336            3747     17.4050E-03     14.4149E-03
            3336            3748     27.5784E-03     23.6042E-03
            3337            3731     26.8015E-03     23.2398E-03
            3337            3732     36.2394E-03     32.2590E-03
            3337            3748     27.5784E-03     23.6042E-03
            3337            3749     37.8213E-03     33.9815E-03
            3338             365     42.6773E-03     39.1847E-03
            3338             366     41.0662E-03     36.7853E-03
            3338            3732     36.2394E-03     32.2590E-03
            3338            3749     37.8213E-03     33.9815E-03
            3339             441     180.161E-03     179.707E-03
            3339             442     175.680E-03     178.508E-03
            3339            3733     169.778E-03     172.341E-03
            3339            3750     172.814E-03     173.207E-03
            3340            3733     169.778E-03     172.341E-03
            3340            3734     156.864E-03     159.244E-03
            3340            3750     172.814E-03     173.207E-03
            3340            3751     155.745E-03     157.630E-03
            3341            3734     156.864E-03     159.244E-03
            3341            3735     142.012E-03     144.823E-03
            3341            3751     155.745E-03     157.630E-03
            3341            3752     138.274E-03     141.091E-03
            3342            3735     142.012E-03     144.823E-03
            3342            3736     127.300E-03     130.505E-03
            3342            3752     138.274E-03     141.091E-03
            3342            3753     123.826E-03     126.814E-03
            3343            3736     127.300E-03     130.505E-03
            3343            3737     113.825E-03     117.010E-03
            3343            3753     123.826E-03     126.814E-03
            3343            3754     110.636E-03     113.582E-03
            3344            3737     113.825E-03     117.010E-03
            3344            3738     100.849E-03     103.927E-03
            3344            3754     110.636E-03     113.582E-03
            3344            3755     98.0409E-03     101.034E-03
            3345            3738     100.849E-03     103.927E-03
            3345            3739     88.2551E-03     91.2312E-03
            3345            3755     98.0409E-03     101.034E-03
            3345            3756     85.8741E-03     88.8524E-03
            3346            3739     88.2551E-03     91.2312E-03
            3346            3740     75.8935E-03     78.7637E-03
            3346            3756     85.8741E-03     88.8524E-03
            3346            3757     73.8771E-03     76.8717E-03
            3347            3740     75.8935E-03     78.7637E-03
            3347            3741     63.6879E-03     66.4798E-03
            3347            3757     73.8771E-03     76.8717E-03
            3347            3758     62.0158E-03     65.0072E-03
            3348            3741     63.6879E-03     66.4798E-03
            3348            3742     51.6230E-03     54.3395E-03
            3348            3758     62.0158E-03     65.0072E-03
            3348            3759     50.2174E-03     53.1925E-03
            3349            3742     51.6230E-03     54.3395E-03
            3349            3743     39.7056E-03     42.3383E-03
            3349            3759     50.2174E-03     53.1925E-03
            3349            3760     38.4785E-03     41.4076E-03
            3350            3743     39.7056E-03     42.3383E-03
            3350            3744     28.1759E-03     30.6134E-03
            3350            3760     38.4785E-03     41.4076E-03
            3350            3761     26.8470E-03     29.6437E-03
            3351            3744     28.1759E-03     30.6134E-03
            3351            3745     17.7885E-03     19.5960E-03
            3351            3761     26.8470E-03     29.6437E-03
            3351            3762     15.8327E-03     18.1417E-03
            3352            3745     17.7885E-03     19.5960E-03
            3352            3746     12.8163E-03     12.3725E-03
            3352            3762     15.8327E-03     18.1417E-03
            3352            3763     9.59999E-03     9.55764E-03
            3353            3746     12.8163E-03     12.3725E-03
            3353            3747     17.4050E-03     14.4149E-03
            3353            3763     9.59999E-03     9.55764E-03
            3353            3764     14.3972E-03     11.7920E-03
            3354            3747     17.4050E-03     14.4149E-03
            3354            3748     27.5784E-03     23.6042E-03
            3354            3764     14.3972E-03     11.7920E-03
            3354            3765     27.7624E-03     24.1920E-03
            3355            3748     27.5784E-03     23.6042E-03
            3355            3749     37.8213E-03     33.9815E-03
            3355            3765     27.7624E-03     24.1920E-03
            3355            3766     41.2841E-03     36.8539E-03
            3356             364     47.2200E-03     42.2900E-03
            3356             365     42.6773E-03     39.1847E-03
            3356            3749     37.8213E-03     33.9815E-03
            3356            3766     41.2841E-03     36.8539E-03
            3357             440     182.945E-03     183.257E-03
            3357             441     180.161E-03     179.707E-03
            3357            3750     172.814E-03     173.207E-03
            3357            3767     170.866E-03     172.185E-03
            3358            3750     172.814E-03     173.207E-03
            3358            3751     155.745E-03     157.630E-03
            3358            3767     170.866E-03     172.185E-03
            3358            3768     149.136E-03     151.488E-03
            3359            3751     155.745E-03     157.630E-03
            3359            3752     138.274E-03     141.091E-03
            3359            3768     149.136E-03     151.488E-03
            3359            3769     132.721E-03     135.010E-03
            3360            3752     138.274E-03     141.091E-03
            3360            3753     123.826E-03     126.814E-03
            3360            3769     132.721E-03     135.010E-03
            3360            3770     119.278E-03     121.607E-03
            3361            3753     123.826E-03     126.814E-03
            3361            3754     110.636E-03     113.582E-03
            3361            3770     119.278E-03     121.607E-03
            3361            3771     106.657E-03     109.217E-03
            3362            3754     110.636E-03     113.582E-03
            3362            3755     98.0409E-03     101.034E-03
            3362            3771     106.657E-03     109.217E-03
            3362            3772     94.7846E-03     97.5472E-03
            3363            3755     98.0409E-03     101.034E-03
            3363            3756     85.8741E-03     88.8524E-03
            3363            3772     94.7846E-03     97.5472E-03
            3363            3773     83.1410E-03     86.1033E-03
            3364            3756     85.8741E-03     88.8524E-03
            3364            3757     73.8771E-03     76.8717E-03
            3364            3773     83.1410E-03     86.1033E-03
            3364            3774     71.7027E-03     74.8171E-03
            3365            3757     73.8771E-03     76.8717E-03
            3365            3758     62.0158E-03     65.0072E-03
            3365            3774     71.7027E-03     74.8171E-03
            3365            3775     60.3209E-03     63.5372E-03
            3366            3758     62.0158E-03     65.0072E-03
            3366            3759     50.2174E-03     53.1925E-03
            3366            3775     60.3209E-03     63.5372E-03
            3366            3776     48.9679E-03     52.2428E-03
            3367            3759     50.2174E-03     53.1925E-03
            3367            3760     38.4785E-03     41.4076E-03
            3367            3776     48.9679E-03     52.2428E-03
            3367            3777     37.6244E-03     40.8880E-03
            3368            3760     38.4785E-03     41.4076E-03
            3368            3761     26.8470E-03     29.6437E-03
            3368            3777     37.6244E-03     40.8880E-03
            3368            3778     26.2239E-03     29.4159E-03
            3369            3761     26.8470E-03     29.6437E-03
            3369            3762     15.8327E-03     18.1417E-03
            3369            3778     26.2239E-03     29.4159E-03
            3369            3779     14.9708E-03     17.8693E-03
            3370            3762     15.8327E-03     18.1417E-03
            3370            3763     9.59999E-03     9.55764E-03
            3370            3779     14.9708E-03     17.8693E-03
            3370            3780     7.28362E-03     7.89040E-03
            3371            3763     9.59999E-03     9.55764E-03
            3371            3764     14.3972E-03     11.7920E-03
            3371            3780     7.28362E-03     7.89040E-03
            3371            3781     10.8456E-03     9.06581E-03
            3372            3764     14.3972E-03     11.7920E-03
            3372            3765     27.7624E-03     24.1920E-03
            3372            3781     10.8456E-03     9.06581E-03
            3372            3782     24.4334E-03     22.6717E-03
            3373            3765     27.7624E-03     24.1920E-03
            3373            3766     41.2841E-03     36.8539E-03
            3373            3782     24.4334E-03     22.6717E-03
            3373            3783     42.1358E-03     40.6705E-03
            3374             363     51.9984E-03     50.4769E-03
            3374             364     47.2200E-03     42.2900E-03
            3374            3766     41.2841E-03     36.8539E-03
            3374            3783     42.1358E-03     40.6705E-03
            3375              21     182.486E-03     187.923E-03
            3375             440     182.945E-03     183.257E-03
            3375             531     172.427E-03     176.525E-03
            3375            3767     170.866E-03     172.185E-03
            3376             531     172.427E-03     176.525E-03
            3376             532     156.113E-03     158.337E-03
            3376            3767     170.866E-03     172.185E-03
            3376            3768     149.136E-03     151.488E-03
            3377             532     156.113E-03     158.337E-03
            3377             533     143.559E-03     145.498E-03
            3377            3768     149.136E-03     151.488E-03
            3377            3769     132.721E-03     135.010E-03
            3378             533     143.559E-03     145.498E-03
            3378             534     131.790E-03     133.861E-03
            3378            3769     132.721E-03     135.010E-03
            3378            3770     119.278E-03     121.607E-03
            3379             534     131.790E-03     133.861E-03
            3379             535     120.801E-03     122.974E-03
            3379            3770     119.278E-03     121.607E-03
            3379            3771     106.657E-03     109.217E-03
            3380             535     120.801E-03     122.974E-03
            3380             536     110.149E-03     112.517E-03
            3380            3771     106.657E-03     109.217E-03
            3380            3772     94.7846E-03     97.5472E-03
            3381             536     110.149E-03     112.517E-03
            3381             537     99.9048E-03     102.366E-03
            3381            3772     94.7846E-03     97.5472E-03
            3381            3773     83.1410E-03     86.1033E-03
            3382             537     99.9048E-03     102.366E-03
            3382             538     89.9538E-03     92.5080E-03
            3382            3773     83.1410E-03     86.1033E-03
            3382            3774     71.7027E-03     74.8171E-03
            3383             538     89.9538E-03     92.5080E-03
            3383             539     80.3880E-03     82.9554E-03
            3383            3774     71.7027E-03     74.8171E-03
            3383            3775     60.3209E-03     63.5372E-03
            3384             539     80.3880E-03     82.9554E-03
            3384             540     71.2300E-03     73.7768E-03
            3384            3775     60.3209E-03     63.5372E-03
            3384            3776     48.9679E-03     52.2428E-03
            3385             540     71.2300E-03     73.7768E-03
            3385             541     62.5850E-03     65.0455E-03
            3385            3776     48.9679E-03     52.2428E-03
            3385            3777     37.6244E-03     40.8880E-03
            3386             541     62.5850E-03     65.0455E-03
            3386             542     54.5543E-03     56.8599E-03
            3386            3777     37.6244E-03     40.8880E-03
            3386            3778     26.2239E-03     29.4159E-03
            3387             542     54.5543E-03     56.8599E-03
            3387             543     47.2588E-03     49.3202E-03
            3387            3778     26.2239E-03     29.4159E-03
            3387            3779     14.9708E-03     17.8693E-03
            3388             543     47.2588E-03     49.3202E-03
            3388             544     42.0398E-03     42.8858E-03
            3388            3779     14.9708E-03     17.8693E-03
            3388            3780     7.28362E-03     7.89040E-03
            3389             544     42.0398E-03     42.8858E-03
            3389             545     43.6584E-03     43.1390E-03
            3389            3780     7.28362E-03     7.89040E-03
            3389            3781     10.8456E-03     9.06581E-03
            3390             545     43.6584E-03     43.1390E-03
            3390             546     50.7622E-03     50.3264E-03
            3390            3781     10.8456E-03     9.06581E-03
            3390            3782     24.4334E-03     22.6717E-03
            3391             546     50.7622E-03     50.3264E-03
            3391             547     61.7347E-03     62.7723E-03
            3391            3782     24.4334E-03     22.6717E-03
            3391            3783     42.1358E-03     40.6705E-03
            3392              20     68.9641E-03     71.1252E-03
            3392             363     51.9984E-03     50.4769E-03
            3392             547     61.7347E-03     62.7723E-03
            3392            3783     42.1358E-03     40.6705E-03
            4347              25     160.116E-03     166.226E-03
            4347             636     139.237E-03     145.007E-03
            4347             675     162.653E-03     166.156E-03
            4347            4562     132.341E-03     136.830E-03
            4348             675     162.653E-03     166.156E-03
            4348             676     166.265E-03     166.910E-03
            4348            4562     132.341E-03     136.830E-03
            4348            4563     122.454E-03     125.056E-03
            4349             676     166.265E-03     166.910E-03
            4349             677     166.996E-03     167.462E-03
            4349            4563     122.454E-03     125.056E-03
            4349            4564     116.249E-03     118.518E-03
            4350             677     166.996E-03     167.462E-03
            4350             678     165.930E-03     166.235E-03
            4350            4564     116.249E-03     118.518E-03
            4350            4565     110.681E-03     113.090E-03
            4351             678     165.930E-03     166.235E-03
            4351             679     163.982E-03     164.008E-03
            4351            4565     110.681E-03     113.090E-03
            4351            4566     105.836E-03     108.344E-03
            4352             679     163.982E-03     164.008E-03
            4352             680     161.350E-03     161.058E-03
            4352            4566     105.836E-03     108.344E-03
            4352            4567     101.196E-03     103.929E-03
            4353             680     161.350E-03     161.058E-03
            4353             681     158.310E-03     157.699E-03
            4353            4567     101.196E-03     103.929E-03
            4353            4568     96.8137E-03     99.6710E-03
            4354             681     158.310E-03     157.699E-03
            4354             682     155.095E-03     154.225E-03
            4354            4568     96.8137E-03     99.6710E-03
            4354            4569     92.5063E-03     95.5081E-03
            4355             682     155.095E-03     154.225E-03
            4355             683     151.703E-03     150.571E-03
            4355            4569     92.5063E-03     95.5081E-03
            4355            4570     88.3068E-03     91.3788E-03
            4356             683     151.703E-03     150.571E-03
            4356             684     148.335E-03     147.043E-03
            4356            4570     88.3068E-03     91.3788E-03
            4356            4571     84.1536E-03     87.2855E-03
            4357             684     148.335E-03     147.043E-03
            4357             685     144.839E-03     143.395E-03
            4357            4571     84.1536E-03     87.2855E-03
            4357            4572     80.0817E-03     83.2206E-03
            4358             685     144.839E-03     143.395E-03
            4358             686     141.450E-03     139.986E-03
            4358            4572     80.0817E-03     83.2206E-03
            4358            4573     76.1051E-03     79.2263E-03
            4359             686     141.450E-03     139.986E-03
            4359             687     137.749E-03     136.223E-03
            4359            4573     76.1051E-03     79.2263E-03
            4359            4574     72.2891E-03     75.3433E-03
            4360             687     137.749E-03     136.223E-03
            4360             688     134.068E-03     132.601E-03
            4360            4574     72.2891E-03     75.3433E-03
            4360            4575     68.7527E-03     71.6907E-03
            4361             688     134.068E-03     132.601E-03
            4361             689     129.488E-03     128.026E-03
            4361            4575     68.7527E-03     71.6907E-03
            4361            4576     65.7058E-03     68.4620E-03
            4362             689     129.488E-03     128.026E-03
            4362             690     125.856E-03     124.361E-03
            4362            4576     65.7058E-03     68.4620E-03
            4362            4577     63.6100E-03     66.0629E-03
            4363             690     125.856E-03     124.361E-03
            4363             691     124.652E-03     122.100E-03
            4363            4577     63.6100E-03     66.0629E-03
            4363            4578     65.0933E-03     66.9443E-03
            4364              24     123.926E-03     120.214E-03
            4364             691     124.652E-03     122.100E-03
            4364             692     67.2781E-03     68.7226E-03
            4364            4578     65.0933E-03     66.9443E-03
            4365             636     139.237E-03     145.007E-03
            4365             637     146.175E-03     147.693E-03
            4365            4562     132.341E-03     136.830E-03
            4365            4579     136.791E-03     139.195E-03
            4366            4562     132.341E-03     136.830E-03
            4366            4563     122.454E-03     125.056E-03
            4366            4579     136.791E-03     139.195E-03
            4366            4580     121.490E-03     124.588E-03
            4367            4563     122.454E-03     125.056E-03
            4367            4564     116.249E-03     118.518E-03
            4367            4580     121.490E-03     124.588E-03
            4367            4581     112.180E-03     114.968E-03
            4368            4564     116.249E-03     118.518E-03
            4368            4565     110.681E-03     113.090E-03
            4368            4581     112.180E-03     114.968E-03
            4368            4582     105.676E-03     108.489E-03
            4369            4565     110.681E-03     113.090E-03
            4369            4566     105.836E-03     108.344E-03
            4369            4582     105.676E-03     108.489E-03
            4369            4583     100.190E-03     103.202E-03
            4370            4566     105.836E-03     108.344E-03
            4370            4567     101.196E-03     103.929E-03
            4370            4583     100.190E-03     103.202E-03
            4370            4584     95.5148E-03     98.7386E-03
            4371            4567     101.196E-03     103.929E-03
            4371            4568     96.8137E-03     99.6710E-03
            4371            4584     95.5148E-03     98.7386E-03
            4371            4585     91.1771E-03     94.6217E-03
            4372            4568     96.8137E-03     99.6710E-03
            4372            4569     92.5063E-03     95.5081E-03
            4372            4585     91.1771E-03     94.6217E-03
            4372            4586     87.1364E-03     90.7436E-03
            4373            4569     92.5063E-03     95.5081E-03
            4373            4570     88.3068E-03     91.3788E-03
            4373            4586     87.1364E-03     90.7436E-03
            4373            4587     83.2211E-03     86.9571E-03
            4374            4570     88.3068E-03     91.3788E-03
            4374            4571     84.1536E-03     87.2855E-03
            4374            4587     83.2211E-03     86.9571E-03
            4374            4588     79.4709E-03     83.2708E-03
            4375            4571     84.1536E-03     87.2855E-03
            4375            4572     80.0817E-03     83.2206E-03
            4375            4588     79.4709E-03     83.2708E-03
            4375            4589     75.8245E-03     79.6470E-03
            4376            4572     80.0817E-03     83.2206E-03
            4376            4573     76.1051E-03     79.2263E-03
            4376            4589     75.8245E-03     79.6470E-03
            4376            4590     72.4326E-03     76.2084E-03
            4377            4573     76.1051E-03     79.2263E-03
            4377            4574     72.2891E-03     75.3433E-03
            4377            4590     72.4326E-03     76.2084E-03
            4377            4591     69.2836E-03     72.9620E-03
            4378            4574     72.2891E-03     75.3433E-03
            4378            4575     68.7527E-03     71.6907E-03
            4378            4591     69.2836E-03     72.9620E-03
            4378            4592     66.8368E-03     70.3233E-03
            4379            4575     68.7527E-03     71.6907E-03
            4379            4576     65.7058E-03     68.4620E-03
            4379            4592     66.8368E-03     70.3233E-03
            4379            4593     65.0551E-03     68.2929E-03
            4380            4576     65.7058E-03     68.4620E-03
            4380            4577     63.6100E-03     66.0629E-03
            4380            4593     65.0551E-03     68.2929E-03
            4380            4594     65.9123E-03     68.7467E-03
            4381            4577     63.6100E-03     66.0629E-03
            4381            4578     65.0933E-03     66.9443E-03
            4381            4594     65.9123E-03     68.7467E-03
            4381            4595     69.3970E-03     72.1869E-03
            4382             692     67.2781E-03     68.7226E-03
            4382             693     71.1234E-03     74.1567E-03
            4382            4578     65.0933E-03     66.9443E-03
            4382            4595     69.3970E-03     72.1869E-03
            4383             637     146.175E-03     147.693E-03
            4383             638     143.130E-03     143.509E-03
            4383            4579     136.791E-03     139.195E-03
            4383            4596     137.975E-03     139.042E-03
            4384            4579     136.791E-03     139.195E-03
            4384            4580     121.490E-03     124.588E-03
            4384            4596     137.975E-03     139.042E-03
            4384            4597     126.341E-03     128.795E-03
            4385            4580     121.490E-03     124.588E-03
            4385            4581     112.180E-03     114.968E-03
            4385            4597     126.341E-03     128.795E-03
            4385            4598     115.813E-03     119.067E-03
            4386            4581     112.180E-03     114.968E-03
            4386            4582     105.676E-03     108.489E-03
            4386            4598     115.813E-03     119.067E-03
            4386            4599     108.687E-03     111.954E-03
            4387            4582     105.676E-03     108.489E-03
            4387            4583     100.190E-03     103.202E-03
            4387            4599     108.687E-03     111.954E-03
            4387            4600     102.897E-03     106.164E-03
            4388            4583     100.190E-03     103.202E-03
            4388            4584     95.5148E-03     98.7386E-03
            4388            4600     102.897E-03     106.164E-03
            4388            4601     97.8860E-03     101.199E-03
            4389            4584     95.5148E-03     98.7386E-03
            4389            4585     91.1771E-03     94.6217E-03
            4389            4601     97.8860E-03     101.199E-03
            4389            4602     93.3738E-03     96.7059E-03
            4390            4585     91.1771E-03     94.6217E-03
            4390            4586     87.1364E-03     90.7436E-03
            4390            4602     93.3738E-03     96.7059E-03
            4390            4603     89.1028E-03     92.4847E-03
            4391            4586     87.1364E-03     90.7436E-03
            4391            4587     83.2211E-03     86.9571E-03
            4391            4603     89.1028E-03     92.4847E-03
            4391            4604     85.0402E-03     88.4396E-03
            4392            4587     83.2211E-03     86.9571E-03
            4392            4588     79.4709E-03     83.2708E-03
            4392            4604     85.0402E-03     88.4396E-03
            4392            4605     81.0876E-03     84.5088E-03
            4393            4588     79.4709E-03     83.2708E-03
            4393            4589     75.8245E-03     79.6470E-03
            4393            4605     81.0876E-03     84.5088E-03
            4393            4606     77.3119E-03     80.7197E-03
            4394            4589     75.8245E-03     79.6470E-03
            4394            4590     72.4326E-03     76.2084E-03
            4394            4606     77.3119E-03     80.7197E-03
            4394            4607     73.7014E-03     77.0901E-03
            4395            4590     72.4326E-03     76.2084E-03
            4395            4591     69.2836E-03     72.9620E-03
            4395            4607     73.7014E-03     77.0901E-03
            4395            4608     70.4492E-03     73.7772E-03
            4396            4591     69.2836E-03     72.9620E-03
            4396            4592     66.8368E-03     70.3233E-03
            4396            4608     70.4492E-03     73.7772E-03
            4396            4609     67.6445E-03     70.9170E-03
            4397            4592     66.8368E-03     70.3233E-03
            4397            4593     65.0551E-03     68.2929E-03
            4397            4609     67.6445E-03     70.9170E-03
            4397            4610     65.6889E-03     68.8843E-03
            4398            4593     65.0551E-03     68.2929E-03
            4398            4594     65.9123E-03     68.7467E-03
            4398            4610     65.6889E-03     68.8843E-03
            4398            4611     65.3204E-03     68.6494E-03
            4399            4594     65.9123E-03     68.7467E-03
            4399            4595     69.3970E-03     72.1869E-03
            4399            4611     65.3204E-03     68.6494E-03
            4399            4612     62.6941E-03     66.6318E-03
            4400             693     71.1234E-03     74.1567E-03
            4400             694     59.8160E-03     64.1590E-03
            4400            4595     69.3970E-03     72.1869E-03
            4400            4612     62.6941E-03     66.6318E-03
            4401             638     143.130E-03     143.509E-03
            4401             639     138.770E-03     141.721E-03
            4401            4596     137.975E-03     139.042E-03
            4401            4613     135.057E-03     137.821E-03
            4402            4596     137.975E-03     139.042E-03
            4402            4597     126.341E-03     128.795E-03
            4402            4613     135.057E-03     137.821E-03
            4402            4614     127.201E-03     129.822E-03
            4403            4597     126.341E-03     128.795E-03
            4403            4598     115.813E-03     119.067E-03
            4403            4614     127.201E-03     129.822E-03
            4403            4615     118.712E-03     121.751E-03
            4404            4598     115.813E-03     119.067E-03
            4404            4599     108.687E-03     111.954E-03
            4404            4615     118.712E-03     121.751E-03
            4404            4616     111.237E-03     114.660E-03
            4405            4599     108.687E-03     111.954E-03
            4405            4600     102.897E-03     106.164E-03
            4405            4616     111.237E-03     114.660E-03
            4405            4617     105.358E-03     108.731E-03
            4406            4600     102.897E-03     106.164E-03
            4406            4601     97.8860E-03     101.199E-03
            4406            4617     105.358E-03     108.731E-03
            4406            4618     100.150E-03     103.462E-03
            4407            4601     97.8860E-03     101.199E-03
            4407            4602     93.3738E-03     96.7059E-03
            4407            4618     100.150E-03     103.462E-03
            4407            4619     95.4345E-03     98.6775E-03
            4408            4602     93.3738E-03     96.7059E-03
            4408            4603     89.1028E-03     92.4847E-03
            4408            4619     95.4345E-03     98.6775E-03
            4408            4620     91.0079E-03     94.1765E-03
            4409            4603     89.1028E-03     92.4847E-03
            4409            4604     85.0402E-03     88.4396E-03
            4409            4620     91.0079E-03     94.1765E-03
            4409            4621     86.7551E-03     89.8831E-03
            4410            4604     85.0402E-03     88.4396E-03
            4410            4605     81.0876E-03     84.5088E-03
            4410            4621     86.7551E-03     89.8831E-03
            4410            4622     82.6591E-03     85.7457E-03
            4411            4605     81.0876E-03     84.5088E-03
            4411            4606     77.3119E-03     80.7197E-03
            4411            4622     82.6591E-03     85.7457E-03
            4411            4623     78.6913E-03     81.7652E-03
            4412            4606     77.3119E-03     80.7197E-03
            4412            4607     73.7014E-03     77.0901E-03
            4412            4623     78.6913E-03     81.7652E-03
            4412            4624     74.9046E-03     77.9650E-03
            4413            4607     73.7014E-03     77.0901E-03
            4413            4608     70.4492E-03     73.7772E-03
            4413            4624     74.9046E-03     77.9650E-03
            4413            4625     71.3695E-03     74.4553E-03
            4414            4608     70.4492E-03     73.7772E-03
            4414            4609     67.6445E-03     70.9170E-03
            4414            4625     71.3695E-03     74.4553E-03
            4414            4626     68.1184E-03     71.2403E-03
            4415            4609     67.6445E-03     70.9170E-03
            4415            4610     65.6889E-03     68.8843E-03
            4415            4626     68.1184E-03     71.2403E-03
            4415            4627     65.5103E-03     68.7687E-03
            4416            4610     65.6889E-03     68.8843E-03
            4416            4611     65.3204E-03     68.6494E-03
            4416            4627     65.5103E-03     68.7687E-03
            4416            4628     62.3716E-03     65.9366E-03
            4417            4611     65.3204E-03     68.6494E-03
            4417            4612     62.6941E-03     66.6318E-03
            4417            4628     62.3716E-03     65.9366E-03
            4417            4629     57.6204E-03     61.2161E-03
            4418             694     59.8160E-03     64.1590E-03
            4418             695     54.9477E-03     58.3991E-03
            4418            4612     62.6941E-03     66.6318E-03
            4418            4629     57.6204E-03     61.2161E-03
            4419             639     138.770E-03     141.721E-03
            4419             640     135.558E-03     136.834E-03
            4419            4613     135.057E-03     137.821E-03
            4419            4630     132.393E-03     134.374E-03
            4420            4613     135.057E-03     137.821E-03
            4420            4614     127.201E-03     129.822E-03
            4420            4630     132.393E-03     134.374E-03
            4420            4631     125.870E-03     128.792E-03
            4421            4614     127.201E-03     129.822E-03
            4421            4615     118.712E-03     121.751E-03
            4421            4631     125.870E-03     128.792E-03
            4421            4632     119.337E-03     122.480E-03
            4422            4615     118.712E-03     121.751E-03
            4422            4616     111.237E-03     114.660E-03
            4422            4632     119.337E-03     122.480E-03
            4422            4633     112.956E-03     116.229E-03
            4423            4616     111.237E-03     114.660E-03
            4423            4617     105.358E-03     108.731E-03
            4423            4633     112.956E-03     116.229E-03
            4423            4634     107.111E-03     110.462E-03
            4424            4617     105.358E-03     108.731E-03
            4424            4618     100.150E-03     103.462E-03
            4424            4634     107.111E-03     110.462E-03
            4424            4635     101.970E-03     105.177E-03
            4425            4618     100.150E-03     103.462E-03
            4425            4619     95.4345E-03     98.6775E-03
            4425            4635     101.970E-03     105.177E-03
            4425            4636     97.1491E-03     100.220E-03
            4426            4619     95.4345E-03     98.6775E-03
            4426            4620     91.0079E-03     94.1765E-03
            4426            4636     97.1491E-03     100.220E-03
            4426            4637     92.6013E-03     95.5421E-03
            4427            4620     91.0079E-03     94.1765E-03
            4427            4621     86.7551E-03     89.8831E-03
            4427            4637     92.6013E-03     95.5421E-03
            4427            4638     88.2181E-03     91.0539E-03
            4428            4621     86.7551E-03     89.8831E-03
            4428            4622     82.6591E-03     85.7457E-03
            4428            4638     88.2181E-03     91.0539E-03
            4428            4639     83.9687E-03     86.7426E-03
            4429            4622     82.6591E-03     85.7457E-03
            4429            4623     78.6913E-03     81.7652E-03
            4429            4639     83.9687E-03     86.7426E-03
            4429            4640     79.8324E-03     82.5781E-03
            4430            4623     78.6913E-03     81.7652E-03
            4430            4624     74.9046E-03     77.9650E-03
            4430            4640     79.8324E-03     82.5781E-03
            4430            4641     75.8348E-03     78.6080E-03
            4431            4624     74.9046E-03     77.9650E-03
            4431            4625     71.3695E-03     74.4553E-03
            4431            4641     75.8348E-03     78.6080E-03
            4431            4642     71.9252E-03     74.7670E-03
            4432            4625     71.3695E-03     74.4553E-03
            4432            4626     68.1184E-03     71.2403E-03
            4432            4642     71.9252E-03     74.7670E-03
            4432            4643     68.2202E-03     71.2156E-03
            4433            4626     68.1184E-03     71.2403E-03
            4433            4627     65.5103E-03     68.7687E-03
            4433            4643     68.2202E-03     71.2156E-03
            4433            4644     64.3086E-03     67.5252E-03
            4434            4627     65.5103E-03     68.7687E-03
            4434            4628     62.3716E-03     65.9366E-03
            4434            4644     64.3086E-03     67.5252E-03
            4434            4645     59.7942E-03     63.1707E-03
            4435            4628     62.3716E-03     65.9366E-03
            4435            4629     57.6204E-03     61.2161E-03
            4435            4645     59.7942E-03     63.1707E-03
            4435            4646     54.5243E-03     58.0534E-03
            4436             695     54.9477E-03     58.3991E-03
            4436             696     51.6089E-03     55.2403E-03
            4436            4629     57.6204E-03     61.2161E-03
            4436            4646     54.5243E-03     58.0534E-03
            4437             640     135.558E-03     136.834E-03
            4437             641     131.411E-03     133.252E-03
            4437            4630     132.393E-03     134.374E-03
            4437            4647     129.009E-03     131.055E-03
            4438            4630     132.393E-03     134.374E-03
            4438            4631     125.870E-03     128.792E-03
            4438            4647     129.009E-03     131.055E-03
            4438            4648     123.982E-03     126.569E-03
            4439            4631     125.870E-03     128.792E-03
            4439            4632     119.337E-03     122.480E-03
            4439            4648     123.982E-03     126.569E-03
            4439            4649     118.607E-03     121.711E-03
            4440            4632     119.337E-03     122.480E-03
            4440            4633     112.956E-03     116.229E-03
            4440            4649     118.607E-03     121.711E-03
            4440            4650     113.269E-03     116.483E-03
            4441            4633     112.956E-03     116.229E-03
            4441            4634     107.111E-03     110.462E-03
            4441            4650     113.269E-03     116.483E-03
            4441            4651     108.055E-03     111.185E-03
            4442            4634     107.111E-03     110.462E-03
            4442            4635     101.970E-03     105.177E-03
            4442            4651     108.055E-03     111.185E-03
            4442            4652     103.039E-03     106.037E-03
            4443            4635     101.970E-03     105.177E-03
            4443            4636     97.1491E-03     100.220E-03
            4443            4652     103.039E-03     106.037E-03
            4443            4653     98.2928E-03     101.089E-03
            4444            4636     97.1491E-03     100.220E-03
            4444            4637     92.6013E-03     95.5421E-03
            4444            4653     98.2928E-03     101.089E-03
            4444            4654     93.6845E-03     96.3172E-03
            4445            4637     92.6013E-03     95.5421E-03
            4445            4638     88.2181E-03     91.0539E-03
            4445            4654     93.6845E-03     96.3172E-03
            4445            4655     89.2239E-03     91.7240E-03
            4446            4638     88.2181E-03     91.0539E-03
            4446            4639     83.9687E-03     86.7426E-03
            4446            4655     89.2239E-03     91.7240E-03
            4446            4656     84.8522E-03     87.2733E-03
            4447            4639     83.9687E-03     86.7426E-03
            4447            4640     79.8324E-03     82.5781E-03
            4447            4656     84.8522E-03     87.2733E-03
            4447            4657     80.5789E-03     82.9751E-03
            4448            4640     79.8324E-03     82.5781E-03
            4448            4641     75.8348E-03     78.6080E-03
            4448            4657     80.5789E-03     82.9751E-03
            4448            4658     76.3396E-03     78.7839E-03
            4449            4641     75.8348E-03     78.6080E-03
            4449            4642     71.9252E-03     74.7670E-03
            4449            4658     76.3396E-03     78.7839E-03
            4449            4659     72.1473E-03     74.7255E-03
            4450            4642     71.9252E-03     74.7670E-03
            4450            4643     68.2202E-03     71.2156E-03
            4450            4659     72.1473E-03     74.7255E-03
            4450            4660     67.7972E-03     70.5804E-03
            4451            4643     68.2202E-03     71.2156E-03
            4451            4644     64.3086E-03     67.5252E-03
            4451            4660     67.7972E-03     70.5804E-03
            4451            4661     63.0928E-03     66.1407E-03
            4452            4644     64.3086E-03     67.5252E-03
            4452            4645     59.7942E-03     63.1707E-03
            4452            4661     63.0928E-03     66.1407E-03
            4452            4662     57.8991E-03     61.1620E-03
            4453            4645     59.7942E-03     63.1707E-03
            4453            4646     54.5243E-03     58.0534E-03
            4453            4662     57.8991E-03     61.1620E-03
            4453            4663     52.1190E-03     55.5256E-03
            4454             696     51.6089E-03     55.2403E-03
            4454             697     49.1139E-03     52.5955E-03
            4454            4646     54.5243E-03     58.0534E-03
            4454            4663     52.1190E-03     55.5256E-03
            4455             641     131.411E-03     133.252E-03
            4455             642     127.751E-03     128.954E-03
            4455            4647     129.009E-03     131.055E-03
            4455            4664     125.579E-03     127.333E-03
            4456            4647     129.009E-03     131.055E-03
            4456            4648     123.982E-03     126.569E-03
            4456            4664     125.579E-03     127.333E-03
            4456            4665     121.344E-03     123.882E-03
            4457            4648     123.982E-03     126.569E-03
            4457            4649     118.607E-03     121.711E-03
            4457            4665     121.344E-03     123.882E-03
            4457            4666     117.079E-03     119.970E-03
            4458            4649     118.607E-03     121.711E-03
            4458            4650     113.269E-03     116.483E-03
            4458            4666     117.079E-03     119.970E-03
            4458            4667     112.563E-03     115.558E-03
            4459            4650     113.269E-03     116.483E-03
            4459            4651     108.055E-03     111.185E-03
            4459            4667     112.563E-03     115.558E-03
            4459            4668     107.960E-03     110.791E-03
            4460            4651     108.055E-03     111.185E-03
            4460            4652     103.039E-03     106.037E-03
            4460            4668     107.960E-03     110.791E-03
            4460            4669     103.299E-03     105.910E-03
            4461            4652     103.039E-03     106.037E-03
            4461            4653     98.2928E-03     101.089E-03
            4461            4669     103.299E-03     105.910E-03
            4461            4670     98.6575E-03     101.067E-03
            4462            4653     98.2928E-03     101.089E-03
            4462            4654     93.6845E-03     96.3172E-03
            4462            4670     98.6575E-03     101.067E-03
            4462            4671     94.1051E-03     96.3239E-03
            4463            4654     93.6845E-03     96.3172E-03
            4463            4655     89.2239E-03     91.7240E-03
            4463            4671     94.1051E-03     96.3239E-03
            4463            4672     89.6012E-03     91.6933E-03
            4464            4655     89.2239E-03     91.7240E-03
            4464            4656     84.8522E-03     87.2733E-03
            4464            4672     89.6012E-03     91.6933E-03
            4464            4673     85.1784E-03     87.1833E-03
            4465            4656     84.8522E-03     87.2733E-03
            4465            4657     80.5789E-03     82.9751E-03
            4465            4673     85.1784E-03     87.1833E-03
            4465            4674     80.7806E-03     82.7716E-03
            4466            4657     80.5789E-03     82.9751E-03
            4466            4658     76.3396E-03     78.7839E-03
            4466            4674     80.7806E-03     82.7716E-03
            4466            4675     76.4027E-03     78.4441E-03
            4467            4658     76.3396E-03     78.7839E-03
            4467            4659     72.1473E-03     74.7255E-03
            4467            4675     76.4027E-03     78.4441E-03
            4467            4676     71.9255E-03     74.1399E-03
            4468            4659     72.1473E-03     74.7255E-03
            4468            4660     67.7972E-03     70.5804E-03
            4468            4676     71.9255E-03     74.1399E-03
            4468            4677     67.2017E-03     69.7015E-03
            4469            4660     67.7972E-03     70.5804E-03
            4469            4661     63.0928E-03     66.1407E-03
            4469            4677     67.2017E-03     69.7015E-03
            4469            4678     62.0611E-03     64.8570E-03
            4470            4661     63.0928E-03     66.1407E-03
            4470            4662     57.8991E-03     61.1620E-03
            4470            4678     62.0611E-03     64.8570E-03
            4470            4679     56.3116E-03     59.4772E-03
            4471            4662     57.8991E-03     61.1620E-03
            4471            4663     52.1190E-03     55.5256E-03
            4471            4679     56.3116E-03     59.4772E-03
            4471            4680     50.3114E-03     53.5613E-03
            4472             697     49.1139E-03     52.5955E-03
            4472             698     47.3478E-03     50.4544E-03
            4472            4663     52.1190E-03     55.5256E-03
            4472            4680     50.3114E-03     53.5613E-03
            4473             642     127.751E-03     128.954E-03
            4473             643     123.527E-03     124.512E-03
            4473            4664     125.579E-03     127.333E-03
            4473            4681     121.794E-03     123.289E-03
            4474            4664     125.579E-03     127.333E-03
            4474            4665     121.344E-03     123.882E-03
            4474            4681     121.794E-03     123.289E-03
            4474            4682     118.290E-03     120.652E-03
            4475            4665     121.344E-03     123.882E-03
            4475            4666     117.079E-03     119.970E-03
            4475            4682     118.290E-03     120.652E-03
            4475            4683     114.777E-03     117.454E-03
            4476            4666     117.079E-03     119.970E-03
            4476            4667     112.563E-03     115.558E-03
            4476            4683     114.777E-03     117.454E-03
            4476            4684     111.069E-03     113.588E-03
            4477            4667     112.563E-03     115.558E-03
            4477            4668     107.960E-03     110.791E-03
            4477            4684     111.069E-03     113.588E-03
            4477            4685     106.952E-03     109.272E-03
            4478            4668     107.960E-03     110.791E-03
            4478            4669     103.299E-03     105.910E-03
            4478            4685     106.952E-03     109.272E-03
            4478            4686     102.632E-03     104.708E-03
            4479            4669     103.299E-03     105.910E-03
            4479            4670     98.6575E-03     101.067E-03
            4479            4686     102.632E-03     104.708E-03
            4479            4687     98.2010E-03     100.062E-03
            4480            4670     98.6575E-03     101.067E-03
            4480            4671     94.1051E-03     96.3239E-03
            4480            4687     98.2010E-03     100.062E-03
            4480            4688     93.7227E-03     95.4378E-03
            4481            4671     94.1051E-03     96.3239E-03
            4481            4672     89.6012E-03     91.6933E-03
            4481            4688     93.7227E-03     95.4378E-03
            4481            4689     89.2736E-03     90.8673E-03
            4482            4672     89.6012E-03     91.6933E-03
            4482            4673     85.1784E-03     87.1833E-03
            4482            4689     89.2736E-03     90.8673E-03
            4482            4690     84.8263E-03     86.3614E-03
            4483            4673     85.1784E-03     87.1833E-03
            4483            4674     80.7806E-03     82.7716E-03
            4483            4690     84.8263E-03     86.3614E-03
            4483            4691     80.4022E-03     81.9128E-03
            4484            4674     80.7806E-03     82.7716E-03
            4484            4675     76.4027E-03     78.4441E-03
            4484            4691     80.4022E-03     81.9128E-03
            4484            4692     75.9344E-03     77.5053E-03
            4485            4675     76.4027E-03     78.4441E-03
            4485            4676     71.9255E-03     74.1399E-03
            4485            4692     75.9344E-03     77.5053E-03
            4485            4693     71.3445E-03     73.0520E-03
            4486            4676     71.9255E-03     74.1399E-03
            4486            4677     67.2017E-03     69.7015E-03
            4486            4693     71.3445E-03     73.0520E-03
            4486            4694     66.5113E-03     68.5601E-03
            4487            4677     67.2017E-03     69.7015E-03
            4487            4678     62.0611E-03     64.8570E-03
            4487            4694     66.5113E-03     68.5601E-03
            4487            4695     61.1510E-03     63.7225E-03
            4488            4678     62.0611E-03     64.8570E-03
            4488            4679     56.3116E-03     59.4772E-03
            4488            4695     61.1510E-03     63.7225E-03
            4488            4696     55.2259E-03     58.0961E-03
            4489            4679     56.3116E-03     59.4772E-03
            4489            4680     50.3114E-03     53.5613E-03
            4489            4696     55.2259E-03     58.0961E-03
            4489            4697     48.8158E-03     52.1185E-03
            4490             698     47.3478E-03     50.4544E-03
            4490             699     45.4703E-03     49.1714E-03
            4490            4680     50.3114E-03     53.5613E-03
            4490            4697     48.8158E-03     52.1185E-03
            4491             643     123.527E-03     124.512E-03
            4491             644     119.248E-03     120.082E-03
            4491            4681     121.794E-03     123.289E-03
            4491            4698     117.556E-03     118.994E-03
            4492            4681     121.794E-03     123.289E-03
            4492            4682     118.290E-03     120.652E-03
            4492            4698     117.556E-03     118.994E-03
            4492            4699     114.679E-03     116.726E-03
            4493            4682     118.290E-03     120.652E-03
            4493            4683     114.777E-03     117.454E-03
            4493            4699     114.679E-03     116.726E-03
            4493            4700     112.010E-03     113.984E-03
            4494            4683     114.777E-03     117.454E-03
            4494            4684     111.069E-03     113.588E-03
            4494            4700     112.010E-03     113.984E-03
            4494            4701     108.778E-03     110.568E-03
            4495            4684     111.069E-03     113.588E-03
            4495            4685     106.952E-03     109.272E-03
            4495            4701     108.778E-03     110.568E-03
            4495            4702     105.113E-03     106.633E-03
            4496            4685     106.952E-03     109.272E-03
            4496            4686     102.632E-03     104.708E-03
            4496            4702     105.113E-03     106.633E-03
            4496            4703     101.088E-03     102.413E-03
            4497            4686     102.632E-03     104.708E-03
            4497            4687     98.2010E-03     100.062E-03
            4497            4703     101.088E-03     102.413E-03
            4497            4704     96.8620E-03     98.0626E-03
            4498            4687     98.2010E-03     100.062E-03
            4498            4688     93.7227E-03     95.4378E-03
            4498            4704     96.8620E-03     98.0626E-03
            4498            4705     92.5501E-03     93.6506E-03
            4499            4688     93.7227E-03     95.4378E-03
            4499            4689     89.2736E-03     90.8673E-03
            4499            4705     92.5501E-03     93.6506E-03
            4499            4706     88.1779E-03     89.2317E-03
            4500            4689     89.2736E-03     90.8673E-03
            4500            4690     84.8263E-03     86.3614E-03
            4500            4706     88.1779E-03     89.2317E-03
            4500            4707     83.8054E-03     84.8181E-03
            4501            4690     84.8263E-03     86.3614E-03
            4501            4691     80.4022E-03     81.9128E-03
            4501            4707     83.8054E-03     84.8181E-03
            4501            4708     79.4002E-03     80.4094E-03
            4502            4691     80.4022E-03     81.9128E-03
            4502            4692     75.9344E-03     77.5053E-03
            4502            4708     79.4002E-03     80.4094E-03
            4502            4709     74.9553E-03     75.9813E-03
            4503            4692     75.9344E-03     77.5053E-03
            4503            4693     71.3445E-03     73.0520E-03
            4503            4709     74.9553E-03     75.9813E-03
            4503            4710     70.4112E-03     71.5404E-03
            4504            4693     71.3445E-03     73.0520E-03
            4504            4694     66.5113E-03     68.5601E-03
            4504            4710     70.4112E-03     71.5404E-03
            4504            4711     65.6385E-03     66.9824E-03
            4505            4694     66.5113E-03     68.5601E-03
            4505            4695     61.1510E-03     63.7225E-03
            4505            4711     65.6385E-03     66.9824E-03
            4505            4712     60.5350E-03     62.5097E-03
            4506            4695     61.1510E-03     63.7225E-03
            4506            4696     55.2259E-03     58.0961E-03
            4506            4712     60.5350E-03     62.5097E-03
            4506            4713     54.5636E-03     57.4952E-03
            4507            4696     55.2259E-03     58.0961E-03
            4507            4697     48.8158E-03     52.1185E-03
            4507            4713     54.5636E-03     57.4952E-03
            4507            4714     48.0671E-03     51.0008E-03
            4508             699     45.4703E-03     49.1714E-03
            4508             700     44.9014E-03     47.3781E-03
            4508            4697     48.8158E-03     52.1185E-03
            4508            4714     48.0671E-03     51.0008E-03
            4509             644     119.248E-03     120.082E-03
            4509             645     114.129E-03     114.102E-03
            4509            4698     117.556E-03     118.994E-03
            4509            4715     112.900E-03     113.370E-03
            4510            4698     117.556E-03     118.994E-03
            4510            4699     114.679E-03     116.726E-03
            4510            4715     112.900E-03     113.370E-03
            4510            4716     110.809E-03     111.695E-03
            4511            4699     114.679E-03     116.726E-03
            4511            4700     112.010E-03     113.984E-03
            4511            4716     110.809E-03     111.695E-03
            4511            4717     108.658E-03     109.395E-03
            4512            4700     112.010E-03     113.984E-03
            4512            4701     108.778E-03     110.568E-03
            4512            4717     108.658E-03     109.395E-03
            4512            4718     105.833E-03     106.365E-03
            4513            4701     108.778E-03     110.568E-03
            4513            4702     105.113E-03     106.633E-03
            4513            4718     105.833E-03     106.365E-03
            4513            4719     102.460E-03     102.885E-03
            4514            4702     105.113E-03     106.633E-03
            4514            4703     101.088E-03     102.413E-03
            4514            4719     102.460E-03     102.885E-03
            4514            4720     98.7083E-03     99.1190E-03
            4515            4703     101.088E-03     102.413E-03
            4515            4704     96.8620E-03     98.0626E-03
            4515            4720     98.7083E-03     99.1190E-03
            4515            4721     94.7371E-03     95.1558E-03
            4516            4704     96.8620E-03     98.0626E-03
            4516            4705     92.5501E-03     93.6506E-03
            4516            4721     94.7371E-03     95.1558E-03
            4516            4722     90.6096E-03     91.0700E-03
            4517            4705     92.5501E-03     93.6506E-03
            4517            4706     88.1779E-03     89.2317E-03
            4517            4722     90.6096E-03     91.0700E-03
            4517            4723     86.4146E-03     86.8990E-03
            4518            4706     88.1779E-03     89.2317E-03
            4518            4707     83.8054E-03     84.8181E-03
            4518            4723     86.4146E-03     86.8990E-03
            4518            4724     82.1503E-03     82.6632E-03
            4519            4707     83.8054E-03     84.8181E-03
            4519            4708     79.4002E-03     80.4094E-03
            4519            4724     82.1503E-03     82.6632E-03
            4519            4725     77.8574E-03     78.3733E-03
            4520            4708     79.4002E-03     80.4094E-03
            4520            4709     74.9553E-03     75.9813E-03
            4520            4725     77.8574E-03     78.3733E-03
            4520            4726     73.5055E-03     74.0192E-03
            4521            4709     74.9553E-03     75.9813E-03
            4521            4710     70.4112E-03     71.5404E-03
            4521            4726     73.5055E-03     74.0192E-03
            4521            4727     69.1001E-03     69.6081E-03
            4522            4710     70.4112E-03     71.5404E-03
            4522            4711     65.6385E-03     66.9824E-03
            4522            4727     69.1001E-03     69.6081E-03
            4522            4728     64.5958E-03     65.1579E-03
            4523            4711     65.6385E-03     66.9824E-03
            4523            4712     60.5350E-03     62.5097E-03
            4523            4728     64.5958E-03     65.1579E-03
            4523            4729     59.9325E-03     60.7374E-03
            4524            4712     60.5350E-03     62.5097E-03
            4524            4713     54.5636E-03     57.4952E-03
            4524            4729     59.9325E-03     60.7374E-03
            4524            4730     54.8984E-03     56.8962E-03
            4525            4713     54.5636E-03     57.4952E-03
            4525            4714     48.0671E-03     51.0008E-03
            4525            4730     54.8984E-03     56.8962E-03
            4525            4731     48.1261E-03     51.9719E-03
            4526             700     44.9014E-03     47.3781E-03
            4526             701     44.0236E-03     48.7171E-03
            4526            4714     48.0671E-03     51.0008E-03
            4526            4731     48.1261E-03     51.9719E-03
            4527             645     114.129E-03     114.102E-03
            4527             646     108.074E-03     105.571E-03
            4527            4715     112.900E-03     113.370E-03
            4527            4732     107.839E-03     105.815E-03
            4528            4715     112.900E-03     113.370E-03
            4528            4716     110.809E-03     111.695E-03
            4528            4732     107.839E-03     105.815E-03
            4528            4733     106.788E-03     105.237E-03
            4529            4716     110.809E-03     111.695E-03
            4529            4717     108.658E-03     109.395E-03
            4529            4733     106.788E-03     105.237E-03
            4529            4734     104.834E-03     103.391E-03
            4530            4717     108.658E-03     109.395E-03
            4530            4718     105.833E-03     106.365E-03
            4530            4734     104.834E-03     103.391E-03
            4530            4735     102.207E-03     101.026E-03
            4531            4718     105.833E-03     106.365E-03
            4531            4719     102.460E-03     102.885E-03
            4531            4735     102.207E-03     101.026E-03
            4531            4736     99.0793E-03     98.1871E-03
            4532            4719     102.460E-03     102.885E-03
            4532            4720     98.7083E-03     99.1190E-03
            4532            4736     99.0793E-03     98.1871E-03
            4532            4737     95.6360E-03     95.0310E-03
            4533            4720     98.7083E-03     99.1190E-03
            4533            4721     94.7371E-03     95.1558E-03
            4533            4737     95.6360E-03     95.0310E-03
            4533            4738     91.9502E-03     91.5868E-03
            4534            4721     94.7371E-03     95.1558E-03
            4534            4722     90.6096E-03     91.0700E-03
            4534            4738     91.9502E-03     91.5868E-03
            4534            4739     88.1046E-03     87.9337E-03
            4535            4722     90.6096E-03     91.0700E-03
            4535            4723     86.4146E-03     86.8990E-03
            4535            4739     88.1046E-03     87.9337E-03
            4535            4740     84.1227E-03     84.1007E-03
            4536            4723     86.4146E-03     86.8990E-03
            4536            4724     82.1503E-03     82.6632E-03
            4536            4740     84.1227E-03     84.1007E-03
            4536            4741     80.0586E-03     80.1283E-03
            4537            4724     82.1503E-03     82.6632E-03
            4537            4725     77.8574E-03     78.3733E-03
            4537            4741     80.0586E-03     80.1283E-03
            4537            4742     75.9042E-03     76.0236E-03
            4538            4725     77.8574E-03     78.3733E-03
            4538            4726     73.5055E-03     74.0192E-03
            4538            4742     75.9042E-03     76.0236E-03
            4538            4743     71.7162E-03     71.8180E-03
            4539            4726     73.5055E-03     74.0192E-03
            4539            4727     69.1001E-03     69.6081E-03
            4539            4743     71.7162E-03     71.8180E-03
            4539            4744     67.4715E-03     67.4934E-03
            4540            4727     69.1001E-03     69.6081E-03
            4540            4728     64.5958E-03     65.1579E-03
            4540            4744     67.4715E-03     67.4934E-03
            4540            4745     63.3169E-03     63.1681E-03
            4541            4728     64.5958E-03     65.1579E-03
            4541            4729     59.9325E-03     60.7374E-03
            4541            4745     63.3169E-03     63.1681E-03
            4541            4746     59.1677E-03     58.7917E-03
            4542            4729     59.9325E-03     60.7374E-03
            4542            4730     54.8984E-03     56.8962E-03
            4542            4746     59.1677E-03     58.7917E-03
            4542            4747     55.6052E-03     55.1509E-03
            4543            4730     54.8984E-03     56.8962E-03
            4543            4731     48.1261E-03     51.9719E-03
            4543            4747     55.6052E-03     55.1509E-03
            4543            4748     51.2608E-03     52.3595E-03
            4544             701     44.0236E-03     48.7171E-03
            4544             702     48.3218E-03     50.9408E-03
            4544            4731     48.1261E-03     51.9719E-03
            4544            4748     51.2608E-03     52.3595E-03
            4545             646     108.074E-03     105.571E-03
            4545             647     107.350E-03     110.412E-03
            4545            4732     107.839E-03     105.815E-03
            4545            4749     102.173E-03     103.974E-03
            4546            4732     107.839E-03     105.815E-03
            4546            4733     106.788E-03     105.237E-03
            4546            4749     102.173E-03     103.974E-03
            4546            4750     94.9158E-03     94.9421E-03
            4547            4733     106.788E-03     105.237E-03
            4547            4734     104.834E-03     103.391E-03
            4547            4750     94.9158E-03     94.9421E-03
            4547            4751     90.3893E-03     90.2869E-03
            4548            4734     104.834E-03     103.391E-03
            4548            4735     102.207E-03     101.026E-03
            4548            4751     90.3893E-03     90.2869E-03
            4548            4752     86.2187E-03     86.4498E-03
            4549            4735     102.207E-03     101.026E-03
            4549            4736     99.0793E-03     98.1871E-03
            4549            4752     86.2187E-03     86.4498E-03
            4549            4753     82.5813E-03     83.0846E-03
            4550            4736     99.0793E-03     98.1871E-03
            4550            4737     95.6360E-03     95.0310E-03
            4550            4753     82.5813E-03     83.0846E-03
            4550            4754     79.0381E-03     79.9153E-03
            4551            4737     95.6360E-03     95.0310E-03
            4551            4738     91.9502E-03     91.5868E-03
            4551            4754     79.0381E-03     79.9153E-03
            4551            4755     75.6677E-03     76.7900E-03
            4552            4738     91.9502E-03     91.5868E-03
            4552            4739     88.1046E-03     87.9337E-03
            4552            4755     75.6677E-03     76.7900E-03
            4552            4756     72.3179E-03     73.6844E-03
            4553            4739     88.1046E-03     87.9337E-03
            4553            4740     84.1227E-03     84.1007E-03
            4553            4756     72.3179E-03     73.6844E-03
            4553            4757     69.0297E-03     70.5419E-03
            4554            4740     84.1227E-03     84.1007E-03
            4554            4741     80.0586E-03     80.1283E-03
            4554            4757     69.0297E-03     70.5419E-03
            4554            4758     65.7574E-03     67.3841E-03
            4555            4741     80.0586E-03     80.1283E-03
            4555            4742     75.9042E-03     76.0236E-03
            4555            4758     65.7574E-03     67.3841E-03
            4555            4759     62.5330E-03     64.1998E-03
            4556            4742     75.9042E-03     76.0236E-03
            4556            4743     71.7162E-03     71.8180E-03
            4556            4759     62.5330E-03     64.1998E-03
            4556            4760     59.3868E-03     61.0407E-03
            4557            4743     71.7162E-03     71.8180E-03
            4557            4744     67.4715E-03     67.4934E-03
            4557            4760     59.3868E-03     61.0407E-03
            4557            4761     56.3786E-03     57.9369E-03
            4558            4744     67.4715E-03     67.4934E-03
            4558            4745     63.3169E-03     63.1681E-03
            4558            4761     56.3786E-03     57.9369E-03
            4558            4762     53.6650E-03     55.0277E-03
            4559            4745     63.3169E-03     63.1681E-03
            4559            4746     59.1677E-03     58.7917E-03
            4559            4762     53.6650E-03     55.0277E-03
            4559            4763     51.4827E-03     52.4970E-03
            4560            4746     59.1677E-03     58.7917E-03
            4560            4747     55.6052E-03     55.1509E-03
            4560            4763     51.4827E-03     52.4970E-03
            4560            4764     50.3984E-03     50.8983E-03
            4561            4747     55.6052E-03     55.1509E-03
            4561            4748     51.2608E-03     52.3595E-03
            4561            4764     50.3984E-03     50.8983E-03
            4561            4765     53.0594E-03     52.7288E-03
            4562             702     48.3218E-03     50.9408E-03
            4562             703     55.8436E-03     54.9834E-03
            4562            4748     51.2608E-03     52.3595E-03
            4562            4765     53.0594E-03     52.7288E-03
            4563             647     107.350E-03     110.412E-03
            4563             648     110.962E-03     112.807E-03
            4563            4749     102.173E-03     103.974E-03
            4563            4766     101.867E-03     104.455E-03
            4564            4749     102.173E-03     103.974E-03
            4564            4750     94.9158E-03     94.9421E-03
            4564            4766     101.867E-03     104.455E-03
            4564            4767     87.4066E-03     90.5134E-03
            4565            4750     94.9158E-03     94.9421E-03
            4565            4751     90.3893E-03     90.2869E-03
            4565            4767     87.4066E-03     90.5134E-03
            4565            4768     78.9784E-03     81.7011E-03
            4566            4751     90.3893E-03     90.2869E-03
            4566            4752     86.2187E-03     86.4498E-03
            4566            4768     78.9784E-03     81.7011E-03
            4566            4769     73.2472E-03     75.8759E-03
            4567            4752     86.2187E-03     86.4498E-03
            4567            4753     82.5813E-03     83.0846E-03
            4567            4769     73.2472E-03     75.8759E-03
            4567            4770     68.6198E-03     71.3223E-03
            4568            4753     82.5813E-03     83.0846E-03
            4568            4754     79.0381E-03     79.9153E-03
            4568            4770     68.6198E-03     71.3223E-03
            4568            4771     64.8458E-03     67.6505E-03
            4569            4754     79.0381E-03     79.9153E-03
            4569            4755     75.6677E-03     76.7900E-03
            4569            4771     64.8458E-03     67.6505E-03
            4569            4772     61.4914E-03     64.4315E-03
            4570            4755     75.6677E-03     76.7900E-03
            4570            4756     72.3179E-03     73.6844E-03
            4570            4772     61.4914E-03     64.4315E-03
            4570            4773     58.4916E-03     61.5369E-03
            4571            4756     72.3179E-03     73.6844E-03
            4571            4757     69.0297E-03     70.5419E-03
            4571            4773     58.4916E-03     61.5369E-03
            4571            4774     55.6844E-03     58.8178E-03
            4572            4757     69.0297E-03     70.5419E-03
            4572            4758     65.7574E-03     67.3841E-03
            4572            4774     55.6844E-03     58.8178E-03
            4572            4775     53.0837E-03     56.2648E-03
            4573            4758     65.7574E-03     67.3841E-03
            4573            4759     62.5330E-03     64.1998E-03
            4573            4775     53.0837E-03     56.2648E-03
            4573            4776     50.6313E-03     53.8285E-03
            4574            4759     62.5330E-03     64.1998E-03
            4574            4760     59.3868E-03     61.0407E-03
            4574            4776     50.6313E-03     53.8285E-03
            4574            4777     48.4359E-03     51.6055E-03
            4575            4760     59.3868E-03     61.0407E-03
            4575            4761     56.3786E-03     57.9369E-03
            4575            4777     48.4359E-03     51.6055E-03
            4575            4778     46.4904E-03     49.5972E-03
            4576            4761     56.3786E-03     57.9369E-03
            4576            4762     53.6650E-03     55.0277E-03
            4576            4778     46.4904E-03     49.5972E-03
            4576            4779     45.1463E-03     48.1306E-03
            4577            4762     53.6650E-03     55.0277E-03
            4577            4763     51.4827E-03     52.4970E-03
            4577            4779     45.1463E-03     48.1306E-03
            4577            4780     44.3973E-03     47.2361E-03
            4578            4763     51.4827E-03     52.4970E-03
            4578            4764     50.3984E-03     50.8983E-03
            4578            4780     44.3973E-03     47.2361E-03
            4578            4781     45.8046E-03     48.3650E-03
            4579            4764     50.3984E-03     50.8983E-03
            4579            4765     53.0594E-03     52.7288E-03
            4579            4781     45.8046E-03     48.3650E-03
            4579            4782     49.8477E-03     52.2253E-03
            4580             703     55.8436E-03     54.9834E-03
            4580             704     52.1290E-03     54.5372E-03
            4580            4765     53.0594E-03     52.7288E-03
            4580            4782     49.8477E-03     52.2253E-03
            4581             648     110.962E-03     112.807E-03
            4581             649     107.436E-03     107.563E-03
            4581            4766     101.867E-03     104.455E-03
            4581            4783     102.217E-03     102.931E-03
            4582            4766     101.867E-03     104.455E-03
            4582            4767     87.4066E-03     90.5134E-03
            4582            4783     102.217E-03     102.931E-03
            4582            4784     90.9786E-03     92.9288E-03
            4583            4767     87.4066E-03     90.5134E-03
            4583            4768     78.9784E-03     81.7011E-03
            4583            4784     90.9786E-03     92.9288E-03
            4583            4785     81.3633E-03     84.0397E-03
            4584            4768     78.9784E-03     81.7011E-03
            4584            4769     73.2472E-03     75.8759E-03
            4584            4785     81.3633E-03     84.0397E-03
            4584            4786     75.1128E-03     77.8165E-03
            4585            4769     73.2472E-03     75.8759E-03
            4585            4770     68.6198E-03     71.3223E-03
            4585            4786     75.1128E-03     77.8165E-03
            4585            4787     70.2529E-03     72.9648E-03
            4586            4770     68.6198E-03     71.3223E-03
            4586            4771     64.8458E-03     67.6505E-03
            4586            4787     70.2529E-03     72.9648E-03
            4586            4788     66.2509E-03     69.0009E-03
            4587            4771     64.8458E-03     67.6505E-03
            4587            4772     61.4914E-03     64.4315E-03
            4587            4788     66.2509E-03     69.0009E-03
            4587            4789     62.8075E-03     65.5759E-03
            4588            4772     61.4914E-03     64.4315E-03
            4588            4773     58.4916E-03     61.5369E-03
            4588            4789     62.8075E-03     65.5759E-03
            4588            4790     59.6781E-03     62.4853E-03
            4589            4773     58.4916E-03     61.5369E-03
            4589            4774     55.6844E-03     58.8178E-03
            4589            4790     59.6781E-03     62.4853E-03
            4589            4791     56.8007E-03     59.6253E-03
            4590            4774     55.6844E-03     58.8178E-03
            4590            4775     53.0837E-03     56.2648E-03
            4590            4791     56.8007E-03     59.6253E-03
            4590            4792     54.0824E-03     56.9228E-03
            4591            4775     53.0837E-03     56.2648E-03
            4591            4776     50.6313E-03     53.8285E-03
            4591            4792     54.0824E-03     56.9228E-03
            4591            4793     51.5618E-03     54.3948E-03
            4592            4776     50.6313E-03     53.8285E-03
            4592            4777     48.4359E-03     51.6055E-03
            4592            4793     51.5618E-03     54.3948E-03
            4592            4794     49.2305E-03     52.0431E-03
            4593            4777     48.4359E-03     51.6055E-03
            4593            4778     46.4904E-03     49.5972E-03
            4593            4794     49.2305E-03     52.0431E-03
            4593            4795     47.2412E-03     50.0028E-03
            4594            4778     46.4904E-03     49.5972E-03
            4594            4779     45.1463E-03     48.1306E-03
            4594            4795     47.2412E-03     50.0028E-03
            4594            4796     45.6814E-03     48.3778E-03
            4595            4779     45.1463E-03     48.1306E-03
            4595            4780     44.3973E-03     47.2361E-03
            4595            4796     45.6814E-03     48.3778E-03
            4595            4797     44.8938E-03     47.4759E-03
            4596            4780     44.3973E-03     47.2361E-03
            4596            4781     45.8046E-03     48.3650E-03
            4596            4797     44.8938E-03     47.4759E-03
            4596            4798     45.6065E-03     48.0848E-03
            4597            4781     45.8046E-03     48.3650E-03
            4597            4782     49.8477E-03     52.2253E-03
            4597            4798     45.6065E-03     48.0848E-03
            4597            4799     45.0711E-03     47.6269E-03
            4598             704     52.1290E-03     54.5372E-03
            4598             705     43.7392E-03     46.3912E-03
            4598            4782     49.8477E-03     52.2253E-03
            4598            4799     45.0711E-03     47.6269E-03
            4599             649     107.436E-03     107.563E-03
            4599             650     102.689E-03     105.012E-03
            4599            4783     102.217E-03     102.931E-03
            4599            4800     98.8964E-03     100.925E-03
            4600            4783     102.217E-03     102.931E-03
            4600            4784     90.9786E-03     92.9288E-03
            4600            4800     98.8964E-03     100.925E-03
            4600            4801     91.1431E-03     92.9284E-03
            4601            4784     90.9786E-03     92.9288E-03
            4601            4785     81.3633E-03     84.0397E-03
            4601            4801     91.1431E-03     92.9284E-03
            4601            4802     83.2928E-03     85.4910E-03
            4602            4785     81.3633E-03     84.0397E-03
            4602            4786     75.1128E-03     77.8165E-03
            4602            4802     83.2928E-03     85.4910E-03
            4602            4803     76.7515E-03     79.3386E-03
            4603            4786     75.1128E-03     77.8165E-03
            4603            4787     70.2529E-03     72.9648E-03
            4603            4803     76.7515E-03     79.3386E-03
            4603            4804     71.8604E-03     74.4751E-03
            4604            4787     70.2529E-03     72.9648E-03
            4604            4788     66.2509E-03     69.0009E-03
            4604            4804     71.8604E-03     74.4751E-03
            4604            4805     67.7360E-03     70.3586E-03
            4605            4788     66.2509E-03     69.0009E-03
            4605            4789     62.8075E-03     65.5759E-03
            4605            4805     67.7360E-03     70.3586E-03
            4605            4806     64.1777E-03     66.7816E-03
            4606            4789     62.8075E-03     65.5759E-03
            4606            4790     59.6781E-03     62.4853E-03
            4606            4806     64.1777E-03     66.7816E-03
            4606            4807     60.9601E-03     63.5343E-03
            4607            4790     59.6781E-03     62.4853E-03
            4607            4791     56.8007E-03     59.6253E-03
            4607            4807     60.9601E-03     63.5343E-03
            4607            4808     57.9680E-03     60.5235E-03
            4608            4791     56.8007E-03     59.6253E-03
            4608            4792     54.0824E-03     56.9228E-03
            4608            4808     57.9680E-03     60.5235E-03
            4608            4809     55.1585E-03     57.6916E-03
            4609            4792     54.0824E-03     56.9228E-03
            4609            4793     51.5618E-03     54.3948E-03
            4609            4809     55.1585E-03     57.6916E-03
            4609            4810     52.5061E-03     55.0252E-03
            4610            4793     51.5618E-03     54.3948E-03
            4610            4794     49.2305E-03     52.0431E-03
            4610            4810     52.5061E-03     55.0252E-03
            4610            4811     50.0487E-03     52.5506E-03
            4611            4794     49.2305E-03     52.0431E-03
            4611            4795     47.2412E-03     50.0028E-03
            4611            4811     50.0487E-03     52.5506E-03
            4611            4812     47.8573E-03     50.3419E-03
            4612            4795     47.2412E-03     50.0028E-03
            4612            4796     45.6814E-03     48.3778E-03
            4612            4812     47.8573E-03     50.3419E-03
            4612            4813     45.9750E-03     48.4393E-03
            4613            4796     45.6814E-03     48.3778E-03
            4613            4797     44.8938E-03     47.4759E-03
            4613            4813     45.9750E-03     48.4393E-03
            4613            4814     44.7535E-03     47.1871E-03
            4614            4797     44.8938E-03     47.4759E-03
            4614            4798     45.6065E-03     48.0848E-03
            4614            4814     44.7535E-03     47.1871E-03
            4614            4815     43.3502E-03     45.8253E-03
            4615            4798     45.6065E-03     48.0848E-03
            4615            4799     45.0711E-03     47.6269E-03
            4615            4815     43.3502E-03     45.8253E-03
            4615            4816     40.9413E-03     43.3970E-03
            4616             705     43.7392E-03     46.3912E-03
            4616             706     39.5715E-03     41.9485E-03
            4616            4799     45.0711E-03     47.6269E-03
            4616            4816     40.9413E-03     43.3970E-03
            4617             650     102.689E-03     105.012E-03
            4617             651     99.1310E-03     99.9620E-03
            4617            4800     98.8964E-03     100.925E-03
            4617            4817     95.8424E-03     97.1816E-03
            4618            4800     98.8964E-03     100.925E-03
            4618            4801     91.1431E-03     92.9284E-03
            4618            4817     95.8424E-03     97.1816E-03
            4618            4818     89.3779E-03     91.3561E-03
            4619            4801     91.1431E-03     92.9284E-03
            4619            4802     83.2928E-03     85.4910E-03
            4619            4818     89.3779E-03     91.3561E-03
            4619            4819     83.3723E-03     85.4865E-03
            4620            4802     83.2928E-03     85.4910E-03
            4620            4803     76.7515E-03     79.3386E-03
            4620            4819     83.3723E-03     85.4865E-03
            4620            4820     77.8309E-03     80.1391E-03
            4621            4803     76.7515E-03     79.3386E-03
            4621            4804     71.8604E-03     74.4751E-03
            4621            4820     77.8309E-03     80.1391E-03
            4621            4821     73.0374E-03     75.5062E-03
            4622            4804     71.8604E-03     74.4751E-03
            4622            4805     67.7360E-03     70.3586E-03
            4622            4821     73.0374E-03     75.5062E-03
            4622            4822     69.0411E-03     71.4763E-03
            4623            4805     67.7360E-03     70.3586E-03
            4623            4806     64.1777E-03     66.7816E-03
            4623            4822     69.0411E-03     71.4763E-03
            4623            4823     65.4427E-03     67.8388E-03
            4624            4806     64.1777E-03     66.7816E-03
            4624            4807     60.9601E-03     63.5343E-03
            4624            4823     65.4427E-03     67.8388E-03
            4624            4824     62.1725E-03     64.5046E-03
            4625            4807     60.9601E-03     63.5343E-03
            4625            4808     57.9680E-03     60.5235E-03
            4625            4824     62.1725E-03     64.5046E-03
            4625            4825     59.0942E-03     61.3720E-03
            4626            4808     57.9680E-03     60.5235E-03
            4626            4809     55.1585E-03     57.6916E-03
            4626            4825     59.0942E-03     61.3720E-03
            4626            4826     56.1761E-03     58.4162E-03
            4627            4809     55.1585E-03     57.6916E-03
            4627            4810     52.5061E-03     55.0252E-03
            4627            4826     56.1761E-03     58.4162E-03
            4627            4827     53.3848E-03     55.6044E-03
            4628            4810     52.5061E-03     55.0252E-03
            4628            4811     50.0487E-03     52.5506E-03
            4628            4827     53.3848E-03     55.6044E-03
            4628            4828     50.7508E-03     52.9680E-03
            4629            4811     50.0487E-03     52.5506E-03
            4629            4812     47.8573E-03     50.3419E-03
            4629            4828     50.7508E-03     52.9680E-03
            4629            4829     48.2426E-03     50.4824E-03
            4630            4812     47.8573E-03     50.3419E-03
            4630            4813     45.9750E-03     48.4393E-03
            4630            4829     48.2426E-03     50.4824E-03
            4630            4830     45.9989E-03     48.2599E-03
            4631            4813     45.9750E-03     48.4393E-03
            4631            4814     44.7535E-03     47.1871E-03
            4631            4830     45.9989E-03     48.2599E-03
            4631            4831     43.7294E-03     46.0556E-03
            4632            4814     44.7535E-03     47.1871E-03
            4632            4815     43.3502E-03     45.8253E-03
            4632            4831     43.7294E-03     46.0556E-03
            4632            4832     41.2063E-03     43.5481E-03
            4633            4815     43.3502E-03     45.8253E-03
            4633            4816     40.9413E-03     43.3970E-03
            4633            4832     41.2063E-03     43.5481E-03
            4633            4833     38.3704E-03     40.6684E-03
            4634             706     39.5715E-03     41.9485E-03
            4634             707     36.7924E-03     39.0932E-03
            4634            4816     40.9413E-03     43.3970E-03
            4634            4833     38.3704E-03     40.6684E-03
            4635             651     99.1310E-03     99.9620E-03
            4635             652     94.7459E-03     96.1242E-03
            4635            4817     95.8424E-03     97.1816E-03
            4635            4834     92.2346E-03     93.6137E-03
            4636            4817     95.8424E-03     97.1816E-03
            4636            4818     89.3779E-03     91.3561E-03
            4636            4834     92.2346E-03     93.6137E-03
            4636            4835     87.2414E-03     88.8560E-03
            4637            4818     89.3779E-03     91.3561E-03
            4637            4819     83.3723E-03     85.4865E-03
            4637            4835     87.2414E-03     88.8560E-03
            4637            4836     82.3440E-03     84.3788E-03
            4638            4819     83.3723E-03     85.4865E-03
            4638            4820     77.8309E-03     80.1391E-03
            4638            4836     82.3440E-03     84.3788E-03
            4638            4837     77.8454E-03     80.0311E-03
            4639            4820     77.8309E-03     80.1391E-03
            4639            4821     73.0374E-03     75.5062E-03
            4639            4837     77.8454E-03     80.0311E-03
            4639            4838     73.7053E-03     75.9290E-03
            4640            4821     73.0374E-03     75.5062E-03
            4640            4822     69.0411E-03     71.4763E-03
            4640            4838     73.7053E-03     75.9290E-03
            4640            4839     69.8978E-03     72.1236E-03
            4641            4822     69.0411E-03     71.4763E-03
            4641            4823     65.4427E-03     67.8388E-03
            4641            4839     69.8978E-03     72.1236E-03
            4641            4840     66.4402E-03     68.5697E-03
            4642            4823     65.4427E-03     67.8388E-03
            4642            4824     62.1725E-03     64.5046E-03
            4642            4840     66.4402E-03     68.5697E-03
            4642            4841     63.1524E-03     65.2040E-03
            4643            4824     62.1725E-03     64.5046E-03
            4643            4825     59.0942E-03     61.3720E-03
            4643            4841     63.1524E-03     65.2040E-03
            4643            4842     60.0350E-03     62.0087E-03
            4644            4825     59.0942E-03     61.3720E-03
            4644            4826     56.1761E-03     58.4162E-03
            4644            4842     60.0350E-03     62.0087E-03
            4644            4843     57.0102E-03     58.9363E-03
            4645            4826     56.1761E-03     58.4162E-03
            4645            4827     53.3848E-03     55.6044E-03
            4645            4843     57.0102E-03     58.9363E-03
            4645            4844     54.0908E-03     55.9993E-03
            4646            4827     53.3848E-03     55.6044E-03
            4646            4828     50.7508E-03     52.9680E-03
            4646            4844     54.0908E-03     55.9993E-03
            4646            4845     51.2188E-03     53.1507E-03
            4647            4828     50.7508E-03     52.9680E-03
            4647            4829     48.2426E-03     50.4824E-03
            4647            4845     51.2188E-03     53.1507E-03
            4647            4846     48.4342E-03     50.4141E-03
            4648            4829     48.2426E-03     50.4824E-03
            4648            4830     45.9989E-03     48.2599E-03
            4648            4846     48.4342E-03     50.4141E-03
            4648            4847     45.5982E-03     47.6809E-03
            4649            4830     45.9989E-03     48.2599E-03
            4649            4831     43.7294E-03     46.0556E-03
            4649            4847     45.5982E-03     47.6809E-03
            4649            4848     42.6483E-03     44.8021E-03
            4650            4831     43.7294E-03     46.0556E-03
            4650            4832     41.2063E-03     43.5481E-03
            4650            4848     42.6483E-03     44.8021E-03
            4650            4849     39.5268E-03     41.7418E-03
            4651            4832     41.2063E-03     43.5481E-03
            4651            4833     38.3704E-03     40.6684E-03
            4651            4849     39.5268E-03     41.7418E-03
            4651            4850     36.2597E-03     38.4542E-03
            4652             707     36.7924E-03     39.0932E-03
            4652             708     34.6565E-03     36.7659E-03
            4652            4833     38.3704E-03     40.6684E-03
            4652            4850     36.2597E-03     38.4542E-03
            4653             652     94.7459E-03     96.1242E-03
            4653             653     90.9874E-03     91.6547E-03
            4653            4834     92.2346E-03     93.6137E-03
            4653            4851     88.7220E-03     89.7668E-03
            4654            4834     92.2346E-03     93.6137E-03
            4654            4835     87.2414E-03     88.8560E-03
            4654            4851     88.7220E-03     89.7668E-03
            4654            4852     84.5078E-03     86.0845E-03
            4655            4835     87.2414E-03     88.8560E-03
            4655            4836     82.3440E-03     84.3788E-03
            4655            4852     84.5078E-03     86.0845E-03
            4655            4853     80.7562E-03     82.5842E-03
            4656            4836     82.3440E-03     84.3788E-03
            4656            4837     77.8454E-03     80.0311E-03
            4656            4853     80.7562E-03     82.5842E-03
            4656            4854     77.1316E-03     79.1472E-03
            4657            4837     77.8454E-03     80.0311E-03
            4657            4838     73.7053E-03     75.9290E-03
            4657            4854     77.1316E-03     79.1472E-03
            4657            4855     73.6534E-03     75.6704E-03
            4658            4838     73.7053E-03     75.9290E-03
            4658            4839     69.8978E-03     72.1236E-03
            4658            4855     73.6534E-03     75.6704E-03
            4658            4856     70.2837E-03     72.2016E-03
            4659            4839     69.8978E-03     72.1236E-03
            4659            4840     66.4402E-03     68.5697E-03
            4659            4856     70.2837E-03     72.2016E-03
            4659            4857     66.9774E-03     68.8011E-03
            4660            4840     66.4402E-03     68.5697E-03
            4660            4841     63.1524E-03     65.2040E-03
            4660            4857     66.9774E-03     68.8011E-03
            4660            4858     63.7838E-03     65.4885E-03
            4661            4841     63.1524E-03     65.2040E-03
            4661            4842     60.0350E-03     62.0087E-03
            4661            4858     63.7838E-03     65.4885E-03
            4661            4859     60.6336E-03     62.2588E-03
            4662            4842     60.0350E-03     62.0087E-03
            4662            4843     57.0102E-03     58.9363E-03
            4662            4859     60.6336E-03     62.2588E-03
            4662            4860     57.5577E-03     59.1276E-03
            4663            4843     57.0102E-03     58.9363E-03
            4663            4844     54.0908E-03     55.9993E-03
            4663            4860     57.5577E-03     59.1276E-03
            4663            4861     54.4939E-03     56.0550E-03
            4664            4844     54.0908E-03     55.9993E-03
            4664            4845     51.2188E-03     53.1507E-03
            4664            4861     54.4939E-03     56.0550E-03
            4664            4862     51.4508E-03     53.0520E-03
            4665            4845     51.2188E-03     53.1507E-03
            4665            4846     48.4342E-03     50.4141E-03
            4665            4862     51.4508E-03     53.0520E-03
            4665            4863     48.3301E-03     50.0381E-03
            4666            4846     48.4342E-03     50.4141E-03
            4666            4847     45.5982E-03     47.6809E-03
            4666            4863     48.3301E-03     50.0381E-03
            4666            4864     45.0832E-03     46.9160E-03
            4667            4847     45.5982E-03     47.6809E-03
            4667            4848     42.6483E-03     44.8021E-03
            4667            4864     45.0832E-03     46.9160E-03
            4667            4865     41.6343E-03     43.6409E-03
            4668            4848     42.6483E-03     44.8021E-03
            4668            4849     39.5268E-03     41.7418E-03
            4668            4865     41.6343E-03     43.6409E-03
            4668            4866     38.0251E-03     40.1000E-03
            4669            4849     39.5268E-03     41.7418E-03
            4669            4850     36.2597E-03     38.4542E-03
            4669            4866     38.0251E-03     40.1000E-03
            4669            4867     34.5224E-03     36.5839E-03
            4670             708     34.6565E-03     36.7659E-03
            4670             709     32.8120E-03     34.9090E-03
            4670            4850     36.2597E-03     38.4542E-03
            4670            4867     34.5224E-03     36.5839E-03
            4671             653     90.9874E-03     91.6547E-03
            4671             654     86.6684E-03     87.4067E-03
            4671            4851     88.7220E-03     89.7668E-03
            4671            4868     84.8733E-03     85.7973E-03
            4672            4851     88.7220E-03     89.7668E-03
            4672            4852     84.5078E-03     86.0845E-03
            4672            4868     84.8733E-03     85.7973E-03
            4672            4869     81.5524E-03     82.9173E-03
            4673            4852     84.5078E-03     86.0845E-03
            4673            4853     80.7562E-03     82.5842E-03
            4673            4869     81.5524E-03     82.9173E-03
            4673            4870     78.6297E-03     80.3609E-03
            4674            4853     80.7562E-03     82.5842E-03
            4674            4854     77.1316E-03     79.1472E-03
            4674            4870     78.6297E-03     80.3609E-03
            4674            4871     75.8827E-03     77.6659E-03
            4675            4854     77.1316E-03     79.1472E-03
            4675            4855     73.6534E-03     75.6704E-03
            4675            4871     75.8827E-03     77.6659E-03
            4675            4872     73.0454E-03     74.7454E-03
            4676            4855     73.6534E-03     75.6704E-03
            4676            4856     70.2837E-03     72.2016E-03
            4676            4872     73.0454E-03     74.7454E-03
            4676            4873     70.0763E-03     71.6413E-03
            4677            4856     70.2837E-03     72.2016E-03
            4677            4857     66.9774E-03     68.8011E-03
            4677            4873     70.0763E-03     71.6413E-03
            4677            4874     67.0243E-03     68.4378E-03
            4678            4857     66.9774E-03     68.8011E-03
            4678            4858     63.7838E-03     65.4885E-03
            4678            4874     67.0243E-03     68.4378E-03
            4678            4875     63.9128E-03     65.2165E-03
            4679            4858     63.7838E-03     65.4885E-03
            4679            4859     60.6336E-03     62.2588E-03
            4679            4875     63.9128E-03     65.2165E-03
            4679            4876     60.8097E-03     62.0197E-03
            4680            4859     60.6336E-03     62.2588E-03
            4680            4860     57.5577E-03     59.1276E-03
            4680            4876     60.8097E-03     62.0197E-03
            4680            4877     57.6832E-03     58.8465E-03
            4681            4860     57.5577E-03     59.1276E-03
            4681            4861     54.4939E-03     56.0550E-03
            4681            4877     57.6832E-03     58.8465E-03
            4681            4878     54.5558E-03     55.7130E-03
            4682            4861     54.4939E-03     56.0550E-03
            4682            4862     51.4508E-03     53.0520E-03
            4682            4878     54.5558E-03     55.7130E-03
            4682            4879     51.3545E-03     52.5651E-03
            4683            4862     51.4508E-03     53.0520E-03
            4683            4863     48.3301E-03     50.0381E-03
            4683            4879     51.3545E-03     52.5651E-03
            4683            4880     48.0324E-03     49.3785E-03
            4684            4863     48.3301E-03     50.0381E-03
            4684            4864     45.0832E-03     46.9160E-03
            4684            4880     48.0324E-03     49.3785E-03
            4684            4881     44.4906E-03     46.0628E-03
            4685            4864     45.0832E-03     46.9160E-03
            4685            4865     41.6343E-03     43.6409E-03
            4685            4881     44.4906E-03     46.0628E-03
            4685            4882     40.6882E-03     42.4561E-03
            4686            4865     41.6343E-03     43.6409E-03
            4686            4866     38.0251E-03     40.1000E-03
            4686            4882     40.6882E-03     42.4561E-03
            4686            4883     36.7144E-03     38.7060E-03
            4687            4866     38.0251E-03     40.1000E-03
            4687            4867     34.5224E-03     36.5839E-03
            4687            4883     36.7144E-03     38.7060E-03
            4687            4884     33.0330E-03     34.9765E-03
            4688             709     32.8120E-03     34.9090E-03
            4688             710     31.3816E-03     33.1205E-03
            4688            4867     34.5224E-03     36.5839E-03
            4688            4884     33.0330E-03     34.9765E-03
            4689             654     86.6684E-03     87.4067E-03
            4689             655     82.5078E-03     82.7224E-03
            4689            4868     84.8733E-03     85.7973E-03
            4689            4885     80.8974E-03     81.5558E-03
            4690            4868     84.8733E-03     85.7973E-03
            4690            4869     81.5524E-03     82.9173E-03
            4690            4885     80.8974E-03     81.5558E-03
            4690            4886     78.2020E-03     79.5020E-03
            4691            4869     81.5524E-03     82.9173E-03
            4691            4870     78.6297E-03     80.3609E-03
            4691            4886     78.2020E-03     79.5020E-03
            4691            4887     76.1871E-03     77.6935E-03
            4692            4870     78.6297E-03     80.3609E-03
            4692            4871     75.8827E-03     77.6659E-03
            4692            4887     76.1871E-03     77.6935E-03
            4692            4888     74.2112E-03     75.6514E-03
            4693            4871     75.8827E-03     77.6659E-03
            4693            4872     73.0454E-03     74.7454E-03
            4693            4888     74.2112E-03     75.6514E-03
            4693            4889     71.9430E-03     73.1911E-03
            4694            4872     73.0454E-03     74.7454E-03
            4694            4873     70.0763E-03     71.6413E-03
            4694            4889     71.9430E-03     73.1911E-03
            4694            4890     69.3253E-03     70.3955E-03
            4695            4873     70.0763E-03     71.6413E-03
            4695            4874     67.0243E-03     68.4378E-03
            4695            4890     69.3253E-03     70.3955E-03
            4695            4891     66.4811E-03     67.4088E-03
            4696            4874     67.0243E-03     68.4378E-03
            4696            4875     63.9128E-03     65.2165E-03
            4696            4891     66.4811E-03     67.4088E-03
            4696            4892     63.5086E-03     64.3231E-03
            4697            4875     63.9128E-03     65.2165E-03
            4697            4876     60.8097E-03     62.0197E-03
            4697            4892     63.5086E-03     64.3231E-03
            4697            4893     60.4479E-03     61.1935E-03
            4698            4876     60.8097E-03     62.0197E-03
            4698            4877     57.6832E-03     58.8465E-03
            4698            4893     60.4479E-03     61.1935E-03
            4698            4894     57.3509E-03     58.0517E-03
            4699            4877     57.6832E-03     58.8465E-03
            4699            4878     54.5558E-03     55.7130E-03
            4699            4894     57.3509E-03     58.0517E-03
            4699            4895     54.1853E-03     54.8851E-03
            4700            4878     54.5558E-03     55.7130E-03
            4700            4879     51.3545E-03     52.5651E-03
            4700            4895     54.1853E-03     54.8851E-03
            4700            4896     50.9395E-03     51.6910E-03
            4701            4879     51.3545E-03     52.5651E-03
            4701            4880     48.0324E-03     49.3785E-03
            4701            4896     50.9395E-03     51.6910E-03
            4701            4897     47.5287E-03     48.4070E-03
            4702            4880     48.0324E-03     49.3785E-03
            4702            4881     44.4906E-03     46.0628E-03
            4702            4897     47.5287E-03     48.4070E-03
            4702            4898     43.8577E-03     45.0218E-03
            4703            4881     44.4906E-03     46.0628E-03
            4703            4882     40.6882E-03     42.4561E-03
            4703            4898     43.8577E-03     45.0218E-03
            4703            4899     39.8492E-03     41.4241E-03
            4704            4882     40.6882E-03     42.4561E-03
            4704            4883     36.7144E-03     38.7060E-03
            4704            4899     39.8492E-03     41.4241E-03
            4704            4900     35.6475E-03     37.4135E-03
            4705            4883     36.7144E-03     38.7060E-03
            4705            4884     33.0330E-03     34.9765E-03
            4705            4900     35.6475E-03     37.4135E-03
            4705            4901     31.6801E-03     33.6558E-03
            4706             710     31.3816E-03     33.1205E-03
            4706             711     29.8063E-03     32.0067E-03
            4706            4884     33.0330E-03     34.9765E-03
            4706            4901     31.6801E-03     33.6558E-03
            4707             655     82.5078E-03     82.7224E-03
            4707             656     78.0913E-03     78.1444E-03
            4707            4885     80.8974E-03     81.5558E-03
            4707            4902     76.6249E-03     77.1383E-03
            4708            4885     80.8974E-03     81.5558E-03
            4708            4886     78.2020E-03     79.5020E-03
            4708            4902     76.6249E-03     77.1383E-03
            4708            4903     74.5763E-03     75.6615E-03
            4709            4886     78.2020E-03     79.5020E-03
            4709            4887     76.1871E-03     77.6935E-03
            4709            4903     74.5763E-03     75.6615E-03
            4709            4904     73.5501E-03     74.6069E-03
            4710            4887     76.1871E-03     77.6935E-03
            4710            4888     74.2112E-03     75.6514E-03
            4710            4904     73.5501E-03     74.6069E-03
            4710            4905     72.2772E-03     73.0779E-03
            4711            4888     74.2112E-03     75.6514E-03
            4711            4889     71.9430E-03     73.1911E-03
            4711            4905     72.2772E-03     73.0779E-03
            4711            4906     70.3633E-03     70.9582E-03
            4712            4889     71.9430E-03     73.1911E-03
            4712            4890     69.3253E-03     70.3955E-03
            4712            4906     70.3633E-03     70.9582E-03
            4712            4907     68.0151E-03     68.4485E-03
            4713            4890     69.3253E-03     70.3955E-03
            4713            4891     66.4811E-03     67.4088E-03
            4713            4907     68.0151E-03     68.4485E-03
            4713            4908     65.3558E-03     65.6896E-03
            4714            4891     66.4811E-03     67.4088E-03
            4714            4892     63.5086E-03     64.3231E-03
            4714            4908     65.3558E-03     65.6896E-03
            4714            4909     62.5075E-03     62.7798E-03
            4715            4892     63.5086E-03     64.3231E-03
            4715            4893     60.4479E-03     61.1935E-03
            4715            4909     62.5075E-03     62.7798E-03
            4715            4910     59.5482E-03     59.7789E-03
            4716            4893     60.4479E-03     61.1935E-03
            4716            4894     57.3509E-03     58.0517E-03
            4716            4910     59.5482E-03     59.7789E-03
            4716            4911     56.5011E-03     56.7158E-03
            4717            4894     57.3509E-03     58.0517E-03
            4717            4895     54.1853E-03     54.8851E-03
            4717            4911     56.5011E-03     56.7158E-03
            4717            4912     53.3871E-03     53.5968E-03
            4718            4895     54.1853E-03     54.8851E-03
            4718            4896     50.9395E-03     51.6910E-03
            4718            4912     53.3871E-03     53.5968E-03
            4718            4913     50.1686E-03     50.4085E-03
            4719            4896     50.9395E-03     51.6910E-03
            4719            4897     47.5287E-03     48.4070E-03
            4719            4913     50.1686E-03     50.4085E-03
            4719            4914     46.8054E-03     47.1387E-03
            4720            4897     47.5287E-03     48.4070E-03
            4720            4898     43.8577E-03     45.0218E-03
            4720            4914     46.8054E-03     47.1387E-03
            4720            4915     43.2024E-03     43.7403E-03
            4721            4898     43.8577E-03     45.0218E-03
            4721            4899     39.8492E-03     41.4241E-03
            4721            4915     43.2024E-03     43.7403E-03
            4721            4916     39.2247E-03     40.3238E-03
            4722            4899     39.8492E-03     41.4241E-03
            4722            4900     35.6475E-03     37.4135E-03
            4722            4916     39.2247E-03     40.3238E-03
            4722            4917     34.8287E-03     36.6557E-03
            4723            4900     35.6475E-03     37.4135E-03
            4723            4901     31.6801E-03     33.6558E-03
            4723            4917     34.8287E-03     36.6557E-03
            4723            4918     30.7820E-03     32.4847E-03
            4724             711     29.8063E-03     32.0067E-03
            4724             712     29.0379E-03     30.3115E-03
            4724            4901     31.6801E-03     33.6558E-03
            4724            4918     30.7820E-03     32.4847E-03
            4725             656     78.0913E-03     78.1444E-03
            4725             657     73.0602E-03     72.5998E-03
            4725            4902     76.6249E-03     77.1383E-03
            4725            4919     71.9042E-03     71.9337E-03
            4726            4902     76.6249E-03     77.1383E-03
            4726            4903     74.5763E-03     75.6615E-03
            4726            4919     71.9042E-03     71.9337E-03
            4726            4920     71.0480E-03     71.3533E-03
            4727            4903     74.5763E-03     75.6615E-03
            4727            4904     73.5501E-03     74.6069E-03
            4727            4920     71.0480E-03     71.3533E-03
            4727            4921     71.0236E-03     71.0239E-03
            4728            4904     73.5501E-03     74.6069E-03
            4728            4905     72.2772E-03     73.0779E-03
            4728            4921     71.0236E-03     71.0239E-03
            4728            4922     70.0108E-03     69.8211E-03
            4729            4905     72.2772E-03     73.0779E-03
            4729            4906     70.3633E-03     70.9582E-03
            4729            4922     70.0108E-03     69.8211E-03
            4729            4923     68.3225E-03     68.0112E-03
            4730            4906     70.3633E-03     70.9582E-03
            4730            4907     68.0151E-03     68.4485E-03
            4730            4923     68.3225E-03     68.0112E-03
            4730            4924     66.1397E-03     65.8061E-03
            4731            4907     68.0151E-03     68.4485E-03
            4731            4908     65.3558E-03     65.6896E-03
            4731            4924     66.1397E-03     65.8061E-03
            4731            4925     63.6516E-03     63.3202E-03
            4732            4908     65.3558E-03     65.6896E-03
            4732            4909     62.5075E-03     62.7798E-03
            4732            4925     63.6516E-03     63.3202E-03
            4732            4926     60.9538E-03     60.6439E-03
            4733            4909     62.5075E-03     62.7798E-03
            4733            4910     59.5482E-03     59.7789E-03
            4733            4926     60.9538E-03     60.6439E-03
            4733            4927     58.1198E-03     57.8350E-03
            4734            4910     59.5482E-03     59.7789E-03
            4734            4911     56.5011E-03     56.7158E-03
            4734            4927     58.1198E-03     57.8350E-03
            4734            4928     55.1875E-03     54.9164E-03
            4735            4911     56.5011E-03     56.7158E-03
            4735            4912     53.3871E-03     53.5968E-03
            4735            4928     55.1875E-03     54.9164E-03
            4735            4929     52.1700E-03     51.9104E-03
            4736            4912     53.3871E-03     53.5968E-03
            4736            4913     50.1686E-03     50.4085E-03
            4736            4929     52.1700E-03     51.9104E-03
            4736            4930     49.0633E-03     48.8004E-03
            4737            4913     50.1686E-03     50.4085E-03
            4737            4914     46.8054E-03     47.1387E-03
            4737            4930     49.0633E-03     48.8004E-03
            4737            4931     45.8469E-03     45.5996E-03
            4738            4914     46.8054E-03     47.1387E-03
            4738            4915     43.2024E-03     43.7403E-03
            4738            4931     45.8469E-03     45.5996E-03
            4738            4932     42.4699E-03     42.2952E-03
            4739            4915     43.2024E-03     43.7403E-03
            4739            4916     39.2247E-03     40.3238E-03
            4739            4932     42.4699E-03     42.2952E-03
            4739            4933     38.8501E-03     38.9510E-03
            4740            4916     39.2247E-03     40.3238E-03
            4740            4917     34.8287E-03     36.6557E-03
            4740            4933     38.8501E-03     38.9510E-03
            4740            4934     34.7419E-03     35.9476E-03
            4741            4917     34.8287E-03     36.6557E-03
            4741            4918     30.7820E-03     32.4847E-03
            4741            4934     34.7419E-03     35.9476E-03
            4741            4935     30.3113E-03     32.7751E-03
            4742             712     29.0379E-03     30.3115E-03
            4742             713     28.1099E-03     30.9524E-03
            4742            4918     30.7820E-03     32.4847E-03
            4742            4935     30.3113E-03     32.7751E-03
            4743             657     73.0602E-03     72.5998E-03
            4743             658     66.9755E-03     64.8030E-03
            4743            4919     71.9042E-03     71.9337E-03
            4743            4936     67.5057E-03     65.5494E-03
            4744            4919     71.9042E-03     71.9337E-03
            4744            4920     71.0480E-03     71.3533E-03
            4744            4936     67.5057E-03     65.5494E-03
            4744            4937     68.3985E-03     66.6339E-03
            4745            4920     71.0480E-03     71.3533E-03
            4745            4921     71.0236E-03     71.0239E-03
            4745            4937     68.3985E-03     66.6339E-03
            4745            4938     68.4193E-03     66.6934E-03
            4746            4921     71.0236E-03     71.0239E-03
            4746            4922     70.0108E-03     69.8211E-03
            4746            4938     68.4193E-03     66.6934E-03
            4746            4939     67.3850E-03     65.8173E-03
            4747            4922     70.0108E-03     69.8211E-03
            4747            4923     68.3225E-03     68.0112E-03
            4747            4939     67.3850E-03     65.8173E-03
            4747            4940     65.7713E-03     64.4024E-03
            4748            4923     68.3225E-03     68.0112E-03
            4748            4924     66.1397E-03     65.8061E-03
            4748            4940     65.7713E-03     64.4024E-03
            4748            4941     63.7547E-03     62.5747E-03
            4749            4924     66.1397E-03     65.8061E-03
            4749            4925     63.6516E-03     63.3202E-03
            4749            4941     63.7547E-03     62.5747E-03
            4749            4942     61.4509E-03     60.4404E-03
            4750            4925     63.6516E-03     63.3202E-03
            4750            4926     60.9538E-03     60.6439E-03
            4750            4942     61.4509E-03     60.4404E-03
            4750            4943     58.9485E-03     58.0768E-03
            4751            4926     60.9538E-03     60.6439E-03
            4751            4927     58.1198E-03     57.8350E-03
            4751            4943     58.9485E-03     58.0768E-03
            4751            4944     56.2894E-03     55.5216E-03
            4752            4927     58.1198E-03     57.8350E-03
            4752            4928     55.1875E-03     54.9164E-03
            4752            4944     56.2894E-03     55.5216E-03
            4752            4945     53.5177E-03     52.8222E-03
            4753            4928     55.1875E-03     54.9164E-03
            4753            4929     52.1700E-03     51.9104E-03
            4753            4945     53.5177E-03     52.8222E-03
            4753            4946     50.6426E-03     49.9788E-03
            4754            4929     52.1700E-03     51.9104E-03
            4754            4930     49.0633E-03     48.8004E-03
            4754            4946     50.6426E-03     49.9788E-03
            4754            4947     47.6989E-03     47.0260E-03
            4755            4930     49.0633E-03     48.8004E-03
            4755            4931     45.8469E-03     45.5996E-03
            4755            4947     47.6989E-03     47.0260E-03
            4755            4948     44.6704E-03     43.9383E-03
            4756            4931     45.8469E-03     45.5996E-03
            4756            4932     42.4699E-03     42.2952E-03
            4756            4948     44.6704E-03     43.9383E-03
            4756            4949     41.6324E-03     40.7908E-03
            4757            4932     42.4699E-03     42.2952E-03
            4757            4933     38.8501E-03     38.9510E-03
            4757            4949     41.6324E-03     40.7908E-03
            4757            4950     38.5179E-03     37.5627E-03
            4758            4933     38.8501E-03     38.9510E-03
            4758            4934     34.7419E-03     35.9476E-03
            4758            4950     38.5179E-03     37.5627E-03
            4758            4951     35.5084E-03     34.7216E-03
            4759            4934     34.7419E-03     35.9476E-03
            4759            4935     30.3113E-03     32.7751E-03
            4759            4951     35.5084E-03     34.7216E-03
            4759            4952     31.8865E-03     32.8185E-03
            4760             713     28.1099E-03     30.9524E-03
            4760             714     29.6447E-03     32.0812E-03
            4760            4935     30.3113E-03     32.7751E-03
            4760            4952     31.8865E-03     32.8185E-03
            4761             658     66.9755E-03     64.8030E-03
            4761             659     66.4151E-03     68.8593E-03
            4761            4936     67.5057E-03     65.5494E-03
            4761            4953     62.3600E-03     63.9784E-03
            4762            4936     67.5057E-03     65.5494E-03
            4762            4937     68.3985E-03     66.6339E-03
            4762            4953     62.3600E-03     63.9784E-03
            4762            4954     57.0855E-03     57.3710E-03
            4763            4937     68.3985E-03     66.6339E-03
            4763            4938     68.4193E-03     66.6934E-03
            4763            4954     57.0855E-03     57.3710E-03
            4763            4955     54.1728E-03     54.2296E-03
            4764            4938     68.4193E-03     66.6934E-03
            4764            4939     67.3850E-03     65.8173E-03
            4764            4955     54.1728E-03     54.2296E-03
            4764            4956     51.4627E-03     51.7050E-03
            4765            4939     67.3850E-03     65.8173E-03
            4765            4940     65.7713E-03     64.4024E-03
            4765            4956     51.4627E-03     51.7050E-03
            4765            4957     49.2150E-03     49.5841E-03
            4766            4940     65.7713E-03     64.4024E-03
            4766            4941     63.7547E-03     62.5747E-03
            4766            4957     49.2150E-03     49.5841E-03
            4766            4958     47.0197E-03     47.6219E-03
            4767            4941     63.7547E-03     62.5747E-03
            4767            4942     61.4509E-03     60.4404E-03
            4767            4958     47.0197E-03     47.6219E-03
            4767            4959     44.9809E-03     45.7246E-03
            4768            4942     61.4509E-03     60.4404E-03
            4768            4943     58.9485E-03     58.0768E-03
            4768            4959     44.9809E-03     45.7246E-03
            4768            4960     42.9368E-03     43.8329E-03
            4769            4943     58.9485E-03     58.0768E-03
            4769            4944     56.2894E-03     55.5216E-03
            4769            4960     42.9368E-03     43.8329E-03
            4769            4961     40.9445E-03     41.9276E-03
            4770            4944     56.2894E-03     55.5216E-03
            4770            4945     53.5177E-03     52.8222E-03
            4770            4961     40.9445E-03     41.9276E-03
            4770            4962     38.9366E-03     39.9904E-03
            4771            4945     53.5177E-03     52.8222E-03
            4771            4946     50.6426E-03     49.9788E-03
            4771            4962     38.9366E-03     39.9904E-03
            4771            4963     36.9621E-03     38.0382E-03
            4772            4946     50.6426E-03     49.9788E-03
            4772            4947     47.6989E-03     47.0260E-03
            4772            4963     36.9621E-03     38.0382E-03
            4772            4964     35.0107E-03     36.0793E-03
            4773            4947     47.6989E-03     47.0260E-03
            4773            4948     44.6704E-03     43.9383E-03
            4773            4964     35.0107E-03     36.0793E-03
            4773            4965     33.1570E-03     34.1668E-03
            4774            4948     44.6704E-03     43.9383E-03
            4774            4949     41.6324E-03     40.7908E-03
            4774            4965     33.1570E-03     34.1668E-03
            4774            4966     31.4734E-03     32.3789E-03
            4775            4949     41.6324E-03     40.7908E-03
            4775            4950     38.5179E-03     37.5627E-03
            4775            4966     31.4734E-03     32.3789E-03
            4775            4967     30.1629E-03     30.8912E-03
            4776            4950     38.5179E-03     37.5627E-03
            4776            4951     35.5084E-03     34.7216E-03
            4776            4967     30.1629E-03     30.8912E-03
            4776            4968     29.5365E-03     30.1189E-03
            4777            4951     35.5084E-03     34.7216E-03
            4777            4952     31.8865E-03     32.8185E-03
            4777            4968     29.5365E-03     30.1189E-03
            4777            4969     31.2867E-03     32.2035E-03
            4778             714     29.6447E-03     32.0812E-03
            4778             715     33.1448E-03     34.4322E-03
            4778            4952     31.8865E-03     32.8185E-03
            4778            4969     31.2867E-03     32.2035E-03
            4779             659     66.4151E-03     68.8593E-03
            4779             660     69.1868E-03     71.2971E-03
            4779            4953     62.3600E-03     63.9784E-03
            4779            4970     60.7615E-03     63.5162E-03
            4780            4953     62.3600E-03     63.9784E-03
            4780            4954     57.0855E-03     57.3710E-03
            4780            4970     60.7615E-03     63.5162E-03
            4780            4971     48.0726E-03     51.2168E-03
            4781            4954     57.0855E-03     57.3710E-03
            4781            4955     54.1728E-03     54.2296E-03
            4781            4971     48.0726E-03     51.2168E-03
            4781            4972     41.4626E-03     44.1984E-03
            4782            4955     54.1728E-03     54.2296E-03
            4782            4956     51.4627E-03     51.7050E-03
            4782            4972     41.4626E-03     44.1984E-03
            4782            4973     37.2502E-03     39.8486E-03
            4783            4956     51.4627E-03     51.7050E-03
            4783            4957     49.2150E-03     49.5841E-03
            4783            4973     37.2502E-03     39.8486E-03
            4783            4974     34.1304E-03     36.7193E-03
            4784            4957     49.2150E-03     49.5841E-03
            4784            4958     47.0197E-03     47.6219E-03
            4784            4974     34.1304E-03     36.7193E-03
            4784            4975     31.7883E-03     34.4009E-03
            4785            4958     47.0197E-03     47.6219E-03
            4785            4959     44.9809E-03     45.7246E-03
            4785            4975     31.7883E-03     34.4009E-03
            4785            4976     29.8497E-03     32.5200E-03
            4786            4959     44.9809E-03     45.7246E-03
            4786            4960     42.9368E-03     43.8329E-03
            4786            4976     29.8497E-03     32.5200E-03
            4786            4977     28.2226E-03     30.9330E-03
            4787            4960     42.9368E-03     43.8329E-03
            4787            4961     40.9445E-03     41.9276E-03
            4787            4977     28.2226E-03     30.9330E-03
            4787            4978     26.7620E-03     29.5086E-03
            4788            4961     40.9445E-03     41.9276E-03
            4788            4962     38.9366E-03     39.9904E-03
            4788            4978     26.7620E-03     29.5086E-03
            4788            4979     25.4580E-03     28.2183E-03
            4789            4962     38.9366E-03     39.9904E-03
            4789            4963     36.9621E-03     38.0382E-03
            4789            4979     25.4580E-03     28.2183E-03
            4789            4980     24.2607E-03     27.0238E-03
            4790            4963     36.9621E-03     38.0382E-03
            4790            4964     35.0107E-03     36.0793E-03
            4790            4980     24.2607E-03     27.0238E-03
            4790            4981     23.2415E-03     25.9870E-03
            4791            4964     35.0107E-03     36.0793E-03
            4791            4965     33.1570E-03     34.1668E-03
            4791            4981     23.2415E-03     25.9870E-03
            4791            4982     22.4019E-03     25.1231E-03
            4792            4965     33.1570E-03     34.1668E-03
            4792            4966     31.4734E-03     32.3789E-03
            4792            4982     22.4019E-03     25.1231E-03
            4792            4983     21.9952E-03     24.6734E-03
            4793            4966     31.4734E-03     32.3789E-03
            4793            4967     30.1629E-03     30.8912E-03
            4793            4983     21.9952E-03     24.6734E-03
            4793            4984     22.0712E-03     24.7169E-03
            4794            4967     30.1629E-03     30.8912E-03
            4794            4968     29.5365E-03     30.1189E-03
            4794            4984     22.0712E-03     24.7169E-03
            4794            4985     23.7589E-03     26.3205E-03
            4795            4968     29.5365E-03     30.1189E-03
            4795            4969     31.2867E-03     32.2035E-03
            4795            4985     23.7589E-03     26.3205E-03
            4795            4986     28.2891E-03     30.5391E-03
            4796             715     33.1448E-03     34.4322E-03
            4796             716     31.2166E-03     33.2362E-03
            4796            4969     31.2867E-03     32.2035E-03
            4796            4986     28.2891E-03     30.5391E-03
            4797             660     69.1868E-03     71.2971E-03
            4797             661     65.3938E-03     65.1587E-03
            4797            4970     60.7615E-03     63.5162E-03
            4797            4987     60.2109E-03     60.5126E-03
            4798            4970     60.7615E-03     63.5162E-03
            4798            4971     48.0726E-03     51.2168E-03
            4798            4987     60.2109E-03     60.5126E-03
            4798            4988     49.9727E-03     51.4603E-03
            4799            4971     48.0726E-03     51.2168E-03
            4799            4972     41.4626E-03     44.1984E-03
            4799            4988     49.9727E-03     51.4603E-03
            4799            4989     42.2562E-03     44.4427E-03
            4800            4972     41.4626E-03     44.1984E-03
            4800            4973     37.2502E-03     39.8486E-03
            4800            4989     42.2562E-03     44.4427E-03
            4800            4990     37.7684E-03     40.0026E-03
            4801            4973     37.2502E-03     39.8486E-03
            4801            4974     34.1304E-03     36.7193E-03
            4801            4990     37.7684E-03     40.0026E-03
            4801            4991     34.5781E-03     36.8420E-03
            4802            4974     34.1304E-03     36.7193E-03
            4802            4975     31.7883E-03     34.4009E-03
            4802            4991     34.5781E-03     36.8420E-03
            4802            4992     32.1918E-03     34.4754E-03
            4803            4975     31.7883E-03     34.4009E-03
            4803            4976     29.8497E-03     32.5200E-03
            4803            4992     32.1918E-03     34.4754E-03
            4803            4993     30.2893E-03     32.5800E-03
            4804            4976     29.8497E-03     32.5200E-03
            4804            4977     28.2226E-03     30.9330E-03
            4804            4993     30.2893E-03     32.5800E-03
            4804            4994     28.6554E-03     30.9605E-03
            4805            4977     28.2226E-03     30.9330E-03
            4805            4978     26.7620E-03     29.5086E-03
            4805            4994     28.6554E-03     30.9605E-03
            4805            4995     27.2104E-03     29.5181E-03
            4806            4978     26.7620E-03     29.5086E-03
            4806            4979     25.4580E-03     28.2183E-03
            4806            4995     27.2104E-03     29.5181E-03
            4806            4996     25.8767E-03     28.1878E-03
            4807            4979     25.4580E-03     28.2183E-03
            4807            4980     24.2607E-03     27.0238E-03
            4807            4996     25.8767E-03     28.1878E-03
            4807            4997     24.6720E-03     26.9730E-03
            4808            4980     24.2607E-03     27.0238E-03
            4808            4981     23.2415E-03     25.9870E-03
            4808            4997     24.6720E-03     26.9730E-03
            4808            4998     23.5910E-03     25.8803E-03
            4809            4981     23.2415E-03     25.9870E-03
            4809            4982     22.4019E-03     25.1231E-03
            4809            4998     23.5910E-03     25.8803E-03
            4809            4999     22.7544E-03     25.0064E-03
            4810            4982     22.4019E-03     25.1231E-03
            4810            4983     21.9952E-03     24.6734E-03
            4810            4999     22.7544E-03     25.0064E-03
            4810            5000     22.2427E-03     24.4439E-03
            4811            4983     21.9952E-03     24.6734E-03
            4811            4984     22.0712E-03     24.7169E-03
            4811            5000     22.2427E-03     24.4439E-03
            4811            5001     22.3678E-03     24.4472E-03
            4812            4984     22.0712E-03     24.7169E-03
            4812            4985     23.7589E-03     26.3205E-03
            4812            5001     22.3678E-03     24.4472E-03
            4812            5002     23.9290E-03     25.6475E-03
            4813            4985     23.7589E-03     26.3205E-03
            4813            4986     28.2891E-03     30.5391E-03
            4813            5002     23.9290E-03     25.6475E-03
            4813            5003     25.6248E-03     26.7889E-03
            4814             716     31.2166E-03     33.2362E-03
            4814             717     26.0789E-03     26.9460E-03
            4814            4986     28.2891E-03     30.5391E-03
            4814            5003     25.6248E-03     26.7889E-03
            4815             661     65.3938E-03     65.1587E-03
            4815             662     60.4498E-03     61.8222E-03
            4815            4987     60.2109E-03     60.5126E-03
            4815            5004     56.6569E-03     57.7404E-03
            4816            4987     60.2109E-03     60.5126E-03
            4816            4988     49.9727E-03     51.4603E-03
            4816            5004     56.6569E-03     57.7404E-03
            4816            5005     49.4053E-03     50.3229E-03
            4817            4988     49.9727E-03     51.4603E-03
            4817            4989     42.2562E-03     44.4427E-03
            4817            5005     49.4053E-03     50.3229E-03
            4817            5006     42.9918E-03     44.3985E-03
            4818            4989     42.2562E-03     44.4427E-03
            4818            4990     37.7684E-03     40.0026E-03
            4818            5006     42.9918E-03     44.3985E-03
            4818            5007     38.2871E-03     40.0972E-03
            4819            4990     37.7684E-03     40.0026E-03
            4819            4991     34.5781E-03     36.8420E-03
            4819            5007     38.2871E-03     40.0972E-03
            4819            5008     35.1776E-03     37.0561E-03
            4820            4991     34.5781E-03     36.8420E-03
            4820            4992     32.1918E-03     34.4754E-03
            4820            5008     35.1776E-03     37.0561E-03
            4820            5009     32.7863E-03     34.7015E-03
            4821            4992     32.1918E-03     34.4754E-03
            4821            4993     30.2893E-03     32.5800E-03
            4821            5009     32.7863E-03     34.7015E-03
            4821            5010     30.8843E-03     32.7940E-03
            4822            4993     30.2893E-03     32.5800E-03
            4822            4994     28.6554E-03     30.9605E-03
            4822            5010     30.8843E-03     32.7940E-03
            4822            5011     29.2474E-03     31.1423E-03
            4823            4994     28.6554E-03     30.9605E-03
            4823            4995     27.2104E-03     29.5181E-03
            4823            5011     29.2474E-03     31.1423E-03
            4823            5012     27.7731E-03     29.6545E-03
            4824            4995     27.2104E-03     29.5181E-03
            4824            4996     25.8767E-03     28.1878E-03
            4824            5012     27.7731E-03     29.6545E-03
            4824            5013     26.4127E-03     28.2792E-03
            4825            4996     25.8767E-03     28.1878E-03
            4825            4997     24.6720E-03     26.9730E-03
            4825            5013     26.4127E-03     28.2792E-03
            4825            5014     25.1475E-03     27.0046E-03
            4826            4997     24.6720E-03     26.9730E-03
            4826            4998     23.5910E-03     25.8803E-03
            4826            5014     25.1475E-03     27.0046E-03
            4826            5015     24.0067E-03     25.8462E-03
            4827            4998     23.5910E-03     25.8803E-03
            4827            4999     22.7544E-03     25.0064E-03
            4827            5015     24.0067E-03     25.8462E-03
            4827            5016     23.0478E-03     24.8656E-03
            4828            4999     22.7544E-03     25.0064E-03
            4828            5000     22.2427E-03     24.4439E-03
            4828            5016     23.0478E-03     24.8656E-03
            4828            5017     22.3451E-03     24.1068E-03
            4829            5000     22.2427E-03     24.4439E-03
            4829            5001     22.3678E-03     24.4472E-03
            4829            5017     22.3451E-03     24.1068E-03
            4829            5018     22.2440E-03     23.8456E-03
            4830            5001     22.3678E-03     24.4472E-03
            4830            5002     23.9290E-03     25.6475E-03
            4830            5018     22.2440E-03     23.8456E-03
            4830            5019     22.4165E-03     23.7750E-03
            4831            5002     23.9290E-03     25.6475E-03
            4831            5003     25.6248E-03     26.7889E-03
            4831            5019     22.4165E-03     23.7750E-03
            4831            5020     22.4807E-03     23.6748E-03
            4832             717     26.0789E-03     26.9460E-03
            4832             718     22.5431E-03     23.7039E-03
            4832            5003     25.6248E-03     26.7889E-03
            4832            5020     22.4807E-03     23.6748E-03
            4833             662     60.4498E-03     61.8222E-03
            4833             663     56.7605E-03     56.9730E-03
            4833            5004     56.6569E-03     57.7404E-03
            4833            5021     53.3636E-03     53.8966E-03
            4834            5004     56.6569E-03     57.7404E-03
            4834            5005     49.4053E-03     50.3229E-03
            4834            5021     53.3636E-03     53.8966E-03
            4834            5022     47.2362E-03     48.1849E-03
            4835            5005     49.4053E-03     50.3229E-03
            4835            5006     42.9918E-03     44.3985E-03
            4835            5022     47.2362E-03     48.1849E-03
            4835            5023     42.4080E-03     43.5135E-03
            4836            5006     42.9918E-03     44.3985E-03
            4836            5007     38.2871E-03     40.0972E-03
            4836            5023     42.4080E-03     43.5135E-03
            4836            5024     38.5472E-03     39.8941E-03
            4837            5007     38.2871E-03     40.0972E-03
            4837            5008     35.1776E-03     37.0561E-03
            4837            5024     38.5472E-03     39.8941E-03
            4837            5025     35.6110E-03     37.1287E-03
            4838            5008     35.1776E-03     37.0561E-03
            4838            5009     32.7863E-03     34.7015E-03
            4838            5025     35.6110E-03     37.1287E-03
            4838            5026     33.4103E-03     34.9304E-03
            4839            5009     32.7863E-03     34.7015E-03
            4839            5010     30.8843E-03     32.7940E-03
            4839            5026     33.4103E-03     34.9304E-03
            4839            5027     31.5420E-03     33.0522E-03
            4840            5010     30.8843E-03     32.7940E-03
            4840            5011     29.2474E-03     31.1423E-03
            4840            5027     31.5420E-03     33.0522E-03
            4840            5028     29.9157E-03     31.3894E-03
            4841            5011     29.2474E-03     31.1423E-03
            4841            5012     27.7731E-03     29.6545E-03
            4841            5028     29.9157E-03     31.3894E-03
            4841            5029     28.4080E-03     29.8534E-03
            4842            5012     27.7731E-03     29.6545E-03
            4842            5013     26.4127E-03     28.2792E-03
            4842            5029     28.4080E-03     29.8534E-03
            4842            5030     26.9968E-03     28.4194E-03
            4843            5013     26.4127E-03     28.2792E-03
            4843            5014     25.1475E-03     27.0046E-03
            4843            5030     26.9968E-03     28.4194E-03
            4843            5031     25.6504E-03     27.0612E-03
            4844            5014     25.1475E-03     27.0046E-03
            4844            5015     24.0067E-03     25.8462E-03
            4844            5031     25.6504E-03     27.0612E-03
            4844            5032     24.3962E-03     25.8033E-03
            4845            5015     24.0067E-03     25.8462E-03
            4845            5016     23.0478E-03     24.8656E-03
            4845            5032     24.3962E-03     25.8033E-03
            4845            5033     23.2225E-03     24.6260E-03
            4846            5016     23.0478E-03     24.8656E-03
            4846            5017     22.3451E-03     24.1068E-03
            4846            5033     23.2225E-03     24.6260E-03
            4846            5034     22.2596E-03     23.6365E-03
            4847            5017     22.3451E-03     24.1068E-03
            4847            5018     22.2440E-03     23.8456E-03
            4847            5034     22.2596E-03     23.6365E-03
            4847            5035     21.4216E-03     22.7249E-03
            4848            5018     22.2440E-03     23.8456E-03
            4848            5019     22.4165E-03     23.7750E-03
            4848            5035     21.4216E-03     22.7249E-03
            4848            5036     20.7032E-03     21.9130E-03
            4849            5019     22.4165E-03     23.7750E-03
            4849            5020     22.4807E-03     23.6748E-03
            4849            5036     20.7032E-03     21.9130E-03
            4849            5037     20.4650E-03     21.3843E-03
            4850             718     22.5431E-03     23.7039E-03
            4850             719     20.4936E-03     21.1663E-03
            4850            5020     22.4807E-03     23.6748E-03
            4850            5037     20.4650E-03     21.3843E-03
            4851             663     56.7605E-03     56.9730E-03
            4851             664     52.5000E-03     53.0400E-03
            4851            5021     53.3636E-03     53.8966E-03
            4851            5038     49.7345E-03     50.2123E-03
            4852            5021     53.3636E-03     53.8966E-03
            4852            5022     47.2362E-03     48.1849E-03
            4852            5038     49.7345E-03     50.2123E-03
            4852            5039     44.8058E-03     45.4123E-03
            4853            5022     47.2362E-03     48.1849E-03
            4853            5023     42.4080E-03     43.5135E-03
            4853            5039     44.8058E-03     45.4123E-03
            4853            5040     40.9799E-03     41.9272E-03
            4854            5023     42.4080E-03     43.5135E-03
            4854            5024     38.5472E-03     39.8941E-03
            4854            5040     40.9799E-03     41.9272E-03
            4854            5041     38.1225E-03     39.2040E-03
            4855            5024     38.5472E-03     39.8941E-03
            4855            5025     35.6110E-03     37.1287E-03
            4855            5041     38.1225E-03     39.2040E-03
            4855            5042     35.8205E-03     36.9482E-03
            4856            5025     35.6110E-03     37.1287E-03
            4856            5026     33.4103E-03     34.9304E-03
            4856            5042     35.8205E-03     36.9482E-03
            4856            5043     33.8598E-03     34.9973E-03
            4857            5026     33.4103E-03     34.9304E-03
            4857            5027     31.5420E-03     33.0522E-03
            4857            5043     33.8598E-03     34.9973E-03
            4857            5044     32.1542E-03     33.2307E-03
            4858            5027     31.5420E-03     33.0522E-03
            4858            5028     29.9157E-03     31.3894E-03
            4858            5044     32.1542E-03     33.2307E-03
            4858            5045     30.5387E-03     31.5742E-03
            4859            5028     29.9157E-03     31.3894E-03
            4859            5029     28.4080E-03     29.8534E-03
            4859            5045     30.5387E-03     31.5742E-03
            4859            5046     29.0215E-03     30.0116E-03
            4860            5029     28.4080E-03     29.8534E-03
            4860            5030     26.9968E-03     28.4194E-03
            4860            5046     29.0215E-03     30.0116E-03
            4860            5047     27.5399E-03     28.5071E-03
            4861            5030     26.9968E-03     28.4194E-03
            4861            5031     25.6504E-03     27.0612E-03
            4861            5047     27.5399E-03     28.5071E-03
            4861            5048     26.1115E-03     27.0668E-03
            4862            5031     25.6504E-03     27.0612E-03
            4862            5032     24.3962E-03     25.8033E-03
            4862            5048     26.1115E-03     27.0668E-03
            4862            5049     24.6845E-03     25.6563E-03
            4863            5032     24.3962E-03     25.8033E-03
            4863            5033     23.2225E-03     24.6260E-03
            4863            5049     24.6845E-03     25.6563E-03
            4863            5050     23.2987E-03     24.3024E-03
            4864            5033     23.2225E-03     24.6260E-03
            4864            5034     22.2596E-03     23.6365E-03
            4864            5050     23.2987E-03     24.3024E-03
            4864            5051     21.8855E-03     22.9234E-03
            4865            5034     22.2596E-03     23.6365E-03
            4865            5035     21.4216E-03     22.7249E-03
            4865            5051     21.8855E-03     22.9234E-03
            4865            5052     20.4711E-03     21.5503E-03
            4866            5035     21.4216E-03     22.7249E-03
            4866            5036     20.7032E-03     21.9130E-03
            4866            5052     20.4711E-03     21.5503E-03
            4866            5053     19.3101E-03     20.2698E-03
            4867            5036     20.7032E-03     21.9130E-03
            4867            5037     20.4650E-03     21.3843E-03
            4867            5053     19.3101E-03     20.2698E-03
            4867            5054     18.6599E-03     19.4299E-03
            4868             719     20.4936E-03     21.1663E-03
            4868             720     18.5101E-03     19.2298E-03
            4868            5037     20.4650E-03     21.3843E-03
            4868            5054     18.6599E-03     19.4299E-03
            4869             664     52.5000E-03     53.0400E-03
            4869             665     48.8844E-03     48.7819E-03
            4869            5038     49.7345E-03     50.2123E-03
            4869            5055     46.2208E-03     46.3901E-03
            4870            5038     49.7345E-03     50.2123E-03
            4870            5039     44.8058E-03     45.4123E-03
            4870            5055     46.2208E-03     46.3901E-03
            4870            5056     41.9173E-03     42.4536E-03
            4871            5039     44.8058E-03     45.4123E-03
            4871            5040     40.9799E-03     41.9272E-03
            4871            5056     41.9173E-03     42.4536E-03
            4871            5057     39.2110E-03     39.9194E-03
            4872            5040     40.9799E-03     41.9272E-03
            4872            5041     38.1225E-03     39.2040E-03
            4872            5057     39.2110E-03     39.9194E-03
            4872            5058     37.2599E-03     38.0882E-03
            4873            5041     38.1225E-03     39.2040E-03
            4873            5042     35.8205E-03     36.9482E-03
            4873            5058     37.2599E-03     38.0882E-03
            4873            5059     35.6577E-03     36.4428E-03
            4874            5042     35.8205E-03     36.9482E-03
            4874            5043     33.8598E-03     34.9973E-03
            4874            5059     35.6577E-03     36.4428E-03
            4874            5060     34.1198E-03     34.8122E-03
            4875            5043     33.8598E-03     34.9973E-03
            4875            5044     32.1542E-03     33.2307E-03
            4875            5060     34.1198E-03     34.8122E-03
            4875            5061     32.5535E-03     33.1831E-03
            4876            5044     32.1542E-03     33.2307E-03
            4876            5045     30.5387E-03     31.5742E-03
            4876            5061     32.5535E-03     33.1831E-03
            4876            5062     31.0212E-03     31.5787E-03
            4877            5045     30.5387E-03     31.5742E-03
            4877            5046     29.0215E-03     30.0116E-03
            4877            5062     31.0212E-03     31.5787E-03
            4877            5063     29.4770E-03     29.9948E-03
            4878            5046     29.0215E-03     30.0116E-03
            4878            5047     27.5399E-03     28.5071E-03
            4878            5063     29.4770E-03     29.9948E-03
            4878            5064     27.9600E-03     28.4466E-03
            4879            5047     27.5399E-03     28.5071E-03
            4879            5048     26.1115E-03     27.0668E-03
            4879            5064     27.9600E-03     28.4466E-03
            4879            5065     26.4209E-03     26.9083E-03
            4880            5048     26.1115E-03     27.0668E-03
            4880            5049     24.6845E-03     25.6563E-03
            4880            5065     26.4209E-03     26.9083E-03
            4880            5066     24.8706E-03     25.3787E-03
            4881            5049     24.6845E-03     25.6563E-03
            4881            5050     23.2987E-03     24.3024E-03
            4881            5066     24.8706E-03     25.3787E-03
            4881            5067     23.2142E-03     23.8010E-03
            4882            5050     23.2987E-03     24.3024E-03
            4882            5051     21.8855E-03     22.9234E-03
            4882            5067     23.2142E-03     23.8010E-03
            4882            5068     21.4358E-03     22.1507E-03
            4883            5051     21.8855E-03     22.9234E-03
            4883            5052     20.4711E-03     21.5503E-03
            4883            5068     21.4358E-03     22.1507E-03
            4883            5069     19.5981E-03     20.3871E-03
            4884            5052     20.4711E-03     21.5503E-03
            4884            5053     19.3101E-03     20.2698E-03
            4884            5069     19.5981E-03     20.3871E-03
            4884            5070     17.9206E-03     18.7566E-03
            4885            5053     19.3101E-03     20.2698E-03
            4885            5054     18.6599E-03     19.4299E-03
            4885            5070     17.9206E-03     18.7566E-03
            4885            5071     17.1927E-03     17.7545E-03
            4886             720     18.5101E-03     19.2298E-03
            4886             721     17.1970E-03     17.4497E-03
            4886            5054     18.6599E-03     19.4299E-03
            4886            5071     17.1927E-03     17.7545E-03
            4887             665     48.8844E-03     48.7819E-03
            4887             666     44.9264E-03     44.8101E-03
            4887            5055     46.2208E-03     46.3901E-03
            4887            5072     42.5181E-03     42.5114E-03
            4888            5055     46.2208E-03     46.3901E-03
            4888            5056     41.9173E-03     42.4536E-03
            4888            5072     42.5181E-03     42.5114E-03
            4888            5073     38.8939E-03     39.2111E-03
            4889            5056     41.9173E-03     42.4536E-03
            4889            5057     39.2110E-03     39.9194E-03
            4889            5073     38.8939E-03     39.2111E-03
            4889            5074     37.1227E-03     37.6911E-03
            4890            5057     39.2110E-03     39.9194E-03
            4890            5058     37.2599E-03     38.0882E-03
            4890            5074     37.1227E-03     37.6911E-03
            4890            5075     36.2120E-03     36.7053E-03
            4891            5058     37.2599E-03     38.0882E-03
            4891            5059     35.6577E-03     36.4428E-03
            4891            5075     36.2120E-03     36.7053E-03
            4891            5076     35.2713E-03     35.6116E-03
            4892            5059     35.6577E-03     36.4428E-03
            4892            5060     34.1198E-03     34.8122E-03
            4892            5076     35.2713E-03     35.6116E-03
            4892            5077     34.0632E-03     34.2804E-03
            4893            5060     34.1198E-03     34.8122E-03
            4893            5061     32.5535E-03     33.1831E-03
            4893            5077     34.0632E-03     34.2804E-03
            4893            5078     32.6964E-03     32.8122E-03
            4894            5061     32.5535E-03     33.1831E-03
            4894            5062     31.0212E-03     31.5787E-03
            4894            5078     32.6964E-03     32.8122E-03
            4894            5079     31.2109E-03     31.2690E-03
            4895            5062     31.0212E-03     31.5787E-03
            4895            5063     29.4770E-03     29.9948E-03
            4895            5079     31.2109E-03     31.2690E-03
            4895            5080     29.6917E-03     29.7028E-03
            4896            5063     29.4770E-03     29.9948E-03
            4896            5064     27.9600E-03     28.4466E-03
            4896            5080     29.6917E-03     29.7028E-03
            4896            5081     28.1280E-03     28.1199E-03
            4897            5064     27.9600E-03     28.4466E-03
            4897            5065     26.4209E-03     26.9083E-03
            4897            5081     28.1280E-03     28.1199E-03
            4897            5082     26.5391E-03     26.5250E-03
            4898            5065     26.4209E-03     26.9083E-03
            4898            5066     24.8706E-03     25.3787E-03
            4898            5082     26.5391E-03     26.5250E-03
            4898            5083     24.8611E-03     24.8833E-03
            4899            5066     24.8706E-03     25.3787E-03
            4899            5067     23.2142E-03     23.8010E-03
            4899            5083     24.8611E-03     24.8833E-03
            4899            5084     23.0541E-03     23.1553E-03
            4900            5067     23.2142E-03     23.8010E-03
            4900            5068     21.4358E-03     22.1507E-03
            4900            5084     23.0541E-03     23.1553E-03
            4900            5085     20.9999E-03     21.2963E-03
            4901            5068     21.4358E-03     22.1507E-03
            4901            5069     19.5981E-03     20.3871E-03
            4901            5085     20.9999E-03     21.2963E-03
            4901            5086     18.7403E-03     19.3084E-03
            4902            5069     19.5981E-03     20.3871E-03
            4902            5070     17.9206E-03     18.7566E-03
            4902            5086     18.7403E-03     19.3084E-03
            4902            5087     16.7371E-03     17.3420E-03
            4903            5070     17.9206E-03     18.7566E-03
            4903            5071     17.1927E-03     17.7545E-03
            4903            5087     16.7371E-03     17.3420E-03
            4903            5088     15.8231E-03     16.3523E-03
            4904             721     17.1970E-03     17.4497E-03
            4904             722     15.7753E-03     16.3154E-03
            4904            5071     17.1927E-03     17.7545E-03
            4904            5088     15.8231E-03     16.3523E-03
            4905             666     44.9264E-03     44.8101E-03
            4905             667     41.2804E-03     40.5100E-03
            4905            5072     42.5181E-03     42.5114E-03
            4905            5089     38.7262E-03     38.4008E-03
            4906            5072     42.5181E-03     42.5114E-03
            4906            5073     38.8939E-03     39.2111E-03
            4906            5089     38.7262E-03     38.4008E-03
            4906            5090     35.5529E-03     35.7954E-03
            4907            5073     38.8939E-03     39.2111E-03
            4907            5074     37.1227E-03     37.6911E-03
            4907            5090     35.5529E-03     35.7954E-03
            4907            5091     35.1274E-03     35.3588E-03
            4908            5074     37.1227E-03     37.6911E-03
            4908            5075     36.2120E-03     36.7053E-03
            4908            5091     35.1274E-03     35.3588E-03
            4908            5092     35.1741E-03     35.1516E-03
            4909            5075     36.2120E-03     36.7053E-03
            4909            5076     35.2713E-03     35.6116E-03
            4909            5092     35.1741E-03     35.1516E-03
            4909            5093     34.6546E-03     34.4218E-03
            4910            5076     35.2713E-03     35.6116E-03
            4910            5077     34.0632E-03     34.2804E-03
            4910            5093     34.6546E-03     34.4218E-03
            4910            5094     33.7024E-03     33.3424E-03
            4911            5077     34.0632E-03     34.2804E-03
            4911            5078     32.6964E-03     32.8122E-03
            4911            5094     33.7024E-03     33.3424E-03
            4911            5095     32.4584E-03     32.0208E-03
            4912            5078     32.6964E-03     32.8122E-03
            4912            5079     31.2109E-03     31.2690E-03
            4912            5095     32.4584E-03     32.0208E-03
            4912            5096     31.0538E-03     30.5685E-03
            4913            5079     31.2109E-03     31.2690E-03
            4913            5080     29.6917E-03     29.7028E-03
            4913            5096     31.0538E-03     30.5685E-03
            4913            5097     29.5514E-03     29.0421E-03
            4914            5080     29.6917E-03     29.7028E-03
            4914            5081     28.1280E-03     28.1199E-03
            4914            5097     29.5514E-03     29.0421E-03
            4914            5098     27.9953E-03     27.4699E-03
            4915            5081     28.1280E-03     28.1199E-03
            4915            5082     26.5391E-03     26.5250E-03
            4915            5098     27.9953E-03     27.4699E-03
            4915            5099     26.3724E-03     25.8471E-03
            4916            5082     26.5391E-03     26.5250E-03
            4916            5083     24.8611E-03     24.8833E-03
            4916            5099     26.3724E-03     25.8471E-03
            4916            5100     24.6577E-03     24.1509E-03
            4917            5083     24.8611E-03     24.8833E-03
            4917            5084     23.0541E-03     23.1553E-03
            4917            5100     24.6577E-03     24.1509E-03
            4917            5101     22.7763E-03     22.3410E-03
            4918            5084     23.0541E-03     23.1553E-03
            4918            5085     20.9999E-03     21.2963E-03
            4918            5101     22.7763E-03     22.3410E-03
            4918            5102     20.6347E-03     20.3597E-03
            4919            5085     20.9999E-03     21.2963E-03
            4919            5086     18.7403E-03     19.3084E-03
            4919            5102     20.6347E-03     20.3597E-03
            4919            5103     18.0982E-03     18.2521E-03
            4920            5086     18.7403E-03     19.3084E-03
            4920            5087     16.7371E-03     17.3420E-03
            4920            5103     18.0982E-03     18.2521E-03
            4920            5104     15.6412E-03     16.2454E-03
            4921            5087     16.7371E-03     17.3420E-03
            4921            5088     15.8231E-03     16.3523E-03
            4921            5104     15.6412E-03     16.2454E-03
            4921            5105     14.7487E-03     15.0841E-03
            4922             722     15.7753E-03     16.3154E-03
            4922             723     14.9222E-03     14.8595E-03
            4922            5088     15.8231E-03     16.3523E-03
            4922            5105     14.7487E-03     15.0841E-03
            4923             667     41.2804E-03     40.5100E-03
            4923             668     37.2651E-03     36.3211E-03
            4923            5089     38.7262E-03     38.4008E-03
            4923            5106     34.5192E-03     34.0793E-03
            4924            5089     38.7262E-03     38.4008E-03
            4924            5090     35.5529E-03     35.7954E-03
            4924            5106     34.5192E-03     34.0793E-03
            4924            5107     32.5034E-03     32.3808E-03
            4925            5090     35.5529E-03     35.7954E-03
            4925            5091     35.1274E-03     35.3588E-03
            4925            5107     32.5034E-03     32.3808E-03
            4925            5108     33.6988E-03     33.1697E-03
            4926            5091     35.1274E-03     35.3588E-03
            4926            5092     35.1741E-03     35.1516E-03
            4926            5108     33.6988E-03     33.1697E-03
            4926            5109     34.1198E-03     33.2967E-03
            4927            5092     35.1741E-03     35.1516E-03
            4927            5093     34.6546E-03     34.4218E-03
            4927            5109     34.1198E-03     33.2967E-03
            4927            5110     33.7768E-03     32.8282E-03
            4928            5093     34.6546E-03     34.4218E-03
            4928            5094     33.7024E-03     33.3424E-03
            4928            5110     33.7768E-03     32.8282E-03
            4928            5111     32.9583E-03     31.9376E-03
            4929            5094     33.7024E-03     33.3424E-03
            4929            5095     32.4584E-03     32.0208E-03
            4929            5111     32.9583E-03     31.9376E-03
            4929            5112     31.8109E-03     30.7712E-03
            4930            5095     32.4584E-03     32.0208E-03
            4930            5096     31.0538E-03     30.5685E-03
            4930            5112     31.8109E-03     30.7712E-03
            4930            5113     30.4845E-03     29.4399E-03
            4931            5096     31.0538E-03     30.5685E-03
            4931            5097     29.5514E-03     29.0421E-03
            4931            5113     30.4845E-03     29.4399E-03
            4931            5114     29.0400E-03     27.9968E-03
            4932            5097     29.5514E-03     29.0421E-03
            4932            5098     27.9953E-03     27.4699E-03
            4932            5114     29.0400E-03     27.9968E-03
            4932            5115     27.5158E-03     26.4765E-03
            4933            5098     27.9953E-03     27.4699E-03
            4933            5099     26.3724E-03     25.8471E-03
            4933            5115     27.5158E-03     26.4765E-03
            4933            5116     25.9141E-03     24.8766E-03
            4934            5099     26.3724E-03     25.8471E-03
            4934            5100     24.6577E-03     24.1509E-03
            4934            5116     25.9141E-03     24.8766E-03
            4934            5117     24.2176E-03     23.1832E-03
            4935            5100     24.6577E-03     24.1509E-03
            4935            5101     22.7763E-03     22.3410E-03
            4935            5117     24.2176E-03     23.1832E-03
            4935            5118     22.3633E-03     21.3554E-03
            4936            5101     22.7763E-03     22.3410E-03
            4936            5102     20.6347E-03     20.3597E-03
            4936            5118     22.3633E-03     21.3554E-03
            4936            5119     20.2899E-03     19.3685E-03
            4937            5102     20.6347E-03     20.3597E-03
            4937            5103     18.0982E-03     18.2521E-03
            4937            5119     20.2899E-03     19.3685E-03
            4937            5120     17.8450E-03     17.2203E-03
            4938            5103     18.0982E-03     18.2521E-03
            4938            5104     15.6412E-03     16.2454E-03
            4938            5120     17.8450E-03     17.2203E-03
            4938            5121     14.9758E-03     15.3045E-03
            4939            5104     15.6412E-03     16.2454E-03
            4939            5105     14.7487E-03     15.0841E-03
            4939            5121     14.9758E-03     15.3045E-03
            4939            5122     13.9769E-03     14.7045E-03
            4940             723     14.9222E-03     14.8595E-03
            4940             724     14.4943E-03     14.9077E-03
            4940            5105     14.7487E-03     15.0841E-03
            4940            5122     13.9769E-03     14.7045E-03
            4941             668     37.2651E-03     36.3211E-03
            4941             669     32.0107E-03     31.4153E-03
            4941            5106     34.5192E-03     34.0793E-03
            4941            5123     30.9693E-03     30.0929E-03
            4942            5106     34.5192E-03     34.0793E-03
            4942            5107     32.5034E-03     32.3808E-03
            4942            5123     30.9693E-03     30.0929E-03
            4942            5124     31.2145E-03     29.7320E-03
            4943            5107     32.5034E-03     32.3808E-03
            4943            5108     33.6988E-03     33.1697E-03
            4943            5124     31.2145E-03     29.7320E-03
            4943            5125     32.6705E-03     30.8680E-03
            4944            5108     33.6988E-03     33.1697E-03
            4944            5109     34.1198E-03     33.2967E-03
            4944            5125     32.6705E-03     30.8680E-03
            4944            5126     32.8673E-03     31.0597E-03
            4945            5109     34.1198E-03     33.2967E-03
            4945            5110     33.7768E-03     32.8282E-03
            4945            5126     32.8673E-03     31.0597E-03
            4945            5127     32.5597E-03     30.7772E-03
            4946            5110     33.7768E-03     32.8282E-03
            4946            5111     32.9583E-03     31.9376E-03
            4946            5127     32.5597E-03     30.7772E-03
            4946            5128     31.7826E-03     30.0702E-03
            4947            5111     32.9583E-03     31.9376E-03
            4947            5112     31.8109E-03     30.7712E-03
            4947            5128     31.7826E-03     30.0702E-03
            4947            5129     30.7618E-03     29.1066E-03
            4948            5112     31.8109E-03     30.7712E-03
            4948            5113     30.4845E-03     29.4399E-03
            4948            5129     30.7618E-03     29.1066E-03
            4948            5130     29.5408E-03     27.9375E-03
            4949            5113     30.4845E-03     29.4399E-03
            4949            5114     29.0400E-03     27.9968E-03
            4949            5130     29.5408E-03     27.9375E-03
            4949            5131     28.1958E-03     26.6343E-03
            4950            5114     29.0400E-03     27.9968E-03
            4950            5115     27.5158E-03     26.4765E-03
            4950            5131     28.1958E-03     26.6343E-03
            4950            5132     26.7443E-03     25.2099E-03
            4951            5115     27.5158E-03     26.4765E-03
            4951            5116     25.9141E-03     24.8766E-03
            4951            5132     26.7443E-03     25.2099E-03
            4951            5133     25.2023E-03     23.6858E-03
            4952            5116     25.9141E-03     24.8766E-03
            4952            5117     24.2176E-03     23.1832E-03
            4952            5133     25.2023E-03     23.6858E-03
            4952            5134     23.5572E-03     22.0418E-03
            4953            5117     24.2176E-03     23.1832E-03
            4953            5118     22.3633E-03     21.3554E-03
            4953            5134     23.5572E-03     22.0418E-03
            4953            5135     21.8042E-03     20.2777E-03
            4954            5118     22.3633E-03     21.3554E-03
            4954            5119     20.2899E-03     19.3685E-03
            4954            5135     21.8042E-03     20.2777E-03
            4954            5136     19.8926E-03     18.3592E-03
            4955            5119     20.2899E-03     19.3685E-03
            4955            5120     17.8450E-03     17.2203E-03
            4955            5136     19.8926E-03     18.3592E-03
            4955            5137     17.8305E-03     16.3652E-03
            4956            5120     17.8450E-03     17.2203E-03
            4956            5121     14.9758E-03     15.3045E-03
            4956            5137     17.8305E-03     16.3652E-03
            4956            5138     15.4168E-03     14.5580E-03
            4957            5121     14.9758E-03     15.3045E-03
            4957            5122     13.9769E-03     14.7045E-03
            4957            5138     15.4168E-03     14.5580E-03
            4957            5139     13.6889E-03     15.0111E-03
            4958             724     14.4943E-03     14.9077E-03
            4958             725     13.3227E-03     16.2855E-03
            4958            5122     13.9769E-03     14.7045E-03
            4958            5139     13.6889E-03     15.0111E-03
            4959             669     32.0107E-03     31.4153E-03
            4959             670     28.2005E-03     31.2070E-03
            4959            5123     30.9693E-03     30.0929E-03
            4959            5140     24.5751E-03     26.8423E-03
            4960            5123     30.9693E-03     30.0929E-03
            4960            5124     31.2145E-03     29.7320E-03
            4960            5140     24.5751E-03     26.8423E-03
            4960            5141     20.8307E-03     21.7932E-03
            4961            5124     31.2145E-03     29.7320E-03
            4961            5125     32.6705E-03     30.8680E-03
            4961            5141     20.8307E-03     21.7932E-03
            4961            5142     20.1486E-03     20.8255E-03
            4962            5125     32.6705E-03     30.8680E-03
            4962            5126     32.8673E-03     31.0597E-03
            4962            5142     20.1486E-03     20.8255E-03
            4962            5143     19.4522E-03     20.3503E-03
            4963            5126     32.8673E-03     31.0597E-03
            4963            5127     32.5597E-03     30.7772E-03
            4963            5143     19.4522E-03     20.3503E-03
            4963            5144     19.0722E-03     20.0248E-03
            4964            5127     32.5597E-03     30.7772E-03
            4964            5128     31.7826E-03     30.0702E-03
            4964            5144     19.0722E-03     20.0248E-03
            4964            5145     18.5754E-03     19.6086E-03
            4965            5128     31.7826E-03     30.0702E-03
            4965            5129     30.7618E-03     29.1066E-03
            4965            5145     18.5754E-03     19.6086E-03
            4965            5146     17.9933E-03     19.0441E-03
            4966            5129     30.7618E-03     29.1066E-03
            4966            5130     29.5408E-03     27.9375E-03
            4966            5146     17.9933E-03     19.0441E-03
            4966            5147     17.3122E-03     18.3887E-03
            4967            5130     29.5408E-03     27.9375E-03
            4967            5131     28.1958E-03     26.6343E-03
            4967            5147     17.3122E-03     18.3887E-03
            4967            5148     16.5597E-03     17.6295E-03
            4968            5131     28.1958E-03     26.6343E-03
            4968            5132     26.7443E-03     25.2099E-03
            4968            5148     16.5597E-03     17.6295E-03
            4968            5149     15.7491E-03     16.8120E-03
            4969            5132     26.7443E-03     25.2099E-03
            4969            5133     25.2023E-03     23.6858E-03
            4969            5149     15.7491E-03     16.8120E-03
            4969            5150     14.8858E-03     15.9179E-03
            4970            5133     25.2023E-03     23.6858E-03
            4970            5134     23.5572E-03     22.0418E-03
            4970            5150     14.8858E-03     15.9179E-03
            4970            5151     13.9783E-03     14.9704E-03
            4971            5134     23.5572E-03     22.0418E-03
            4971            5135     21.8042E-03     20.2777E-03
            4971            5151     13.9783E-03     14.9704E-03
            4971            5152     13.0117E-03     13.9426E-03
            4972            5135     21.8042E-03     20.2777E-03
            4972            5136     19.8926E-03     18.3592E-03
            4972            5152     13.0117E-03     13.9426E-03
            4972            5153     11.9787E-03     12.8690E-03
            4973            5136     19.8926E-03     18.3592E-03
            4973            5137     17.8305E-03     16.3652E-03
            4973            5153     11.9787E-03     12.8690E-03
            4973            5154     10.9163E-03     11.8331E-03
            4974            5137     17.8305E-03     16.3652E-03
            4974            5138     15.4168E-03     14.5580E-03
            4974            5154     10.9163E-03     11.8331E-03
            4974            5155     10.0686E-03     11.3232E-03
            4975            5138     15.4168E-03     14.5580E-03
            4975            5139     13.6889E-03     15.0111E-03
            4975            5155     10.0686E-03     11.3232E-03
            4975            5156     10.9685E-03     14.1540E-03
            4976             725     13.3227E-03     16.2855E-03
            4976             726     12.1716E-03     16.9897E-03
            4976            5139     13.6889E-03     15.0111E-03
            4976            5156     10.9685E-03     14.1540E-03
            4977             670     28.2005E-03     31.2070E-03
            4977             671     27.0882E-03     29.2414E-03
            4977            5140     24.5751E-03     26.8423E-03
            4977            5157     19.7720E-03     22.5712E-03
            4978            5140     24.5751E-03     26.8423E-03
            4978            5141     20.8307E-03     21.7932E-03
            4978            5157     19.7720E-03     22.5712E-03
            4978            5158     10.5695E-03     13.8006E-03
            4979            5141     20.8307E-03     21.7932E-03
            4979            5142     20.1486E-03     20.8255E-03
            4979            5158     10.5695E-03     13.8006E-03
            4979            5159     7.95604E-03     11.0707E-03
            4980            5142     20.1486E-03     20.8255E-03
            4980            5143     19.4522E-03     20.3503E-03
            4980            5159     7.95604E-03     11.0707E-03
            4980            5160     7.03037E-03     10.2088E-03
            4981            5143     19.4522E-03     20.3503E-03
            4981            5144     19.0722E-03     20.0248E-03
            4981            5160     7.03037E-03     10.2088E-03
            4981            5161     6.72170E-03     9.87440E-03
            4982            5144     19.0722E-03     20.0248E-03
            4982            5145     18.5754E-03     19.6086E-03
            4982            5161     6.72170E-03     9.87440E-03
            4982            5162     6.50917E-03     9.65169E-03
            4983            5145     18.5754E-03     19.6086E-03
            4983            5146     17.9933E-03     19.0441E-03
            4983            5162     6.50917E-03     9.65169E-03
            4983            5163     6.29926E-03     9.40374E-03
            4984            5146     17.9933E-03     19.0441E-03
            4984            5147     17.3122E-03     18.3887E-03
            4984            5163     6.29926E-03     9.40374E-03
            4984            5164     6.06843E-03     9.13970E-03
            4985            5147     17.3122E-03     18.3887E-03
            4985            5148     16.5597E-03     17.6295E-03
            4985            5164     6.06843E-03     9.13970E-03
            4985            5165     5.82790E-03     8.85464E-03
            4986            5148     16.5597E-03     17.6295E-03
            4986            5149     15.7491E-03     16.8120E-03
            4986            5165     5.82790E-03     8.85464E-03
            4986            5166     5.58634E-03     8.56680E-03
            4987            5149     15.7491E-03     16.8120E-03
            4987            5150     14.8858E-03     15.9179E-03
            4987            5166     5.58634E-03     8.56680E-03
            4987            5167     5.34948E-03     8.27089E-03
            4988            5150     14.8858E-03     15.9179E-03
            4988            5151     13.9783E-03     14.9704E-03
            4988            5167     5.34948E-03     8.27089E-03
            4988            5168     5.12112E-03     7.97467E-03
            4989            5151     13.9783E-03     14.9704E-03
            4989            5152     13.0117E-03     13.9426E-03
            4989            5168     5.12112E-03     7.97467E-03
            4989            5169     4.89146E-03     7.66731E-03
            4990            5152     13.0117E-03     13.9426E-03
            4990            5153     11.9787E-03     12.8690E-03
            4990            5169     4.89146E-03     7.66731E-03
            4990            5170     4.67945E-03     7.39585E-03
            4991            5153     11.9787E-03     12.8690E-03
            4991            5154     10.9163E-03     11.8331E-03
            4991            5170     4.67945E-03     7.39585E-03
            4991            5171     4.33670E-03     7.18029E-03
            4992            5154     10.9163E-03     11.8331E-03
            4992            5155     10.0686E-03     11.3232E-03
            4992            5171     4.33670E-03     7.18029E-03
            4992            5172     4.73166E-03     7.72259E-03
            4993            5155     10.0686E-03     11.3232E-03
            4993            5156     10.9685E-03     14.1540E-03
            4993            5172     4.73166E-03     7.72259E-03
            4993            5173     8.37365E-03     11.0597E-03
            4994             726     12.1716E-03     16.9897E-03
            4994             727     11.3760E-03     13.7427E-03
            4994            5156     10.9685E-03     14.1540E-03
            4994            5173     8.37365E-03     11.0597E-03
            4995             671     27.0882E-03     29.2414E-03
            4995             672     24.5767E-03     22.9263E-03
            4995            5157     19.7720E-03     22.5712E-03
            4995            5174     18.9961E-03     18.1802E-03
            4996            5157     19.7720E-03     22.5712E-03
            4996            5158     10.5695E-03     13.8006E-03
            4996            5174     18.9961E-03     18.1802E-03
            4996            5175     10.9266E-03     11.6446E-03
            4997            5158     10.5695E-03     13.8006E-03
            4997            5159     7.95604E-03     11.0707E-03
            4997            5175     10.9266E-03     11.6446E-03
            4997            5176     8.28218E-03     9.57678E-03
            4998            5159     7.95604E-03     11.0707E-03
            4998            5160     7.03037E-03     10.2088E-03
            4998            5176     8.28218E-03     9.57678E-03
            4998            5177     7.94921E-03     9.14141E-03
            4999            5160     7.03037E-03     10.2088E-03
            4999            5161     6.72170E-03     9.87440E-03
            4999            5177     7.94921E-03     9.14141E-03
            4999            5178     7.69332E-03     8.86916E-03
            5000            5161     6.72170E-03     9.87440E-03
            5000            5162     6.50917E-03     9.65169E-03
            5000            5178     7.69332E-03     8.86916E-03
            5000            5179     7.48915E-03     8.63938E-03
            5001            5162     6.50917E-03     9.65169E-03
            5001            5163     6.29926E-03     9.40374E-03
            5001            5179     7.48915E-03     8.63938E-03
            5001            5180     7.23585E-03     8.38108E-03
            5002            5163     6.29926E-03     9.40374E-03
            5002            5164     6.06843E-03     9.13970E-03
            5002            5180     7.23585E-03     8.38108E-03
            5002            5181     6.96424E-03     8.09274E-03
            5003            5164     6.06843E-03     9.13970E-03
            5003            5165     5.82790E-03     8.85464E-03
            5003            5181     6.96424E-03     8.09274E-03
            5003            5182     6.68291E-03     7.80189E-03
            5004            5165     5.82790E-03     8.85464E-03
            5004            5166     5.58634E-03     8.56680E-03
            5004            5182     6.68291E-03     7.80189E-03
            5004            5183     6.40299E-03     7.50488E-03
            5005            5166     5.58634E-03     8.56680E-03
            5005            5167     5.34948E-03     8.27089E-03
            5005            5183     6.40299E-03     7.50488E-03
            5005            5184     6.13265E-03     7.21866E-03
            5006            5167     5.34948E-03     8.27089E-03
            5006            5168     5.12112E-03     7.97467E-03
            5006            5184     6.13265E-03     7.21866E-03
            5006            5185     5.87694E-03     6.93704E-03
            5007            5168     5.12112E-03     7.97467E-03
            5007            5169     4.89146E-03     7.66731E-03
            5007            5185     5.87694E-03     6.93704E-03
            5007            5186     5.65512E-03     6.68513E-03
            5008            5169     4.89146E-03     7.66731E-03
            5008            5170     4.67945E-03     7.39585E-03
            5008            5186     5.65512E-03     6.68513E-03
            5008            5187     5.46303E-03     6.44922E-03
            5009            5170     4.67945E-03     7.39585E-03
            5009            5171     4.33670E-03     7.18029E-03
            5009            5187     5.46303E-03     6.44922E-03
            5009            5188     5.23001E-03     6.22489E-03
            5010            5171     4.33670E-03     7.18029E-03
            5010            5172     4.73166E-03     7.72259E-03
            5010            5188     5.23001E-03     6.22489E-03
            5010            5189     5.16738E-03     6.13285E-03
            5011            5172     4.73166E-03     7.72259E-03
            5011            5173     8.37365E-03     11.0597E-03
            5011            5189     5.16738E-03     6.13285E-03
            5011            5190     7.29859E-03     6.88239E-03
            5012             727     11.3760E-03     13.7427E-03
            5012             728     9.35772E-03     7.63003E-03
            5012            5173     8.37365E-03     11.0597E-03
            5012            5190     7.29859E-03     6.88239E-03
            5013             672     24.5767E-03     22.9263E-03
            5013             673     21.4369E-03     20.3262E-03
            5013            5174     18.9961E-03     18.1802E-03
            5013            5191     16.1652E-03     15.2503E-03
            5014            5174     18.9961E-03     18.1802E-03
            5014            5175     10.9266E-03     11.6446E-03
            5014            5191     16.1652E-03     15.2503E-03
            5014            5192     10.5228E-03     9.71795E-03
            5015            5175     10.9266E-03     11.6446E-03
            5015            5176     8.28218E-03     9.57678E-03
            5015            5192     10.5228E-03     9.71795E-03
            5015            5193     9.73991E-03     8.88479E-03
            5016            5176     8.28218E-03     9.57678E-03
            5016            5177     7.94921E-03     9.14141E-03
            5016            5193     9.73991E-03     8.88479E-03
            5016            5194     9.19914E-03     8.34621E-03
            5017            5177     7.94921E-03     9.14141E-03
            5017            5178     7.69332E-03     8.86916E-03
            5017            5194     9.19914E-03     8.34621E-03
            5017            5195     8.87915E-03     8.01426E-03
            5018            5178     7.69332E-03     8.86916E-03
            5018            5179     7.48915E-03     8.63938E-03
            5018            5195     8.87915E-03     8.01426E-03
            5018            5196     8.54179E-03     7.67397E-03
            5019            5179     7.48915E-03     8.63938E-03
            5019            5180     7.23585E-03     8.38108E-03
            5019            5196     8.54179E-03     7.67397E-03
            5019            5197     8.22242E-03     7.35264E-03
            5020            5180     7.23585E-03     8.38108E-03
            5020            5181     6.96424E-03     8.09274E-03
            5020            5197     8.22242E-03     7.35264E-03
            5020            5198     7.90209E-03     7.04161E-03
            5021            5181     6.96424E-03     8.09274E-03
            5021            5182     6.68291E-03     7.80189E-03
            5021            5198     7.90209E-03     7.04161E-03
            5021            5199     7.59095E-03     6.73125E-03
            5022            5182     6.68291E-03     7.80189E-03
            5022            5183     6.40299E-03     7.50488E-03
            5022            5199     7.59095E-03     6.73125E-03
            5022            5200     7.28253E-03     6.43222E-03
            5023            5183     6.40299E-03     7.50488E-03
            5023            5184     6.13265E-03     7.21866E-03
            5023            5200     7.28253E-03     6.43222E-03
            5023            5201     6.98605E-03     6.13866E-03
            5024            5184     6.13265E-03     7.21866E-03
            5024            5185     5.87694E-03     6.93704E-03
            5024            5201     6.98605E-03     6.13866E-03
            5024            5202     6.70895E-03     5.87162E-03
            5025            5185     5.87694E-03     6.93704E-03
            5025            5186     5.65512E-03     6.68513E-03
            5025            5202     6.70895E-03     5.87162E-03
            5025            5203     6.46113E-03     5.63135E-03
            5026            5186     5.65512E-03     6.68513E-03
            5026            5187     5.46303E-03     6.44922E-03
            5026            5203     6.46113E-03     5.63135E-03
            5026            5204     6.21028E-03     5.38177E-03
            5027            5187     5.46303E-03     6.44922E-03
            5027            5188     5.23001E-03     6.22489E-03
            5027            5204     6.21028E-03     5.38177E-03
            5027            5205     5.98678E-03     5.07184E-03
            5028            5188     5.23001E-03     6.22489E-03
            5028            5189     5.16738E-03     6.13285E-03
            5028            5205     5.98678E-03     5.07184E-03
            5028            5206     4.68773E-03     3.90682E-03
            5029            5189     5.16738E-03     6.13285E-03
            5029            5190     7.29859E-03     6.88239E-03
            5029            5206     4.68773E-03     3.90682E-03
            5029            5207     5.57978E-03     4.57002E-03
            5030             728     9.35772E-03     7.63003E-03
            5030             729     7.67525E-03     6.21960E-03
            5030            5190     7.29859E-03     6.88239E-03
            5030            5207     5.57978E-03     4.57002E-03
            5031             673     21.4369E-03     20.3262E-03
            5031             674     18.6960E-03     19.9990E-03
            5031            5191     16.1652E-03     15.2503E-03
            5031            5208     14.1412E-03     14.5134E-03
            5032            5191     16.1652E-03     15.2503E-03
            5032            5192     10.5228E-03     9.71795E-03
            5032            5208     14.1412E-03     14.5134E-03
            5032            5209     10.3886E-03     8.86000E-03
            5033            5192     10.5228E-03     9.71795E-03
            5033            5193     9.73991E-03     8.88479E-03
            5033            5209     10.3886E-03     8.86000E-03
            5033            5210     10.8968E-03     8.24760E-03
            5034            5193     9.73991E-03     8.88479E-03
            5034            5194     9.19914E-03     8.34621E-03
            5034            5210     10.8968E-03     8.24760E-03
            5034            5211     10.3769E-03     7.56890E-03
            5035            5194     9.19914E-03     8.34621E-03
            5035            5195     8.87915E-03     8.01426E-03
            5035            5211     10.3769E-03     7.56890E-03
            5035            5212     9.96625E-03     7.09237E-03
            5036            5195     8.87915E-03     8.01426E-03
            5036            5196     8.54179E-03     7.67397E-03
            5036            5212     9.96625E-03     7.09237E-03
            5036            5213     9.56289E-03     6.66911E-03
            5037            5196     8.54179E-03     7.67397E-03
            5037            5197     8.22242E-03     7.35264E-03
            5037            5213     9.56289E-03     6.66911E-03
            5037            5214     9.19132E-03     6.30472E-03
            5038            5197     8.22242E-03     7.35264E-03
            5038            5198     7.90209E-03     7.04161E-03
            5038            5214     9.19132E-03     6.30472E-03
            5038            5215     8.85426E-03     5.97026E-03
            5039            5198     7.90209E-03     7.04161E-03
            5039            5199     7.59095E-03     6.73125E-03
            5039            5215     8.85426E-03     5.97026E-03
            5039            5216     8.51820E-03     5.65438E-03
            5040            5199     7.59095E-03     6.73125E-03
            5040            5200     7.28253E-03     6.43222E-03
            5040            5216     8.51820E-03     5.65438E-03
            5040            5217     8.19740E-03     5.34394E-03
            5041            5200     7.28253E-03     6.43222E-03
            5041            5201     6.98605E-03     6.13866E-03
            5041            5217     8.19740E-03     5.34394E-03
            5041            5218     7.87314E-03     5.04322E-03
            5042            5201     6.98605E-03     6.13866E-03
            5042            5202     6.70895E-03     5.87162E-03
            5042            5218     7.87314E-03     5.04322E-03
            5042            5219     7.55922E-03     4.74083E-03
            5043            5202     6.70895E-03     5.87162E-03
            5043            5203     6.46113E-03     5.63135E-03
            5043            5219     7.55922E-03     4.74083E-03
            5043            5220     7.22809E-03     4.42646E-03
            5044            5203     6.46113E-03     5.63135E-03
            5044            5204     6.21028E-03     5.38177E-03
            5044            5220     7.22809E-03     4.42646E-03
            5044            5221     6.84401E-03     4.03172E-03
            5045            5204     6.21028E-03     5.38177E-03
            5045            5205     5.98678E-03     5.07184E-03
            5045            5221     6.84401E-03     4.03172E-03
            5045            5222     6.16465E-03     3.27822E-03
            5046            5205     5.98678E-03     5.07184E-03
            5046            5206     4.68773E-03     3.90682E-03
            5046            5222     6.16465E-03     3.27822E-03
            5046            5223     4.48360E-03     2.31840E-03
            5047            5206     4.68773E-03     3.90682E-03
            5047            5207     5.57978E-03     4.57002E-03
            5047            5223     4.48360E-03     2.31840E-03
            5047            5224     4.84860E-03     5.46318E-03
            5048             729     7.67525E-03     6.21960E-03
            5048             730     6.42669E-03     9.04177E-03
            5048            5207     5.57978E-03     4.57002E-03
            5048            5224     4.84860E-03     5.46318E-03
            5049              13     8.87835E-03     10.8818E-03
            5049             674     18.6960E-03     19.9990E-03
            5049             747     7.26268E-03     8.00865E-03
            5049            5208     14.1412E-03     14.5134E-03
            5050             746     5.71643E-03     4.72315E-03
            5050             747     7.26268E-03     8.00865E-03
            5050            5208     14.1412E-03     14.5134E-03
            5050            5209     10.3886E-03     8.86000E-03
            5051             745     5.80405E-03     4.16594E-03
            5051             746     5.71643E-03     4.72315E-03
            5051            5209     10.3886E-03     8.86000E-03
            5051            5210     10.8968E-03     8.24760E-03
            5052             744     5.67398E-03     3.84319E-03
            5052             745     5.80405E-03     4.16594E-03
            5052            5210     10.8968E-03     8.24760E-03
            5052            5211     10.3769E-03     7.56890E-03
            5053             743     5.44455E-03     3.54435E-03
            5053             744     5.67398E-03     3.84319E-03
            5053            5211     10.3769E-03     7.56890E-03
            5053            5212     9.96625E-03     7.09237E-03
            5054             742     5.24480E-03     3.32547E-03
            5054             743     5.44455E-03     3.54435E-03
            5054            5212     9.96625E-03     7.09237E-03
            5054            5213     9.56289E-03     6.66911E-03
            5055             741     5.04882E-03     3.13274E-03
            5055             742     5.24480E-03     3.32547E-03
            5055            5213     9.56289E-03     6.66911E-03
            5055            5214     9.19132E-03     6.30472E-03
            5056             740     4.87442E-03     2.95375E-03
            5056             741     5.04882E-03     3.13274E-03
            5056            5214     9.19132E-03     6.30472E-03
            5056            5215     8.85426E-03     5.97026E-03
            5057             739     4.69848E-03     2.79139E-03
            5057             740     4.87442E-03     2.95375E-03
            5057            5215     8.85426E-03     5.97026E-03
            5057            5216     8.51820E-03     5.65438E-03
            5058             738     4.53028E-03     2.62462E-03
            5058             739     4.69848E-03     2.79139E-03
            5058            5216     8.51820E-03     5.65438E-03
            5058            5217     8.19740E-03     5.34394E-03
            5059             737     4.35964E-03     2.46923E-03
            5059             738     4.53028E-03     2.62462E-03
            5059            5217     8.19740E-03     5.34394E-03
            5059            5218     7.87314E-03     5.04322E-03
            5060             736     4.18411E-03     2.29312E-03
            5060             737     4.35964E-03     2.46923E-03
            5060            5218     7.87314E-03     5.04322E-03
            5060            5219     7.55922E-03     4.74083E-03
            5061             735     3.99700E-03     2.10759E-03
            5061             736     4.18411E-03     2.29312E-03
            5061            5219     7.55922E-03     4.74083E-03
            5061            5220     7.22809E-03     4.42646E-03
            5062             734     3.74256E-03     1.83595E-03
            5062             735     3.99700E-03     2.10759E-03
            5062            5220     7.22809E-03     4.42646E-03
            5062            5221     6.84401E-03     4.03172E-03
            5063             733     3.25768E-03     1.30679E-03
            5063             734     3.74256E-03     1.83595E-03
            5063            5221     6.84401E-03     4.03172E-03
            5063            5222     6.16465E-03     3.27822E-03
            5064             732     2.51101E-03     1.16015E-03
            5064             733     3.25768E-03     1.30679E-03
            5064            5222     6.16465E-03     3.27822E-03
            5064            5223     4.48360E-03     2.31840E-03
            5065             731     2.42831E-03     3.54115E-03
            5065             732     2.51101E-03     1.16015E-03
            5065            5223     4.48360E-03     2.31840E-03
            5065            5224     4.84860E-03     5.46318E-03
            5066              26     2.76892E-03     5.73500E-03
            5066             730     6.42669E-03     9.04177E-03
            5066             731     2.42831E-03     3.54115E-03
            5066            5224     4.84860E-03     5.46318E-03
            5175              22     238.116E-03     249.540E-03
            5175             569     232.229E-03     239.936E-03
            5175             629     252.372E-03     252.713E-03
            5175            5310     248.273E-03     249.370E-03
            5176             568     224.312E-03     227.722E-03
            5176             569     232.229E-03     239.936E-03
            5176            5310     248.273E-03     249.370E-03
            5176            5311     236.954E-03     240.125E-03
            5177             567     219.015E-03     222.532E-03
            5177             568     224.312E-03     227.722E-03
            5177            5311     236.954E-03     240.125E-03
            5177            5312     225.855E-03     230.877E-03
            5178             566     213.705E-03     217.497E-03
            5178             567     219.015E-03     222.532E-03
            5178            5312     225.855E-03     230.877E-03
            5178            5313     217.962E-03     223.780E-03
            5179             565     208.693E-03     212.261E-03
            5179             566     213.705E-03     217.497E-03
            5179            5313     217.962E-03     223.780E-03
            5179            5314     210.630E-03     217.171E-03
            5180             564     203.472E-03     207.095E-03
            5180             565     208.693E-03     212.261E-03
            5180            5314     210.630E-03     217.171E-03
            5180            5315     204.282E-03     211.432E-03
            5181             563     198.524E-03     202.027E-03
            5181             564     203.472E-03     207.095E-03
            5181            5315     204.282E-03     211.432E-03
            5181            5316     198.448E-03     206.131E-03
            5182             562     193.672E-03     197.150E-03
            5182             563     198.524E-03     202.027E-03
            5182            5316     198.448E-03     206.131E-03
            5182            5317     193.142E-03     201.327E-03
            5183             561     189.066E-03     192.521E-03
            5183             562     193.672E-03     197.150E-03
            5183            5317     193.142E-03     201.327E-03
            5183            5318     188.255E-03     196.824E-03
            5184             560     184.728E-03     188.227E-03
            5184             561     189.066E-03     192.521E-03
            5184            5318     188.255E-03     196.824E-03
            5184            5319     183.738E-03     192.621E-03
            5185             559     180.538E-03     184.102E-03
            5185             560     184.728E-03     188.227E-03
            5185            5319     183.738E-03     192.621E-03
            5185            5320     179.466E-03     188.573E-03
            5186             558     176.499E-03     180.251E-03
            5186             559     180.538E-03     184.102E-03
            5186            5320     179.466E-03     188.573E-03
            5186            5321     175.328E-03     184.514E-03
            5187             557     172.060E-03     175.935E-03
            5187             558     176.499E-03     180.251E-03
            5187            5321     175.328E-03     184.514E-03
            5187            5322     170.898E-03     180.083E-03
            5188             556     166.830E-03     170.845E-03
            5188             557     172.060E-03     175.935E-03
            5188            5322     170.898E-03     180.083E-03
            5188            5323     165.480E-03     174.306E-03
            5189             555     158.563E-03     162.370E-03
            5189             556     166.830E-03     170.845E-03
            5189            5323     165.480E-03     174.306E-03
            5189            5324     157.318E-03     165.145E-03
            5190             554     148.821E-03     152.404E-03
            5190             555     158.563E-03     162.370E-03
            5190            5324     157.318E-03     165.145E-03
            5190            5325     145.736E-03     153.028E-03
            5191             553     135.103E-03     136.727E-03
            5191             554     148.821E-03     152.404E-03
            5191            5325     145.736E-03     153.028E-03
            5191            5326     125.958E-03     128.482E-03
            5192              23     125.388E-03     124.903E-03
            5192             553     135.103E-03     136.727E-03
            5192             608     112.579E-03     110.335E-03
            5192            5326     125.958E-03     128.482E-03
            5193             628     241.967E-03     242.500E-03
            5193             629     252.372E-03     252.713E-03
            5193            5310     248.273E-03     249.370E-03
            5193            5327     240.701E-03     243.462E-03
            5194            5310     248.273E-03     249.370E-03
            5194            5311     236.954E-03     240.125E-03
            5194            5327     240.701E-03     243.462E-03
            5194            5328     235.430E-03     240.119E-03
            5195            5311     236.954E-03     240.125E-03
            5195            5312     225.855E-03     230.877E-03
            5195            5328     235.430E-03     240.119E-03
            5195            5329     226.983E-03     232.207E-03
            5196            5312     225.855E-03     230.877E-03
            5196            5313     217.962E-03     223.780E-03
            5196            5329     226.983E-03     232.207E-03
            5196            5330     219.376E-03     225.295E-03
            5197            5313     217.962E-03     223.780E-03
            5197            5314     210.630E-03     217.171E-03
            5197            5330     219.376E-03     225.295E-03
            5197            5331     213.093E-03     218.980E-03
            5198            5314     210.630E-03     217.171E-03
            5198            5315     204.282E-03     211.432E-03
            5198            5331     213.093E-03     218.980E-03
            5198            5332     207.250E-03     213.390E-03
            5199            5315     204.282E-03     211.432E-03
            5199            5316     198.448E-03     206.131E-03
            5199            5332     207.250E-03     213.390E-03
            5199            5333     202.033E-03     208.378E-03
            5200            5316     198.448E-03     206.131E-03
            5200            5317     193.142E-03     201.327E-03
            5200            5333     202.033E-03     208.378E-03
            5200            5334     197.204E-03     203.765E-03
            5201            5317     193.142E-03     201.327E-03
            5201            5318     188.255E-03     196.824E-03
            5201            5334     197.204E-03     203.765E-03
            5201            5335     192.810E-03     199.568E-03
            5202            5318     188.255E-03     196.824E-03
            5202            5319     183.738E-03     192.621E-03
            5202            5335     192.810E-03     199.568E-03
            5202            5336     188.763E-03     195.650E-03
            5203            5319     183.738E-03     192.621E-03
            5203            5320     179.466E-03     188.573E-03
            5203            5336     188.763E-03     195.650E-03
            5203            5337     185.124E-03     192.127E-03
            5204            5320     179.466E-03     188.573E-03
            5204            5321     175.328E-03     184.514E-03
            5204            5337     185.124E-03     192.127E-03
            5204            5338     181.843E-03     188.836E-03
            5205            5321     175.328E-03     184.514E-03
            5205            5322     170.898E-03     180.083E-03
            5205            5338     181.843E-03     188.836E-03
            5205            5339     178.816E-03     185.836E-03
            5206            5322     170.898E-03     180.083E-03
            5206            5323     165.480E-03     174.306E-03
            5206            5339     178.816E-03     185.836E-03
            5206            5340     175.493E-03     182.361E-03
            5207            5323     165.480E-03     174.306E-03
            5207            5324     157.318E-03     165.145E-03
            5207            5340     175.493E-03     182.361E-03
            5207            5341     169.992E-03     176.350E-03
            5208            5324     157.318E-03     165.145E-03
            5208            5325     145.736E-03     153.028E-03
            5208            5341     169.992E-03     176.350E-03
            5208            5342     157.841E-03     161.804E-03
            5209            5325     145.736E-03     153.028E-03
            5209            5326     125.958E-03     128.482E-03
            5209            5342     157.841E-03     161.804E-03
            5209            5343     130.584E-03     128.952E-03
            5210             607     111.906E-03     106.780E-03
            5210             608     112.579E-03     110.335E-03
            5210            5326     125.958E-03     128.482E-03
            5210            5343     130.584E-03     128.952E-03
            5211             627     226.782E-03     230.712E-03
            5211             628     241.967E-03     242.500E-03
            5211            5327     240.701E-03     243.462E-03
            5211            5344     228.034E-03     232.761E-03
            5212            5327     240.701E-03     243.462E-03
            5212            5328     235.430E-03     240.119E-03
            5212            5344     228.034E-03     232.761E-03
            5212            5345     228.274E-03     233.764E-03
            5213            5328     235.430E-03     240.119E-03
            5213            5329     226.983E-03     232.207E-03
            5213            5345     228.274E-03     233.764E-03
            5213            5346     224.479E-03     229.487E-03
            5214            5329     226.983E-03     232.207E-03
            5214            5330     219.376E-03     225.295E-03
            5214            5346     224.479E-03     229.487E-03
            5214            5347     219.145E-03     223.705E-03
            5215            5330     219.376E-03     225.295E-03
            5215            5331     213.093E-03     218.980E-03
            5215            5347     219.145E-03     223.705E-03
            5215            5348     214.175E-03     218.630E-03
            5216            5331     213.093E-03     218.980E-03
            5216            5332     207.250E-03     213.390E-03
            5216            5348     214.175E-03     218.630E-03
            5216            5349     209.498E-03     213.834E-03
            5217            5332     207.250E-03     213.390E-03
            5217            5333     202.033E-03     208.378E-03
            5217            5349     209.498E-03     213.834E-03
            5217            5350     205.109E-03     209.436E-03
            5218            5333     202.033E-03     208.378E-03
            5218            5334     197.204E-03     203.765E-03
            5218            5350     205.109E-03     209.436E-03
            5218            5351     201.058E-03     205.369E-03
            5219            5334     197.204E-03     203.765E-03
            5219            5335     192.810E-03     199.568E-03
            5219            5351     201.058E-03     205.369E-03
            5219            5352     197.262E-03     201.555E-03
            5220            5335     192.810E-03     199.568E-03
            5220            5336     188.763E-03     195.650E-03
            5220            5352     197.262E-03     201.555E-03
            5220            5353     193.827E-03     198.123E-03
            5221            5336     188.763E-03     195.650E-03
            5221            5337     185.124E-03     192.127E-03
            5221            5353     193.827E-03     198.123E-03
            5221            5354     190.736E-03     194.964E-03
            5222            5337     185.124E-03     192.127E-03
            5222            5338     181.843E-03     188.836E-03
            5222            5354     190.736E-03     194.964E-03
            5222            5355     188.163E-03     192.423E-03
            5223            5338     181.843E-03     188.836E-03
            5223            5339     178.816E-03     185.836E-03
            5223            5355     188.163E-03     192.423E-03
            5223            5356     186.018E-03     190.181E-03
            5224            5339     178.816E-03     185.836E-03
            5224            5340     175.493E-03     182.361E-03
            5224            5356     186.018E-03     190.181E-03
            5224            5357     183.958E-03     188.273E-03
            5225            5340     175.493E-03     182.361E-03
            5225            5341     169.992E-03     176.350E-03
            5225            5357     183.958E-03     188.273E-03
            5225            5358     180.431E-03     184.905E-03
            5226            5341     169.992E-03     176.350E-03
            5226            5342     157.841E-03     161.804E-03
            5226            5358     180.431E-03     184.905E-03
            5226            5359     168.451E-03     169.270E-03
            5227            5342     157.841E-03     161.804E-03
            5227            5343     130.584E-03     128.952E-03
            5227            5359     168.451E-03     169.270E-03
            5227            5360     140.292E-03     134.601E-03
            5228             606     121.544E-03     112.806E-03
            5228             607     111.906E-03     106.780E-03
            5228            5343     130.584E-03     128.952E-03
            5228            5360     140.292E-03     134.601E-03
            5229             626     213.677E-03     215.852E-03
            5229             627     226.782E-03     230.712E-03
            5229            5344     228.034E-03     232.761E-03
            5229            5361     216.153E-03     219.760E-03
            5230            5344     228.034E-03     232.761E-03
            5230            5345     228.274E-03     233.764E-03
            5230            5361     216.153E-03     219.760E-03
            5230            5362     219.002E-03     223.655E-03
            5231            5345     228.274E-03     233.764E-03
            5231            5346     224.479E-03     229.487E-03
            5231            5362     219.002E-03     223.655E-03
            5231            5363     219.254E-03     222.636E-03
            5232            5346     224.479E-03     229.487E-03
            5232            5347     219.145E-03     223.705E-03
            5232            5363     219.254E-03     222.636E-03
            5232            5364     217.562E-03     219.956E-03
            5233            5347     219.145E-03     223.705E-03
            5233            5348     214.175E-03     218.630E-03
            5233            5364     217.562E-03     219.956E-03
            5233            5365     214.497E-03     216.651E-03
            5234            5348     214.175E-03     218.630E-03
            5234            5349     209.498E-03     213.834E-03
            5234            5365     214.497E-03     216.651E-03
            5234            5366     211.352E-03     213.226E-03
            5235            5349     209.498E-03     213.834E-03
            5235            5350     205.109E-03     209.436E-03
            5235            5366     211.352E-03     213.226E-03
            5235            5367     208.114E-03     209.752E-03
            5236            5350     205.109E-03     209.436E-03
            5236            5351     201.058E-03     205.369E-03
            5236            5367     208.114E-03     209.752E-03
            5236            5368     204.921E-03     206.332E-03
            5237            5351     201.058E-03     205.369E-03
            5237            5352     197.262E-03     201.555E-03
            5237            5368     204.921E-03     206.332E-03
            5237            5369     201.863E-03     203.083E-03
            5238            5352     197.262E-03     201.555E-03
            5238            5353     193.827E-03     198.123E-03
            5238            5369     201.863E-03     203.083E-03
            5238            5370     198.929E-03     199.976E-03
            5239            5353     193.827E-03     198.123E-03
            5239            5354     190.736E-03     194.964E-03
            5239            5370     198.929E-03     199.976E-03
            5239            5371     196.306E-03     197.251E-03
            5240            5354     190.736E-03     194.964E-03
            5240            5355     188.163E-03     192.423E-03
            5240            5371     196.306E-03     197.251E-03
            5240            5372     193.930E-03     194.754E-03
            5241            5355     188.163E-03     192.423E-03
            5241            5356     186.018E-03     190.181E-03
            5241            5372     193.930E-03     194.754E-03
            5241            5373     192.010E-03     192.893E-03
            5242            5356     186.018E-03     190.181E-03
            5242            5357     183.958E-03     188.273E-03
            5242            5373     192.010E-03     192.893E-03
            5242            5374     189.982E-03     190.917E-03
            5243            5357     183.958E-03     188.273E-03
            5243            5358     180.431E-03     184.905E-03
            5243            5374     189.982E-03     190.917E-03
            5243            5375     187.010E-03     188.146E-03
            5244            5358     180.431E-03     184.905E-03
            5244            5359     168.451E-03     169.270E-03
            5244            5375     187.010E-03     188.146E-03
            5244            5376     179.298E-03     181.188E-03
            5245            5359     168.451E-03     169.270E-03
            5245            5360     140.292E-03     134.601E-03
            5245            5376     179.298E-03     181.188E-03
            5245            5377     155.029E-03     155.944E-03
            5246             605     136.846E-03     136.370E-03
            5246             606     121.544E-03     112.806E-03
            5246            5360     140.292E-03     134.601E-03
            5246            5377     155.029E-03     155.944E-03
            5247             625     197.383E-03     202.697E-03
            5247             626     213.677E-03     215.852E-03
            5247            5361     216.153E-03     219.760E-03
            5247            5378     202.011E-03     206.127E-03
            5248            5361     216.153E-03     219.760E-03
            5248            5362     219.002E-03     223.655E-03
            5248            5378     202.011E-03     206.127E-03
            5248            5379     209.998E-03     211.524E-03
            5249            5362     219.002E-03     223.655E-03
            5249            5363     219.254E-03     222.636E-03
            5249            5379     209.998E-03     211.524E-03
            5249            5380     214.287E-03     214.486E-03
            5250            5363     219.254E-03     222.636E-03
            5250            5364     217.562E-03     219.956E-03
            5250            5380     214.287E-03     214.486E-03
            5250            5381     215.404E-03     215.282E-03
            5251            5364     217.562E-03     219.956E-03
            5251            5365     214.497E-03     216.651E-03
            5251            5381     215.404E-03     215.282E-03
            5251            5382     214.941E-03     214.207E-03
            5252            5365     214.497E-03     216.651E-03
            5252            5366     211.352E-03     213.226E-03
            5252            5382     214.941E-03     214.207E-03
            5252            5383     213.390E-03     212.235E-03
            5253            5366     211.352E-03     213.226E-03
            5253            5367     208.114E-03     209.752E-03
            5253            5383     213.390E-03     212.235E-03
            5253            5384     211.385E-03     209.726E-03
            5254            5367     208.114E-03     209.752E-03
            5254            5368     204.921E-03     206.332E-03
            5254            5384     211.385E-03     209.726E-03
            5254            5385     209.103E-03     207.001E-03
            5255            5368     204.921E-03     206.332E-03
            5255            5369     201.863E-03     203.083E-03
            5255            5385     209.103E-03     207.001E-03
            5255            5386     206.665E-03     204.193E-03
            5256            5369     201.863E-03     203.083E-03
            5256            5370     198.929E-03     199.976E-03
            5256            5386     206.665E-03     204.193E-03
            5256            5387     204.269E-03     201.478E-03
            5257            5370     198.929E-03     199.976E-03
            5257            5371     196.306E-03     197.251E-03
            5257            5387     204.269E-03     201.478E-03
            5257            5388     201.838E-03     198.867E-03
            5258            5371     196.306E-03     197.251E-03
            5258            5372     193.930E-03     194.754E-03
            5258            5388     201.838E-03     198.867E-03
            5258            5389     199.593E-03     196.472E-03
            5259            5372     193.930E-03     194.754E-03
            5259            5373     192.010E-03     192.893E-03
            5259            5389     199.593E-03     196.472E-03
            5259            5390     197.139E-03     194.073E-03
            5260            5373     192.010E-03     192.893E-03
            5260            5374     189.982E-03     190.917E-03
            5260            5390     197.139E-03     194.073E-03
            5260            5391     194.711E-03     191.609E-03
            5261            5374     189.982E-03     190.917E-03
            5261            5375     187.010E-03     188.146E-03
            5261            5391     194.711E-03     191.609E-03
            5261            5392     190.712E-03     187.753E-03
            5262            5375     187.010E-03     188.146E-03
            5262            5376     179.298E-03     181.188E-03
            5262            5392     190.712E-03     187.753E-03
            5262            5393     187.318E-03     185.895E-03
            5263            5376     179.298E-03     181.188E-03
            5263            5377     155.029E-03     155.944E-03
            5263            5393     187.318E-03     185.895E-03
            5263            5394     177.694E-03     177.934E-03
            5264             604     168.390E-03     169.045E-03
            5264             605     136.846E-03     136.370E-03
            5264            5377     155.029E-03     155.944E-03
            5264            5394     177.694E-03     177.934E-03
            5265              25     160.116E-03     166.226E-03
            5265             625     197.383E-03     202.697E-03
            5265             675     162.653E-03     166.156E-03
            5265            5378     202.011E-03     206.127E-03
            5266             675     162.653E-03     166.156E-03
            5266             676     166.265E-03     166.910E-03
            5266            5378     202.011E-03     206.127E-03
            5266            5379     209.998E-03     211.524E-03
            5267             676     166.265E-03     166.910E-03
            5267             677     166.996E-03     167.462E-03
            5267            5379     209.998E-03     211.524E-03
            5267            5380     214.287E-03     214.486E-03
            5268             677     166.996E-03     167.462E-03
            5268             678     165.930E-03     166.235E-03
            5268            5380     214.287E-03     214.486E-03
            5268            5381     215.404E-03     215.282E-03
            5269             678     165.930E-03     166.235E-03
            5269             679     163.982E-03     164.008E-03
            5269            5381     215.404E-03     215.282E-03
            5269            5382     214.941E-03     214.207E-03
            5270             679     163.982E-03     164.008E-03
            5270             680     161.350E-03     161.058E-03
            5270            5382     214.941E-03     214.207E-03
            5270            5383     213.390E-03     212.235E-03
            5271             680     161.350E-03     161.058E-03
            5271             681     158.310E-03     157.699E-03
            5271            5383     213.390E-03     212.235E-03
            5271            5384     211.385E-03     209.726E-03
            5272             681     158.310E-03     157.699E-03
            5272             682     155.095E-03     154.225E-03
            5272            5384     211.385E-03     209.726E-03
            5272            5385     209.103E-03     207.001E-03
            5273             682     155.095E-03     154.225E-03
            5273             683     151.703E-03     150.571E-03
            5273            5385     209.103E-03     207.001E-03
            5273            5386     206.665E-03     204.193E-03
            5274             683     151.703E-03     150.571E-03
            5274             684     148.335E-03     147.043E-03
            5274            5386     206.665E-03     204.193E-03
            5274            5387     204.269E-03     201.478E-03
            5275             684     148.335E-03     147.043E-03
            5275             685     144.839E-03     143.395E-03
            5275            5387     204.269E-03     201.478E-03
            5275            5388     201.838E-03     198.867E-03
            5276             685     144.839E-03     143.395E-03
            5276             686     141.450E-03     139.986E-03
            5276            5388     201.838E-03     198.867E-03
            5276            5389     199.593E-03     196.472E-03
            5277             686     141.450E-03     139.986E-03
            5277             687     137.749E-03     136.223E-03
            5277            5389     199.593E-03     196.472E-03
            5277            5390     197.139E-03     194.073E-03
            5278             687     137.749E-03     136.223E-03
            5278             688     134.068E-03     132.601E-03
            5278            5390     197.139E-03     194.073E-03
            5278            5391     194.711E-03     191.609E-03
            5279             688     134.068E-03     132.601E-03
            5279             689     129.488E-03     128.026E-03
            5279            5391     194.711E-03     191.609E-03
            5279            5392     190.712E-03     187.753E-03
            5280             689     129.488E-03     128.026E-03
            5280             690     125.856E-03     124.361E-03
            5280            5392     190.712E-03     187.753E-03
            5280            5393     187.318E-03     185.895E-03
            5281             690     125.856E-03     124.361E-03
            5281             691     124.652E-03     122.100E-03
            5281            5393     187.318E-03     185.895E-03
            5281            5394     177.694E-03     177.934E-03
            5282              24     123.926E-03     120.214E-03
            5282             604     168.390E-03     169.045E-03
            5282             691     124.652E-03     122.100E-03
            5282            5394     177.694E-03     177.934E-03
            5739              13     8.87835E-03     10.8818E-03
            5739             194     858.854E-06     903.700E-06
            5739             747     7.26268E-03     8.00865E-03
            5739            5777     732.785E-06     786.443E-06
            5740             746     5.71643E-03     4.72315E-03
            5740             747     7.26268E-03     8.00865E-03
            5740            5777     732.785E-06     786.443E-06
            5740            5778     553.762E-06     615.667E-06
            5741             745     5.80405E-03     4.16594E-03
            5741             746     5.71643E-03     4.72315E-03
            5741            5778     553.762E-06     615.667E-06
            5741            5779     493.118E-06     553.844E-06
            5742             744     5.67398E-03     3.84319E-03
            5742             745     5.80405E-03     4.16594E-03
            5742            5779     493.118E-06     553.844E-06
            5742            5780     477.633E-06     535.462E-06
            5743             743     5.44455E-03     3.54435E-03
            5743             744     5.67398E-03     3.84319E-03
            5743            5780     477.633E-06     535.462E-06
            5743            5781     465.902E-06     520.540E-06
            5744             742     5.24480E-03     3.32547E-03
            5744             743     5.44455E-03     3.54435E-03
            5744            5781     465.902E-06     520.540E-06
            5744            5782     454.892E-06     507.606E-06
            5745             741     5.04882E-03     3.13274E-03
            5745             742     5.24480E-03     3.32547E-03
            5745            5782     454.892E-06     507.606E-06
            5745            5783     442.669E-06     493.513E-06
            5746             740     4.87442E-03     2.95375E-03
            5746             741     5.04882E-03     3.13274E-03
            5746            5783     442.669E-06     493.513E-06
            5746            5784     431.341E-06     480.134E-06
            5747             739     4.69848E-03     2.79139E-03
            5747             740     4.87442E-03     2.95375E-03
            5747            5784     431.341E-06     480.134E-06
            5747            5785     420.495E-06     466.834E-06
            5748             738     4.53028E-03     2.62462E-03
            5748             739     4.69848E-03     2.79139E-03
            5748            5785     420.495E-06     466.834E-06
            5748            5786     411.244E-06     454.623E-06
            5749             737     4.35964E-03     2.46923E-03
            5749             738     4.53028E-03     2.62462E-03
            5749            5786     411.244E-06     454.623E-06
            5749            5787     403.207E-06     443.226E-06
            5750             736     4.18411E-03     2.29312E-03
            5750             737     4.35964E-03     2.46923E-03
            5750            5787     403.207E-06     443.226E-06
            5750            5788     396.990E-06     432.831E-06
            5751             735     3.99700E-03     2.10759E-03
            5751             736     4.18411E-03     2.29312E-03
            5751            5788     396.990E-06     432.831E-06
            5751            5789     392.106E-06     423.583E-06
            5752             734     3.74256E-03     1.83595E-03
            5752             735     3.99700E-03     2.10759E-03
            5752            5789     392.106E-06     423.583E-06
            5752            5790     389.235E-06     414.953E-06
            5753             733     3.25768E-03     1.30679E-03
            5753             734     3.74256E-03     1.83595E-03
            5753            5790     389.235E-06     414.953E-06
            5753            5791     386.835E-06     407.068E-06
            5754             732     2.51101E-03     1.16015E-03
            5754             733     3.25768E-03     1.30679E-03
            5754            5791     386.835E-06     407.068E-06
            5754            5792     382.117E-06     406.036E-06
            5755             731     2.42831E-03     3.54115E-03
            5755             732     2.51101E-03     1.16015E-03
            5755            5792     382.117E-06     406.036E-06
            5755            5793     380.773E-06     406.420E-06
            5756              26     2.76892E-03     5.73500E-03
            5756             731     2.42831E-03     3.54115E-03
            5756             791     382.495E-06     404.617E-06
            5756            5793     380.773E-06     406.420E-06
            5757             194     858.854E-06     903.700E-06
            5757             195     639.943E-06     631.737E-06
            5757            5777     732.785E-06     786.443E-06
            5757            5794     602.476E-06     608.714E-06
            5758            5777     732.785E-06     786.443E-06
            5758            5778     553.762E-06     615.667E-06
            5758            5794     602.476E-06     608.714E-06
            5758            5795     547.951E-06     573.507E-06
            5759            5778     553.762E-06     615.667E-06
            5759            5779     493.118E-06     553.844E-06
            5759            5795     547.951E-06     573.507E-06
            5759            5796     521.868E-06     556.249E-06
            5760            5779     493.118E-06     553.844E-06
            5760            5780     477.633E-06     535.462E-06
            5760            5796     521.868E-06     556.249E-06
            5760            5797     510.620E-06     544.498E-06
            5761            5780     477.633E-06     535.462E-06
            5761            5781     465.902E-06     520.540E-06
            5761            5797     510.620E-06     544.498E-06
            5761            5798     497.258E-06     527.988E-06
            5762            5781     465.902E-06     520.540E-06
            5762            5782     454.892E-06     507.606E-06
            5762            5798     497.258E-06     527.988E-06
            5762            5799     480.072E-06     510.812E-06
            5763            5782     454.892E-06     507.606E-06
            5763            5783     442.669E-06     493.513E-06
            5763            5799     480.072E-06     510.812E-06
            5763            5800     465.800E-06     495.071E-06
            5764            5783     442.669E-06     493.513E-06
            5764            5784     431.341E-06     480.134E-06
            5764            5800     465.800E-06     495.071E-06
            5764            5801     452.087E-06     480.504E-06
            5765            5784     431.341E-06     480.134E-06
            5765            5785     420.495E-06     466.834E-06
            5765            5801     452.087E-06     480.504E-06
            5765            5802     440.713E-06     467.754E-06
            5766            5785     420.495E-06     466.834E-06
            5766            5786     411.244E-06     454.623E-06
            5766            5802     440.713E-06     467.754E-06
            5766            5803     430.583E-06     456.083E-06
            5767            5786     411.244E-06     454.623E-06
            5767            5787     403.207E-06     443.226E-06
            5767            5803     430.583E-06     456.083E-06
            5767            5804     422.167E-06     445.925E-06
            5768            5787     403.207E-06     443.226E-06
            5768            5788     396.990E-06     432.831E-06
            5768            5804     422.167E-06     445.925E-06
            5768            5805     415.219E-06     436.746E-06
            5769            5788     396.990E-06     432.831E-06
            5769            5789     392.106E-06     423.583E-06
            5769            5805     415.219E-06     436.746E-06
            5769            5806     409.557E-06     429.186E-06
            5770            5789     392.106E-06     423.583E-06
            5770            5790     389.235E-06     414.953E-06
            5770            5806     409.557E-06     429.186E-06
            5770            5807     405.979E-06     422.518E-06
            5771            5790     389.235E-06     414.953E-06
            5771            5791     386.835E-06     407.068E-06
            5771            5807     405.979E-06     422.518E-06
            5771            5808     404.368E-06     416.815E-06
            5772            5791     386.835E-06     407.068E-06
            5772            5792     382.117E-06     406.036E-06
            5772            5808     404.368E-06     416.815E-06
            5772            5809     406.296E-06     410.057E-06
            5773            5792     382.117E-06     406.036E-06
            5773            5793     380.773E-06     406.420E-06
            5773            5809     406.296E-06     410.057E-06
            5773            5810     419.333E-06     396.855E-06
            5774             790     429.528E-06     387.928E-06
            5774             791     382.495E-06     404.617E-06
            5774            5793     380.773E-06     406.420E-06
            5774            5810     419.333E-06     396.855E-06
            5775             195     639.943E-06     631.737E-06
            5775             196     415.806E-06     419.467E-06
            5775            5794     602.476E-06     608.714E-06
            5775            5811     417.907E-06     432.588E-06
            5776            5794     602.476E-06     608.714E-06
            5776            5795     547.951E-06     573.507E-06
            5776            5811     417.907E-06     432.588E-06
            5776            5812     467.916E-06     492.372E-06
            5777            5795     547.951E-06     573.507E-06
            5777            5796     521.868E-06     556.249E-06
            5777            5812     467.916E-06     492.372E-06
            5777            5813     529.949E-06     542.752E-06
            5778            5796     521.868E-06     556.249E-06
            5778            5797     510.620E-06     544.498E-06
            5778            5813     529.949E-06     542.752E-06
            5778            5814     534.192E-06     540.864E-06
            5779            5797     510.620E-06     544.498E-06
            5779            5798     497.258E-06     527.988E-06
            5779            5814     534.192E-06     540.864E-06
            5779            5815     518.503E-06     526.904E-06
            5780            5798     497.258E-06     527.988E-06
            5780            5799     480.072E-06     510.812E-06
            5780            5815     518.503E-06     526.904E-06
            5780            5816     502.334E-06     509.361E-06
            5781            5799     480.072E-06     510.812E-06
            5781            5800     465.800E-06     495.071E-06
            5781            5816     502.334E-06     509.361E-06
            5781            5817     485.642E-06     493.326E-06
            5782            5800     465.800E-06     495.071E-06
            5782            5801     452.087E-06     480.504E-06
            5782            5817     485.642E-06     493.326E-06
            5782            5818     472.281E-06     479.588E-06
            5783            5801     452.087E-06     480.504E-06
            5783            5802     440.713E-06     467.754E-06
            5783            5818     472.281E-06     479.588E-06
            5783            5819     460.349E-06     467.658E-06
            5784            5802     440.713E-06     467.754E-06
            5784            5803     430.583E-06     456.083E-06
            5784            5819     460.349E-06     467.658E-06
            5784            5820     450.414E-06     457.606E-06
            5785            5803     430.583E-06     456.083E-06
            5785            5804     422.167E-06     445.925E-06
            5785            5820     450.414E-06     457.606E-06
            5785            5821     441.777E-06     448.661E-06
            5786            5804     422.167E-06     445.925E-06
            5786            5805     415.219E-06     436.746E-06
            5786            5821     441.777E-06     448.661E-06
            5786            5822     434.306E-06     441.408E-06
            5787            5805     415.219E-06     436.746E-06
            5787            5806     409.557E-06     429.186E-06
            5787            5822     434.306E-06     441.408E-06
            5787            5823     428.457E-06     435.010E-06
            5788            5806     409.557E-06     429.186E-06
            5788            5807     405.979E-06     422.518E-06
            5788            5823     428.457E-06     435.010E-06
            5788            5824     423.275E-06     430.809E-06
            5789            5807     405.979E-06     422.518E-06
            5789            5808     404.368E-06     416.815E-06
            5789            5824     423.275E-06     430.809E-06
            5789            5825     421.835E-06     427.475E-06
            5790            5808     404.368E-06     416.815E-06
            5790            5809     406.296E-06     410.057E-06
            5790            5825     421.835E-06     427.475E-06
            5790            5826     431.378E-06     414.556E-06
            5791            5809     406.296E-06     410.057E-06
            5791            5810     419.333E-06     396.855E-06
            5791            5826     431.378E-06     414.556E-06
            5791            5827     439.862E-06     395.764E-06
            5792             789     440.561E-06     387.678E-06
            5792             790     429.528E-06     387.928E-06
            5792            5810     419.333E-06     396.855E-06
            5792            5827     439.862E-06     395.764E-06
            5793             196     415.806E-06     419.467E-06
            5793             197     231.083E-06     206.395E-06
            5793            5811     417.907E-06     432.588E-06
            5793            5828     278.635E-06     274.808E-06
            5794            5811     417.907E-06     432.588E-06
            5794            5812     467.916E-06     492.372E-06
            5794            5828     278.635E-06     274.808E-06
            5794            5829     409.248E-06     410.428E-06
            5795            5812     467.916E-06     492.372E-06
            5795            5813     529.949E-06     542.752E-06
            5795            5829     409.248E-06     410.428E-06
            5795            5830     511.618E-06     495.393E-06
            5796            5813     529.949E-06     542.752E-06
            5796            5814     534.192E-06     540.864E-06
            5796            5830     511.618E-06     495.393E-06
            5796            5831     532.332E-06     513.944E-06
            5797            5814     534.192E-06     540.864E-06
            5797            5815     518.503E-06     526.904E-06
            5797            5831     532.332E-06     513.944E-06
            5797            5832     527.202E-06     509.346E-06
            5798            5815     518.503E-06     526.904E-06
            5798            5816     502.334E-06     509.361E-06
            5798            5832     527.202E-06     509.346E-06
            5798            5833     514.905E-06     498.533E-06
            5799            5816     502.334E-06     509.361E-06
            5799            5817     485.642E-06     493.326E-06
            5799            5833     514.905E-06     498.533E-06
            5799            5834     502.386E-06     487.040E-06
            5800            5817     485.642E-06     493.326E-06
            5800            5818     472.281E-06     479.588E-06
            5800            5834     502.386E-06     487.040E-06
            5800            5835     490.543E-06     476.428E-06
            5801            5818     472.281E-06     479.588E-06
            5801            5819     460.349E-06     467.658E-06
            5801            5835     490.543E-06     476.428E-06
            5801            5836     480.163E-06     467.309E-06
            5802            5819     460.349E-06     467.658E-06
            5802            5820     450.414E-06     457.606E-06
            5802            5836     480.163E-06     467.309E-06
            5802            5837     470.726E-06     459.215E-06
            5803            5820     450.414E-06     457.606E-06
            5803            5821     441.777E-06     448.661E-06
            5803            5837     470.726E-06     459.215E-06
            5803            5838     462.326E-06     452.412E-06
            5804            5821     441.777E-06     448.661E-06
            5804            5822     434.306E-06     441.408E-06
            5804            5838     462.326E-06     452.412E-06
            5804            5839     454.905E-06     446.445E-06
            5805            5822     434.306E-06     441.408E-06
            5805            5823     428.457E-06     435.010E-06
            5805            5839     454.905E-06     446.445E-06
            5805            5840     448.164E-06     442.065E-06
            5806            5823     428.457E-06     435.010E-06
            5806            5824     423.275E-06     430.809E-06
            5806            5840     448.164E-06     442.065E-06
            5806            5841     442.819E-06     438.590E-06
            5807            5824     423.275E-06     430.809E-06
            5807            5825     421.835E-06     427.475E-06
            5807            5841     442.819E-06     438.590E-06
            5807            5842     438.266E-06     436.810E-06
            5808            5825     421.835E-06     427.475E-06
            5808            5826     431.378E-06     414.556E-06
            5808            5842     438.266E-06     436.810E-06
            5808            5843     436.333E-06     436.524E-06
            5809            5826     431.378E-06     414.556E-06
            5809            5827     439.862E-06     395.764E-06
            5809            5843     436.333E-06     436.524E-06
            5809            5844     447.573E-06     427.544E-06
            5810             788     457.962E-06     418.842E-06
            5810             789     440.561E-06     387.678E-06
            5810            5827     439.862E-06     395.764E-06
            5810            5844     447.573E-06     427.544E-06
            5811             197     231.083E-06     206.395E-06
            5811             198     144.394E-06     225.818E-06
            5811            5828     278.635E-06     274.808E-06
            5811            5845     228.289E-06     244.394E-06
            5812            5828     278.635E-06     274.808E-06
            5812            5829     409.248E-06     410.428E-06
            5812            5845     228.289E-06     244.394E-06
            5812            5846     377.142E-06     324.731E-06
            5813            5829     409.248E-06     410.428E-06
            5813            5830     511.618E-06     495.393E-06
            5813            5846     377.142E-06     324.731E-06
            5813            5847     470.192E-06     420.545E-06
            5814            5830     511.618E-06     495.393E-06
            5814            5831     532.332E-06     513.944E-06
            5814            5847     470.192E-06     420.545E-06
            5814            5848     510.617E-06     465.296E-06
            5815            5831     532.332E-06     513.944E-06
            5815            5832     527.202E-06     509.346E-06
            5815            5848     510.617E-06     465.296E-06
            5815            5849     523.578E-06     479.506E-06
            5816            5832     527.202E-06     509.346E-06
            5816            5833     514.905E-06     498.533E-06
            5816            5849     523.578E-06     479.506E-06
            5816            5850     522.246E-06     481.703E-06
            5817            5833     514.905E-06     498.533E-06
            5817            5834     502.386E-06     487.040E-06
            5817            5850     522.246E-06     481.703E-06
            5817            5851     516.661E-06     478.196E-06
            5818            5834     502.386E-06     487.040E-06
            5818            5835     490.543E-06     476.428E-06
            5818            5851     516.661E-06     478.196E-06
            5818            5852     508.747E-06     473.062E-06
            5819            5835     490.543E-06     476.428E-06
            5819            5836     480.163E-06     467.309E-06
            5819            5852     508.747E-06     473.062E-06
            5819            5853     500.398E-06     467.360E-06
            5820            5836     480.163E-06     467.309E-06
            5820            5837     470.726E-06     459.215E-06
            5820            5853     500.398E-06     467.360E-06
            5820            5854     492.096E-06     461.922E-06
            5821            5837     470.726E-06     459.215E-06
            5821            5838     462.326E-06     452.412E-06
            5821            5854     492.096E-06     461.922E-06
            5821            5855     484.042E-06     457.078E-06
            5822            5838     462.326E-06     452.412E-06
            5822            5839     454.905E-06     446.445E-06
            5822            5855     484.042E-06     457.078E-06
            5822            5856     476.596E-06     452.875E-06
            5823            5839     454.905E-06     446.445E-06
            5823            5840     448.164E-06     442.065E-06
            5823            5856     476.596E-06     452.875E-06
            5823            5857     469.454E-06     449.731E-06
            5824            5840     448.164E-06     442.065E-06
            5824            5841     442.819E-06     438.590E-06
            5824            5857     469.454E-06     449.731E-06
            5824            5858     463.271E-06     447.282E-06
            5825            5841     442.819E-06     438.590E-06
            5825            5842     438.266E-06     436.810E-06
            5825            5858     463.271E-06     447.282E-06
            5825            5859     456.154E-06     446.259E-06
            5826            5842     438.266E-06     436.810E-06
            5826            5843     436.333E-06     436.524E-06
            5826            5859     456.154E-06     446.259E-06
            5826            5860     445.597E-06     453.118E-06
            5827            5843     436.333E-06     436.524E-06
            5827            5844     447.573E-06     427.544E-06
            5827            5860     445.597E-06     453.118E-06
            5827            5861     437.348E-06     464.318E-06
            5828             787     435.214E-06     468.982E-06
            5828             788     457.962E-06     418.842E-06
            5828            5844     447.573E-06     427.544E-06
            5828            5861     437.348E-06     464.318E-06
            5829              14     168.150E-06     321.065E-06
            5829             198     144.394E-06     225.818E-06
            5829             824     241.863E-06     272.674E-06
            5829            5845     228.289E-06     244.394E-06
            5830             823     352.824E-06     277.960E-06
            5830             824     241.863E-06     272.674E-06
            5830            5845     228.289E-06     244.394E-06
            5830            5846     377.142E-06     324.731E-06
            5831             822     442.254E-06     377.919E-06
            5831             823     352.824E-06     277.960E-06
            5831            5846     377.142E-06     324.731E-06
            5831            5847     470.192E-06     420.545E-06
            5832             821     498.795E-06     436.970E-06
            5832             822     442.254E-06     377.919E-06
            5832            5847     470.192E-06     420.545E-06
            5832            5848     510.617E-06     465.296E-06
            5833             820     517.696E-06     462.730E-06
            5833             821     498.795E-06     436.970E-06
            5833            5848     510.617E-06     465.296E-06
            5833            5849     523.578E-06     479.506E-06
            5834             819     526.689E-06     472.999E-06
            5834             820     517.696E-06     462.730E-06
            5834            5849     523.578E-06     479.506E-06
            5834            5850     522.246E-06     481.703E-06
            5835             818     522.895E-06     473.425E-06
            5835             819     526.689E-06     472.999E-06
            5835            5850     522.246E-06     481.703E-06
            5835            5851     516.661E-06     478.196E-06
            5836             817     518.516E-06     471.979E-06
            5836             818     522.895E-06     473.425E-06
            5836            5851     516.661E-06     478.196E-06
            5836            5852     508.747E-06     473.062E-06
            5837             816     510.494E-06     467.410E-06
            5837             817     518.516E-06     471.979E-06
            5837            5852     508.747E-06     473.062E-06
            5837            5853     500.398E-06     467.360E-06
            5838             815     503.236E-06     463.841E-06
            5838             816     510.494E-06     467.410E-06
            5838            5853     500.398E-06     467.360E-06
            5838            5854     492.096E-06     461.922E-06
            5839             814     495.146E-06     459.498E-06
            5839             815     503.236E-06     463.841E-06
            5839            5854     492.096E-06     461.922E-06
            5839            5855     484.042E-06     457.078E-06
            5840             813     487.650E-06     456.670E-06
            5840             814     495.146E-06     459.498E-06
            5840            5855     484.042E-06     457.078E-06
            5840            5856     476.596E-06     452.875E-06
            5841             812     480.639E-06     453.508E-06
            5841             813     487.650E-06     456.670E-06
            5841            5856     476.596E-06     452.875E-06
            5841            5857     469.454E-06     449.731E-06
            5842             811     473.349E-06     452.291E-06
            5842             812     480.639E-06     453.508E-06
            5842            5857     469.454E-06     449.731E-06
            5842            5858     463.271E-06     447.282E-06
            5843             810     465.963E-06     451.206E-06
            5843             811     473.349E-06     452.291E-06
            5843            5858     463.271E-06     447.282E-06
            5843            5859     456.154E-06     446.259E-06
            5844             809     457.106E-06     455.547E-06
            5844             810     465.963E-06     451.206E-06
            5844            5859     456.154E-06     446.259E-06
            5844            5860     445.597E-06     453.118E-06
            5845             808     426.643E-06     475.791E-06
            5845             809     457.106E-06     455.547E-06
            5845            5860     445.597E-06     453.118E-06
            5845            5861     437.348E-06     464.318E-06
            5846              28     402.706E-06     490.746E-06
            5846             787     435.214E-06     468.982E-06
            5846             808     426.643E-06     475.791E-06
            5846            5861     437.348E-06     464.318E-06


  Minimum                            89.9879E-06     206.395E-06
      At Element                             856            5811
            Node                             308             197

  Maximum                            253.188E-03     252.713E-03
      At Element                            2421            5193
            Node                             521             629

           Total                         485.861         494.257


