********************************************************************************
Field Output Report, written Thu Feb 28 10:20:47 2019

Source 1
---------

   ODB: D:/Documents/Studium/AA_Courses/Semester_6/SVV/A15_SVV_Structures/FEMDataV2/Job-1.odb
   Step: RotationUp
   Frame: Increment      1: Step Time =    1.000

Loc 1 : Element nodal  values at shell < ALUMINIUM > < 5 section points > from source 1 : SNEG, (fraction = -1.0) ( Average criteria = 75%, Not averaged across region boundaries )
Loc 2 : Element nodal  values at shell < ALUMINIUM > < 5 section points > from source 1 : SPOS, (fraction = 1.0) ( Average criteria = 75%, Not averaged across region boundaries )

Output sorted by column "Node Label".

Field Output reported at element nodes for region: A320-1.Region_1
   Computation algorithm: EXTRAPOLATE_COMPUTE_AVERAGE
   Averaged at nodes
   Averaging regions: ODB_REGIONS

   Element Label      Node Label         S.Mises         S.Mises
                                          @Loc 1          @Loc 2
-----------------------------------------------------------------
            2271               3     3.14263E-03     5.00914E-03
             874               3     3.14263E-03     5.00914E-03
            2325               4     1.80725E-15     576.282E-18
            3976               6     164.954E-03     170.605E-03
            1756               6     164.954E-03     170.605E-03
            4066               8     185.770E-03     197.365E-03
            3410               8     185.770E-03     197.365E-03
            5864              10     153.214E-03     154.518E-03
            3500              10     153.214E-03     154.518E-03
            5084              15     2.65968E-03     5.02561E-03
            6566              15     2.65968E-03     5.02561E-03
            2288              16     4.14592E-03     5.01507E-03
             857              16     4.14592E-03     5.01507E-03
            2342              19     2.09318E-15     1.19433E-15
            1739              20     7.30923E-03     9.89017E-03
            3959              20     7.30923E-03     9.89017E-03
            4049              23     5.45410E-03     8.46158E-03
            3393              23     5.45410E-03     8.46158E-03
            5847              24     12.6851E-03     15.9183E-03
            3483              24     12.6851E-03     15.9183E-03
            5067              26     4.60764E-03     5.33649E-03
            6549              26     4.60764E-03     5.33649E-03
            5174              27     637.811E-18     531.403E-18
            5157              28     545.123E-18     892.239E-18
            2289              38     1.42272E-15     2.04550E-15
            2271              38     1.42272E-15     2.04550E-15
            2289              39     1.54156E-15     1.64929E-15
            2307              39     1.54156E-15     1.64929E-15
            2307              40     1.75925E-15     1.09270E-15
            2325              40     1.75925E-15     1.09270E-15
            1738             102     172.630E-03     173.428E-03
            1756             102     172.630E-03     173.428E-03
            1738             103     169.304E-03     169.232E-03
            1720             103     169.304E-03     169.232E-03
            1720             104     164.429E-03     167.451E-03
            1702             104     164.429E-03     167.451E-03
            1702             105     161.046E-03     161.967E-03
            1684             105     161.046E-03     161.967E-03
            1684             106     156.127E-03     158.325E-03
            1666             106     156.127E-03     158.325E-03
            1666             107     152.115E-03     152.936E-03
            1648             107     152.115E-03     152.936E-03
            1648             108     146.583E-03     148.467E-03
            1630             108     146.583E-03     148.467E-03
            1630             109     140.747E-03     140.809E-03
            1612             109     140.747E-03     140.809E-03
            1612             110     133.632E-03     131.709E-03
            1594             110     133.632E-03     131.709E-03
            1576             111     133.760E-03     137.592E-03
            1594             111     133.760E-03     137.592E-03
            1558             112     139.200E-03     140.111E-03
            1576             112     139.200E-03     140.111E-03
            1558             113     135.535E-03     135.502E-03
            1540             113     135.535E-03     135.502E-03
            1540             114     130.684E-03     133.056E-03
            1522             114     130.684E-03     133.056E-03
            1504             115     127.017E-03     127.893E-03
            1522             115     127.017E-03     127.893E-03
            1504             116     122.571E-03     124.063E-03
            1486             116     122.571E-03     124.063E-03
            1486             117     118.481E-03     119.492E-03
            1468             117     118.481E-03     119.492E-03
            1468             118     113.815E-03     114.674E-03
            1450             118     113.815E-03     114.674E-03
            1450             119     108.885E-03     109.857E-03
            1432             119     108.885E-03     109.857E-03
            1414             120     103.033E-03     103.155E-03
            1432             120     103.033E-03     103.155E-03
            1396             121     96.4689E-03     94.5938E-03
            1414             121     96.4689E-03     94.5938E-03
            1396             122     97.1942E-03     100.021E-03
            1378             122     97.1942E-03     100.021E-03
            1378             123     101.873E-03     102.943E-03
            1360             123     101.873E-03     102.943E-03
            1360             124     97.8239E-03     97.7362E-03
            1342             124     97.8239E-03     97.7362E-03
            1324             125     92.8417E-03     94.6498E-03
            1342             125     92.8417E-03     94.6498E-03
            1324             126     89.0008E-03     89.5752E-03
            1306             126     89.0008E-03     89.5752E-03
            1306             127     84.5417E-03     85.6109E-03
            1288             127     84.5417E-03     85.6109E-03
            1270             128     80.4728E-03     81.0614E-03
            1288             128     80.4728E-03     81.0614E-03
            1252             129     75.8633E-03     76.4172E-03
            1270             129     75.8633E-03     76.4172E-03
            1252             130     71.1494E-03     71.5524E-03
            1234             130     71.1494E-03     71.5524E-03
            1216             131     65.4810E-03     65.5280E-03
            1234             131     65.4810E-03     65.5280E-03
            1198             132     59.3130E-03     57.6229E-03
            1216             132     59.3130E-03     57.6229E-03
            1180             133     60.6645E-03     62.5354E-03
            1198             133     60.6645E-03     62.5354E-03
            1180             134     64.6843E-03     65.9117E-03
            1162             134     64.6843E-03     65.9117E-03
            1144             135     60.3212E-03     60.1519E-03
            1162             135     60.3212E-03     60.1519E-03
            1126             136     55.2590E-03     56.4792E-03
            1144             136     55.2590E-03     56.4792E-03
            1108             137     51.3010E-03     51.5541E-03
            1126             137     51.3010E-03     51.5541E-03
            1090             138     46.8941E-03     47.5172E-03
            1108             138     46.8941E-03     47.5172E-03
            1090             139     42.9189E-03     43.0640E-03
            1072             139     42.9189E-03     43.0640E-03
            1054             140     38.4674E-03     38.6805E-03
            1072             140     38.4674E-03     38.6805E-03
            1036             141     34.0808E-03     33.8799E-03
            1054             141     34.0808E-03     33.8799E-03
            1018             142     28.8100E-03     28.6619E-03
            1036             142     28.8100E-03     28.6619E-03
            1000             143     23.1051E-03     21.8288E-03
            1018             143     23.1051E-03     21.8288E-03
            1000             144     23.9873E-03     25.0993E-03
             982             144     23.9873E-03     25.0993E-03
             982             145     26.1435E-03     27.4617E-03
             964             145     26.1435E-03     27.4617E-03
             964             146     21.3915E-03     20.9363E-03
             946             146     21.3915E-03     20.9363E-03
             928             147     16.1503E-03     16.5905E-03
             946             147     16.1503E-03     16.5905E-03
             910             148     12.2119E-03     11.6565E-03
             928             148     12.2119E-03     11.6565E-03
             892             149     8.63561E-03     8.00628E-03
             910             149     8.63561E-03     8.00628E-03
             892             150     6.70724E-03     8.28400E-03
             874             150     6.70724E-03     8.28400E-03
            4048             162     186.296E-03     187.613E-03
            4066             162     186.296E-03     187.613E-03
            4030             163     181.824E-03     182.820E-03
            4048             163     181.824E-03     182.820E-03
            4030             164     175.109E-03     177.335E-03
            4012             164     175.109E-03     177.335E-03
            3994             165     168.709E-03     166.883E-03
            4012             165     168.709E-03     166.883E-03
            3994             166     160.679E-03     163.266E-03
            3976             166     160.679E-03     163.266E-03
            3500             178     160.556E-03     159.282E-03
            3482             178     160.556E-03     159.282E-03
            3464             179     169.642E-03     169.438E-03
            3482             179     169.642E-03     169.438E-03
            3464             180     175.861E-03     180.406E-03
            3446             180     175.861E-03     180.406E-03
            3446             181     183.501E-03     183.006E-03
            3428             181     183.501E-03     183.006E-03
            3410             182     187.961E-03     189.985E-03
            3428             182     187.961E-03     189.985E-03
            6566             250     5.88576E-03     8.02718E-03
            6548             250     5.88576E-03     8.02718E-03
            6530             251     9.16352E-03     8.97642E-03
            6548             251     9.16352E-03     8.97642E-03
            6512             252     15.8764E-03     14.8483E-03
            6530             252     15.8764E-03     14.8483E-03
            6512             253     22.0625E-03     23.8445E-03
            6494             253     22.0625E-03     23.8445E-03
            6476             254     20.9229E-03     22.5232E-03
            6494             254     20.9229E-03     22.5232E-03
            6458             255     20.6804E-03     19.5222E-03
            6476             255     20.6804E-03     19.5222E-03
            6458             256     27.3687E-03     27.0530E-03
            6440             256     27.3687E-03     27.0530E-03
            6440             257     33.5316E-03     33.1293E-03
            6422             257     33.5316E-03     33.1293E-03
            6422             258     38.7385E-03     38.8981E-03
            6404             258     38.7385E-03     38.8981E-03
            6386             259     44.0706E-03     44.1370E-03
            6404             259     44.0706E-03     44.1370E-03
            6386             260     48.8616E-03     49.5104E-03
            6368             260     48.8616E-03     49.5104E-03
            6368             261     54.2094E-03     54.4361E-03
            6350             261     54.2094E-03     54.4361E-03
            6332             262     59.0445E-03     60.4024E-03
            6350             262     59.0445E-03     60.4024E-03
            6314             263     65.2575E-03     64.9879E-03
            6332             263     65.2575E-03     64.9879E-03
            6314             264     70.6243E-03     72.2125E-03
            6296             264     70.6243E-03     72.2125E-03
            6278             265     65.7661E-03     67.8817E-03
            6296             265     65.7661E-03     67.8817E-03
            6260             266     63.8734E-03     61.8015E-03
            6278             266     63.8734E-03     61.8015E-03
            6242             267     71.2847E-03     71.1679E-03
            6260             267     71.2847E-03     71.1679E-03
            6242             268     78.0320E-03     78.4565E-03
            6224             268     78.0320E-03     78.4565E-03
            6206             269     83.8812E-03     84.2218E-03
            6224             269     83.8812E-03     84.2218E-03
            6206             270     89.2018E-03     90.0455E-03
            6188             270     89.2018E-03     90.0455E-03
            6170             271     94.6256E-03     95.2667E-03
            6188             271     94.6256E-03     95.2667E-03
            6152             272     99.3546E-03     100.707E-03
            6170             272     99.3546E-03     100.707E-03
            6152             273     104.766E-03     105.422E-03
            6134             273     104.766E-03     105.422E-03
            6116             274     109.378E-03     111.583E-03
            6134             274     109.378E-03     111.583E-03
            6116             275     115.465E-03     115.280E-03
            6098             275     115.465E-03     115.280E-03
            6098             276     120.371E-03     121.785E-03
            6080             276     120.371E-03     121.785E-03
            6080             277     114.313E-03     117.763E-03
            6062             277     114.313E-03     117.763E-03
            6044             278     113.017E-03     110.680E-03
            6062             278     113.017E-03     110.680E-03
            6044             279     120.964E-03     121.059E-03
            6026             279     120.964E-03     121.059E-03
            6026             280     128.108E-03     129.227E-03
            6008             280     128.108E-03     129.227E-03
            5990             281     134.133E-03     135.143E-03
            6008             281     134.133E-03     135.143E-03
            5972             282     139.822E-03     141.010E-03
            5990             282     139.822E-03     141.010E-03
            5954             283     144.816E-03     146.592E-03
            5972             283     144.816E-03     146.592E-03
            5954             284     150.267E-03     151.300E-03
            5936             284     150.267E-03     151.300E-03
            5936             285     154.754E-03     157.601E-03
            5918             285     154.754E-03     157.601E-03
            5918             286     160.740E-03     160.617E-03
            5900             286     160.740E-03     160.617E-03
            5882             287     165.268E-03     166.443E-03
            5900             287     165.268E-03     166.443E-03
            5882             288     157.690E-03     163.829E-03
            5864             288     157.690E-03     163.829E-03
            2324             326     1.17985E-15     986.265E-18
            2342             326     1.17985E-15     986.265E-18
            2324             327     434.999E-18     680.751E-18
            2306             327     434.999E-18     680.751E-18
            2306             328     1.10304E-15     1.07471E-15
            2288             328     1.10304E-15     1.07471E-15
             857             329     4.40665E-03     4.91112E-03
            2287             329     4.40665E-03     4.91112E-03
            2288             329     4.40665E-03     4.91112E-03
             858             329     4.40665E-03     4.91112E-03
             859             330     4.73225E-03     4.71369E-03
            2287             330     4.73225E-03     4.71369E-03
            2286             330     4.73225E-03     4.71369E-03
             858             330     4.73225E-03     4.71369E-03
            2285             331     4.86954E-03     4.66714E-03
            2286             331     4.86954E-03     4.66714E-03
             860             331     4.86954E-03     4.66714E-03
             859             331     4.86954E-03     4.66714E-03
            2285             332     4.99704E-03     4.71463E-03
            2284             332     4.99704E-03     4.71463E-03
             861             332     4.99704E-03     4.71463E-03
             860             332     4.99704E-03     4.71463E-03
            2283             333     5.12321E-03     4.76098E-03
            2284             333     5.12321E-03     4.76098E-03
             862             333     5.12321E-03     4.76098E-03
             861             333     5.12321E-03     4.76098E-03
             863             334     5.26209E-03     4.83691E-03
             862             334     5.26209E-03     4.83691E-03
            2283             334     5.26209E-03     4.83691E-03
            2282             334     5.26209E-03     4.83691E-03
             864             335     5.40549E-03     4.92156E-03
             863             335     5.40549E-03     4.92156E-03
            2282             335     5.40549E-03     4.92156E-03
            2281             335     5.40549E-03     4.92156E-03
            2280             336     5.55466E-03     5.01219E-03
             864             336     5.55466E-03     5.01219E-03
            2281             336     5.55466E-03     5.01219E-03
             865             336     5.55466E-03     5.01219E-03
             866             337     5.70071E-03     5.10760E-03
            2279             337     5.70071E-03     5.10760E-03
            2280             337     5.70071E-03     5.10760E-03
             865             337     5.70071E-03     5.10760E-03
            2279             338     5.83277E-03     5.18379E-03
             866             338     5.83277E-03     5.18379E-03
            2278             338     5.83277E-03     5.18379E-03
             867             338     5.83277E-03     5.18379E-03
             868             339     5.92992E-03     5.23111E-03
            2277             339     5.92992E-03     5.23111E-03
             867             339     5.92992E-03     5.23111E-03
            2278             339     5.92992E-03     5.23111E-03
            2277             340     5.96265E-03     5.20628E-03
             869             340     5.96265E-03     5.20628E-03
            2276             340     5.96265E-03     5.20628E-03
             868             340     5.96265E-03     5.20628E-03
            2275             341     5.84883E-03     5.03182E-03
            2276             341     5.84883E-03     5.03182E-03
             869             341     5.84883E-03     5.03182E-03
             870             341     5.84883E-03     5.03182E-03
            2275             342     5.55730E-03     4.64987E-03
            2274             342     5.55730E-03     4.64987E-03
             871             342     5.55730E-03     4.64987E-03
             870             342     5.55730E-03     4.64987E-03
             872             343     4.79622E-03     3.77024E-03
            2274             343     4.79622E-03     3.77024E-03
             871             343     4.79622E-03     3.77024E-03
            2273             343     4.79622E-03     3.77024E-03
            2273             344     3.59156E-03     2.38014E-03
             873             344     3.59156E-03     2.38014E-03
             872             344     3.59156E-03     2.38014E-03
            2272             344     3.59156E-03     2.38014E-03
             874             345     3.05401E-03     3.30804E-03
            2272             345     3.05401E-03     3.30804E-03
             873             345     3.05401E-03     3.30804E-03
            2271             345     3.05401E-03     3.30804E-03
            3976             346     155.914E-03     160.251E-03
            1755             346     155.914E-03     160.251E-03
            1756             346     155.914E-03     160.251E-03
            3975             346     155.914E-03     160.251E-03
            3974             347     141.684E-03     144.160E-03
            3975             347     141.684E-03     144.160E-03
            1755             347     141.684E-03     144.160E-03
            1754             347     141.684E-03     144.160E-03
            1753             348     131.194E-03     133.401E-03
            3974             348     131.194E-03     133.401E-03
            1754             348     131.194E-03     133.401E-03
            3973             348     131.194E-03     133.401E-03
            3973             349     121.396E-03     123.776E-03
            3972             349     121.396E-03     123.776E-03
            1752             349     121.396E-03     123.776E-03
            1753             349     121.396E-03     123.776E-03
            3971             350     112.280E-03     114.799E-03
            3972             350     112.280E-03     114.799E-03
            1752             350     112.280E-03     114.799E-03
            1751             350     112.280E-03     114.799E-03
            1751             351     103.348E-03     106.108E-03
            3971             351     103.348E-03     106.108E-03
            3970             351     103.348E-03     106.108E-03
            1750             351     103.348E-03     106.108E-03
            1749             352     94.6357E-03     97.5350E-03
            3970             352     94.6357E-03     97.5350E-03
            1750             352     94.6357E-03     97.5350E-03
            3969             352     94.6357E-03     97.5350E-03
            3969             353     85.9625E-03     89.0108E-03
            3968             353     85.9625E-03     89.0108E-03
            1749             353     85.9625E-03     89.0108E-03
            1748             353     85.9625E-03     89.0108E-03
            1748             354     77.3593E-03     80.4836E-03
            3968             354     77.3593E-03     80.4836E-03
            1747             354     77.3593E-03     80.4836E-03
            3967             354     77.3593E-03     80.4836E-03
            1746             355     68.7574E-03     71.9434E-03
            1747             355     68.7574E-03     71.9434E-03
            3967             355     68.7574E-03     71.9434E-03
            3966             355     68.7574E-03     71.9434E-03
            3966             356     60.1827E-03     63.3794E-03
            1745             356     60.1827E-03     63.3794E-03
            1746             356     60.1827E-03     63.3794E-03
            3965             356     60.1827E-03     63.3794E-03
            3964             357     51.6232E-03     54.7967E-03
            3965             357     51.6232E-03     54.7967E-03
            1744             357     51.6232E-03     54.7967E-03
            1745             357     51.6232E-03     54.7967E-03
            1743             358     43.1088E-03     46.2009E-03
            3964             358     43.1088E-03     46.2009E-03
            1744             358     43.1088E-03     46.2009E-03
            3963             358     43.1088E-03     46.2009E-03
            1743             359     34.6795E-03     37.6148E-03
            1742             359     34.6795E-03     37.6148E-03
            3963             359     34.6795E-03     37.6148E-03
            3962             359     34.6795E-03     37.6148E-03
            3962             360     26.4098E-03     29.0741E-03
            1742             360     26.4098E-03     29.0741E-03
            1741             360     26.4098E-03     29.0741E-03
            3961             360     26.4098E-03     29.0741E-03
            1740             361     18.4620E-03     20.7574E-03
            3961             361     18.4620E-03     20.7574E-03
            1741             361     18.4620E-03     20.7574E-03
            3960             361     18.4620E-03     20.7574E-03
            3959             362     10.9603E-03     13.2914E-03
            3960             362     10.9603E-03     13.2914E-03
            1740             362     10.9603E-03     13.2914E-03
            1739             362     10.9603E-03     13.2914E-03
            1721             363     9.04349E-03     12.9241E-03
            1739             363     9.04349E-03     12.9241E-03
            1703             364     5.27905E-03     8.96567E-03
            1721             364     5.27905E-03     8.96567E-03
            1703             365     3.79215E-03     6.46636E-03
            1685             365     3.79215E-03     6.46636E-03
            1667             366     5.57692E-03     8.07244E-03
            1685             366     5.57692E-03     8.07244E-03
            1649             367     9.74877E-03     10.6003E-03
            1667             367     9.74877E-03     10.6003E-03
            1649             368     13.8505E-03     14.8576E-03
            1631             368     13.8505E-03     14.8576E-03
            1631             369     18.0521E-03     18.6330E-03
            1613             369     18.0521E-03     18.6330E-03
            1613             370     22.9155E-03     24.2290E-03
            1595             370     22.9155E-03     24.2290E-03
            1595             371     25.9095E-03     30.8617E-03
            1577             371     25.9095E-03     30.8617E-03
            1577             372     16.9372E-03     20.9411E-03
            1559             372     16.9372E-03     20.9411E-03
            1559             373     5.57570E-03     8.48380E-03
            1541             373     5.57570E-03     8.48380E-03
            1541             374     3.13086E-03     6.15410E-03
            1523             374     3.13086E-03     6.15410E-03
            1523             375     3.10349E-03     5.01560E-03
            1505             375     3.10349E-03     5.01560E-03
            1505             376     5.43572E-03     6.53283E-03
            1487             376     5.43572E-03     6.53283E-03
            1487             377     8.35601E-03     8.96444E-03
            1469             377     8.35601E-03     8.96444E-03
            1469             378     11.3936E-03     11.4665E-03
            1451             378     11.3936E-03     11.4665E-03
            1451             379     14.3241E-03     14.8364E-03
            1433             379     14.3241E-03     14.8364E-03
            1415             380     17.3591E-03     17.5655E-03
            1433             380     17.3591E-03     17.5655E-03
            1397             381     20.9279E-03     21.8577E-03
            1415             381     20.9279E-03     21.8577E-03
            1379             382     22.9173E-03     27.0725E-03
            1397             382     22.9173E-03     27.0725E-03
            1361             383     12.8631E-03     16.1426E-03
            1379             383     12.8631E-03     16.1426E-03
            1361             384     1.82886E-03     3.75225E-03
            1343             384     1.82886E-03     3.75225E-03
            1343             385     2.26024E-03     3.84998E-03
            1325             385     2.26024E-03     3.84998E-03
            1325             386     4.46463E-03     4.80458E-03
            1307             386     4.46463E-03     4.80458E-03
            1307             387     6.64020E-03     6.55428E-03
            1289             387     6.64020E-03     6.55428E-03
            1271             388     8.69545E-03     8.60559E-03
            1289             388     8.69545E-03     8.60559E-03
            1253             389     10.7971E-03     10.4442E-03
            1271             389     10.7971E-03     10.4442E-03
            1235             390     12.7969E-03     12.8343E-03
            1253             390     12.7969E-03     12.8343E-03
            1235             391     14.8312E-03     14.7208E-03
            1217             391     14.8312E-03     14.7208E-03
            1199             392     17.2751E-03     17.7444E-03
            1217             392     17.2751E-03     17.7444E-03
            1181             393     18.4016E-03     21.5463E-03
            1199             393     18.4016E-03     21.5463E-03
            1181             394     10.5282E-03     13.2080E-03
            1163             394     10.5282E-03     13.2080E-03
            1163             395     3.74380E-03     4.21338E-03
            1145             395     3.74380E-03     4.21338E-03
            1127             396     5.44674E-03     5.09871E-03
            1145             396     5.44674E-03     5.09871E-03
            1109             397     6.71743E-03     6.27705E-03
            1127             397     6.71743E-03     6.27705E-03
            1091             398     7.98872E-03     7.39441E-03
            1109             398     7.98872E-03     7.39441E-03
            1073             399     9.10559E-03     8.57055E-03
            1091             399     9.10559E-03     8.57055E-03
            1073             400     10.2337E-03     9.59890E-03
            1055             400     10.2337E-03     9.59890E-03
            1055             401     11.2895E-03     10.9355E-03
            1037             401     11.2895E-03     10.9355E-03
            1019             402     12.3154E-03     11.9376E-03
            1037             402     12.3154E-03     11.9376E-03
            1019             403     13.6302E-03     13.6719E-03
            1001             403     13.6302E-03     13.6719E-03
             983             404     13.8899E-03     16.0464E-03
            1001             404     13.8899E-03     16.0464E-03
             983             405     9.79417E-03     12.0419E-03
             965             405     9.79417E-03     12.0419E-03
             965             406     6.87117E-03     7.46218E-03
             947             406     6.87117E-03     7.46218E-03
             929             407     7.94328E-03     7.13121E-03
             947             407     7.94328E-03     7.13121E-03
             911             408     8.32697E-03     7.45748E-03
             929             408     8.32697E-03     7.45748E-03
             911             409     8.72435E-03     7.82906E-03
             893             409     8.72435E-03     7.82906E-03
             875             410     9.16925E-03     8.49261E-03
             893             410     9.16925E-03     8.49261E-03
             875             411     8.80618E-03     9.76005E-03
             857             411     8.80618E-03     9.76005E-03
            2342             497     1.55175E-15     990.617E-18
            2341             497     1.55175E-15     990.617E-18
            2340             498     861.458E-18     1.07231E-15
            2341             498     861.458E-18     1.07231E-15
            2340             499     1.34619E-15     1.78626E-15
            2339             499     1.34619E-15     1.78626E-15
            2339             500     1.66199E-15     1.69449E-15
            2338             500     1.66199E-15     1.69449E-15
            2337             501     1.77419E-15     1.60234E-15
            2338             501     1.77419E-15     1.60234E-15
            2337             502     1.75961E-15     1.87185E-15
            2336             502     1.75961E-15     1.87185E-15
            2336             503     1.69129E-15     1.72620E-15
            2335             503     1.69129E-15     1.72620E-15
            2334             504     1.46787E-15     1.33117E-15
            2335             504     1.46787E-15     1.33117E-15
            2334             505     722.742E-18     1.58985E-15
            2333             505     722.742E-18     1.58985E-15
            2332             506     1.15095E-15     1.47754E-15
            2333             506     1.15095E-15     1.47754E-15
            2331             507     1.25094E-15     987.485E-18
            2332             507     1.25094E-15     987.485E-18
            2331             508     1.16897E-15     826.041E-18
            2330             508     1.16897E-15     826.041E-18
            2330             509     1.46237E-15     715.267E-18
            2329             509     1.46237E-15     715.267E-18
            2328             510     1.96626E-15     1.23806E-15
            2329             510     1.96626E-15     1.23806E-15
            2327             511     1.89571E-15     1.19980E-15
            2328             511     1.89571E-15     1.19980E-15
            2327             512     1.58353E-15     1.20838E-15
            2326             512     1.58353E-15     1.20838E-15
            2326             513     1.87565E-15     1.00732E-15
            2325             513     1.87565E-15     1.00732E-15
            3977             548     10.7631E-03     13.6234E-03
            3959             548     10.7631E-03     13.6234E-03
            3977             549     16.2416E-03     19.6282E-03
            3995             549     16.2416E-03     19.6282E-03
            3995             550     11.7898E-03     13.3538E-03
            4013             550     11.7898E-03     13.3538E-03
            4031             551     6.12656E-03     8.70465E-03
            4013             551     6.12656E-03     8.70465E-03
            4031             552     4.15531E-03     8.52193E-03
            4049             552     4.15531E-03     8.52193E-03
            4050             570     9.53067E-03     13.3629E-03
            3394             570     9.53067E-03     13.3629E-03
            4049             570     9.53067E-03     13.3629E-03
            3393             570     9.53067E-03     13.3629E-03
            4051             571     18.2749E-03     23.3800E-03
            3395             571     18.2749E-03     23.3800E-03
            4050             571     18.2749E-03     23.3800E-03
            3394             571     18.2749E-03     23.3800E-03
            4051             572     27.8399E-03     33.5346E-03
            3395             572     27.8399E-03     33.5346E-03
            3396             572     27.8399E-03     33.5346E-03
            4052             572     27.8399E-03     33.5346E-03
            3396             573     37.6876E-03     43.5843E-03
            3397             573     37.6876E-03     43.5843E-03
            4052             573     37.6876E-03     43.5843E-03
            4053             573     37.6876E-03     43.5843E-03
            4054             574     47.6614E-03     53.5733E-03
            3397             574     47.6614E-03     53.5733E-03
            4053             574     47.6614E-03     53.5733E-03
            3398             574     47.6614E-03     53.5733E-03
            3398             575     57.6580E-03     63.5384E-03
            3399             575     57.6580E-03     63.5384E-03
            4054             575     57.6580E-03     63.5384E-03
            4055             575     57.6580E-03     63.5384E-03
            3400             576     67.6539E-03     73.5011E-03
            4055             576     67.6539E-03     73.5011E-03
            4056             576     67.6539E-03     73.5011E-03
            3399             576     67.6539E-03     73.5011E-03
            4056             577     77.5853E-03     83.4389E-03
            3401             577     77.5853E-03     83.4389E-03
            3400             577     77.5853E-03     83.4389E-03
            4057             577     77.5853E-03     83.4389E-03
            3402             578     87.5004E-03     93.3292E-03
            4057             578     87.5004E-03     93.3292E-03
            3401             578     87.5004E-03     93.3292E-03
            4058             578     87.5004E-03     93.3292E-03
            3402             579     97.2860E-03     103.147E-03
            4059             579     97.2860E-03     103.147E-03
            3403             579     97.2860E-03     103.147E-03
            4058             579     97.2860E-03     103.147E-03
            3404             580     107.047E-03     112.850E-03
            3403             580     107.047E-03     112.850E-03
            4060             580     107.047E-03     112.850E-03
            4059             580     107.047E-03     112.850E-03
            4061             581     116.568E-03     122.400E-03
            3404             581     116.568E-03     122.400E-03
            3405             581     116.568E-03     122.400E-03
            4060             581     116.568E-03     122.400E-03
            3405             582     126.158E-03     131.751E-03
            4062             582     126.158E-03     131.751E-03
            4061             582     126.158E-03     131.751E-03
            3406             582     126.158E-03     131.751E-03
            3407             583     135.412E-03     140.927E-03
            4063             583     135.412E-03     140.927E-03
            4062             583     135.412E-03     140.927E-03
            3406             583     135.412E-03     140.927E-03
            3408             584     145.384E-03     150.325E-03
            4063             584     145.384E-03     150.325E-03
            3407             584     145.384E-03     150.325E-03
            4064             584     145.384E-03     150.325E-03
            3409             585     155.515E-03     160.536E-03
            4065             585     155.515E-03     160.536E-03
            4064             585     155.515E-03     160.536E-03
            3408             585     155.515E-03     160.536E-03
            3409             586     172.823E-03     181.638E-03
            4066             586     172.823E-03     181.638E-03
            3410             586     172.823E-03     181.638E-03
            4065             586     172.823E-03     181.638E-03
            3500             587     150.055E-03     150.824E-03
            5864             587     150.055E-03     150.824E-03
            5863             587     150.055E-03     150.824E-03
            3499             587     150.055E-03     150.824E-03
            5863             588     143.826E-03     143.826E-03
            5862             588     143.826E-03     143.826E-03
            3499             588     143.826E-03     143.826E-03
            3498             588     143.826E-03     143.826E-03
            3498             589     136.662E-03     136.819E-03
            3497             589     136.662E-03     136.819E-03
            5861             589     136.662E-03     136.819E-03
            5862             589     136.662E-03     136.819E-03
            5861             590     128.552E-03     129.009E-03
            3496             590     128.552E-03     129.009E-03
            5860             590     128.552E-03     129.009E-03
            3497             590     128.552E-03     129.009E-03
            3495             591     120.175E-03     120.739E-03
            3496             591     120.175E-03     120.739E-03
            5860             591     120.175E-03     120.739E-03
            5859             591     120.175E-03     120.739E-03
            3495             592     111.463E-03     112.129E-03
            5859             592     111.463E-03     112.129E-03
            5858             592     111.463E-03     112.129E-03
            3494             592     111.463E-03     112.129E-03
            5857             593     102.657E-03     103.339E-03
            3493             593     102.657E-03     103.339E-03
            5858             593     102.657E-03     103.339E-03
            3494             593     102.657E-03     103.339E-03
            3493             594     93.7495E-03     94.4648E-03
            5857             594     93.7495E-03     94.4648E-03
            5856             594     93.7495E-03     94.4648E-03
            3492             594     93.7495E-03     94.4648E-03
            5856             595     84.8010E-03     85.5017E-03
            5855             595     84.8010E-03     85.5017E-03
            3492             595     84.8010E-03     85.5017E-03
            3491             595     84.8010E-03     85.5017E-03
            5855             596     75.8200E-03     76.5413E-03
            3490             596     75.8200E-03     76.5413E-03
            3491             596     75.8200E-03     76.5413E-03
            5854             596     75.8200E-03     76.5413E-03
            5854             597     66.8484E-03     67.5695E-03
            3489             597     66.8484E-03     67.5695E-03
            5853             597     66.8484E-03     67.5695E-03
            3490             597     66.8484E-03     67.5695E-03
            3489             598     57.9095E-03     58.6592E-03
            5852             598     57.9095E-03     58.6592E-03
            5853             598     57.9095E-03     58.6592E-03
            3488             598     57.9095E-03     58.6592E-03
            5851             599     49.0576E-03     49.8292E-03
            5852             599     49.0576E-03     49.8292E-03
            3488             599     49.0576E-03     49.8292E-03
            3487             599     49.0576E-03     49.8292E-03
            3487             600     40.3711E-03     41.1760E-03
            3486             600     40.3711E-03     41.1760E-03
            5850             600     40.3711E-03     41.1760E-03
            5851             600     40.3711E-03     41.1760E-03
            5850             601     31.9708E-03     32.7664E-03
            5849             601     31.9708E-03     32.7664E-03
            3485             601     31.9708E-03     32.7664E-03
            3486             601     31.9708E-03     32.7664E-03
            5848             602     24.0844E-03     25.0150E-03
            3485             602     24.0844E-03     25.0150E-03
            5849             602     24.0844E-03     25.0150E-03
            3484             602     24.0844E-03     25.0150E-03
            3484             603     16.4995E-03     18.6502E-03
            5847             603     16.4995E-03     18.6502E-03
            5848             603     16.4995E-03     18.6502E-03
            3483             603     16.4995E-03     18.6502E-03
            3465             604     20.5474E-03     24.6445E-03
            3483             604     20.5474E-03     24.6445E-03
            3465             605     16.4449E-03     17.6201E-03
            3447             605     16.4449E-03     17.6201E-03
            3429             606     10.8229E-03     11.3241E-03
            3447             606     10.8229E-03     11.3241E-03
            3411             607     5.30290E-03     9.35842E-03
            3429             607     5.30290E-03     9.35842E-03
            3393             608     4.25412E-03     8.35731E-03
            3411             608     4.25412E-03     8.35731E-03
            5865             692     5.64633E-03     7.87786E-03
            5847             692     5.64633E-03     7.87786E-03
            5883             693     6.06068E-03     9.52667E-03
            5865             693     6.06068E-03     9.52667E-03
            5901             694     3.44243E-03     7.07383E-03
            5883             694     3.44243E-03     7.07383E-03
            5919             695     3.90937E-03     6.02785E-03
            5901             695     3.90937E-03     6.02785E-03
            5919             696     6.87980E-03     7.98173E-03
            5937             696     6.87980E-03     7.98173E-03
            5937             697     10.3352E-03     10.9449E-03
            5955             697     10.3352E-03     10.9449E-03
            5973             698     13.9299E-03     13.9355E-03
            5955             698     13.9299E-03     13.9355E-03
            5973             699     17.3784E-03     17.9300E-03
            5991             699     17.3784E-03     17.9300E-03
            6009             700     20.9524E-03     21.1492E-03
            5991             700     20.9524E-03     21.1492E-03
            6027             701     25.1220E-03     26.2407E-03
            6009             701     25.1220E-03     26.2407E-03
            6027             702     27.3863E-03     32.3821E-03
            6045             702     27.3863E-03     32.3821E-03
            6045             703     15.0073E-03     18.9291E-03
            6063             703     15.0073E-03     18.9291E-03
            6081             704     2.07293E-03     3.99287E-03
            6063             704     2.07293E-03     3.99287E-03
            6099             705     3.07447E-03     4.50899E-03
            6081             705     3.07447E-03     4.50899E-03
            6117             706     5.66423E-03     5.86270E-03
            6099             706     5.66423E-03     5.86270E-03
            6117             707     7.98089E-03     7.89903E-03
            6135             707     7.98089E-03     7.89903E-03
            6153             708     10.3014E-03     9.94234E-03
            6135             708     10.3014E-03     9.94234E-03
            6153             709     12.4087E-03     12.1502E-03
            6171             709     12.4087E-03     12.1502E-03
            6189             710     14.5925E-03     14.1255E-03
            6171             710     14.5925E-03     14.1255E-03
            6207             711     16.6803E-03     16.6834E-03
            6189             711     16.6803E-03     16.6834E-03
            6225             712     18.8183E-03     18.6753E-03
            6207             712     18.8183E-03     18.6753E-03
            6243             713     21.4709E-03     22.0379E-03
            6225             713     21.4709E-03     22.0379E-03
            6243             714     22.5095E-03     26.3622E-03
            6261             714     22.5095E-03     26.3622E-03
            6261             715     13.3849E-03     16.7397E-03
            6279             715     13.3849E-03     16.7397E-03
            6279             716     5.67544E-03     6.29859E-03
            6297             716     5.67544E-03     6.29859E-03
            6297             717     7.57259E-03     7.05484E-03
            6315             717     7.57259E-03     7.05484E-03
            6333             718     8.85563E-03     8.22415E-03
            6315             718     8.85563E-03     8.22415E-03
            6333             719     10.1751E-03     9.38153E-03
            6351             719     10.1751E-03     9.38153E-03
            6351             720     11.3189E-03     10.5720E-03
            6369             720     11.3189E-03     10.5720E-03
            6369             721     12.4717E-03     11.6311E-03
            6387             721     12.4717E-03     11.6311E-03
            6405             722     13.5407E-03     13.0185E-03
            6387             722     13.5407E-03     13.0185E-03
            6423             723     14.5645E-03     14.0334E-03
            6405             723     14.5645E-03     14.0334E-03
            6423             724     15.8968E-03     15.8736E-03
            6441             724     15.8968E-03     15.8736E-03
            6459             725     15.9905E-03     18.4443E-03
            6441             725     15.9905E-03     18.4443E-03
            6477             726     11.6738E-03     14.1382E-03
            6459             726     11.6738E-03     14.1382E-03
            6495             727     8.87045E-03     9.37943E-03
            6477             727     8.87045E-03     9.37943E-03
            6495             728     10.0675E-03     8.61891E-03
            6513             728     10.0675E-03     8.61891E-03
            6531             729     10.4362E-03     9.07299E-03
            6513             729     10.4362E-03     9.07299E-03
            6531             730     9.90003E-03     10.5814E-03
            6549             730     9.90003E-03     10.5814E-03
            5067             748     4.89741E-03     5.30087E-03
            6550             748     4.89741E-03     5.30087E-03
            6549             748     4.89741E-03     5.30087E-03
            5068             748     4.89741E-03     5.30087E-03
            5068             749     5.23869E-03     5.13690E-03
            6551             749     5.23869E-03     5.13690E-03
            6550             749     5.23869E-03     5.13690E-03
            5069             749     5.23869E-03     5.13690E-03
            6551             750     5.36572E-03     5.05683E-03
            6552             750     5.36572E-03     5.05683E-03
            5070             750     5.36572E-03     5.05683E-03
            5069             750     5.36572E-03     5.05683E-03
            6553             751     5.48760E-03     5.09916E-03
            5071             751     5.48760E-03     5.09916E-03
            5070             751     5.48760E-03     5.09916E-03
            6552             751     5.48760E-03     5.09916E-03
            5072             752     5.59425E-03     5.11558E-03
            6553             752     5.59425E-03     5.11558E-03
            5071             752     5.59425E-03     5.11558E-03
            6554             752     5.59425E-03     5.11558E-03
            5072             753     5.72041E-03     5.15332E-03
            6554             753     5.72041E-03     5.15332E-03
            5073             753     5.72041E-03     5.15332E-03
            6555             753     5.72041E-03     5.15332E-03
            5073             754     5.85136E-03     5.20350E-03
            6556             754     5.85136E-03     5.20350E-03
            6555             754     5.85136E-03     5.20350E-03
            5074             754     5.85136E-03     5.20350E-03
            6556             755     5.99274E-03     5.26257E-03
            6557             755     5.99274E-03     5.26257E-03
            5074             755     5.99274E-03     5.26257E-03
            5075             755     5.99274E-03     5.26257E-03
            6558             756     6.13736E-03     5.33856E-03
            5075             756     6.13736E-03     5.33856E-03
            6557             756     6.13736E-03     5.33856E-03
            5076             756     6.13736E-03     5.33856E-03
            5076             757     6.28815E-03     5.41136E-03
            6558             757     6.28815E-03     5.41136E-03
            6559             757     6.28815E-03     5.41136E-03
            5077             757     6.28815E-03     5.41136E-03
            5077             758     6.43629E-03     5.50020E-03
            5078             758     6.43629E-03     5.50020E-03
            6559             758     6.43629E-03     5.50020E-03
            6560             758     6.43629E-03     5.50020E-03
            5078             759     6.57060E-03     5.55542E-03
            5079             759     6.57060E-03     5.55542E-03
            6560             759     6.57060E-03     5.55542E-03
            6561             759     6.57060E-03     5.55542E-03
            6561             760     6.66081E-03     5.57512E-03
            5079             760     6.66081E-03     5.57512E-03
            6562             760     6.66081E-03     5.57512E-03
            5080             760     6.66081E-03     5.57512E-03
            5080             761     6.60964E-03     5.45649E-03
            5081             761     6.60964E-03     5.45649E-03
            6563             761     6.60964E-03     5.45649E-03
            6562             761     6.60964E-03     5.45649E-03
            5082             762     6.05871E-03     4.82029E-03
            6563             762     6.05871E-03     4.82029E-03
            5081             762     6.05871E-03     4.82029E-03
            6564             762     6.05871E-03     4.82029E-03
            6565             763     4.99934E-03     3.58154E-03
            5083             763     4.99934E-03     3.58154E-03
            5082             763     4.99934E-03     3.58154E-03
            6564             763     4.99934E-03     3.58154E-03
            6566             764     3.53893E-03     3.92688E-03
            6565             764     3.53893E-03     3.92688E-03
            5084             764     3.53893E-03     3.92688E-03
            5083             764     3.53893E-03     3.92688E-03
            5084             765     356.307E-18     286.913E-18
            5102             765     356.307E-18     286.913E-18
            5120             766     494.570E-18     393.129E-18
            5102             766     494.570E-18     393.129E-18
            5120             767     663.058E-18     415.872E-18
            5138             767     663.058E-18     415.872E-18
            5156             768     615.429E-18     515.682E-18
            5138             768     615.429E-18     515.682E-18
            5174             769     621.574E-18     676.467E-18
            5156             769     621.574E-18     676.467E-18
            5173             770     937.269E-18     772.988E-18
            5174             770     937.269E-18     772.988E-18
            5172             771     1.03032E-15     892.476E-18
            5173             771     1.03032E-15     892.476E-18
            5172             772     953.946E-18     660.140E-18
            5171             772     953.946E-18     660.140E-18
            5170             773     1.31284E-15     906.431E-18
            5171             773     1.31284E-15     906.431E-18
            5169             774     1.21721E-15     1.13860E-15
            5170             774     1.21721E-15     1.13860E-15
            5168             775     588.398E-18     695.344E-18
            5169             775     588.398E-18     695.344E-18
            5168             776     502.356E-18     595.820E-18
            5167             776     502.356E-18     595.820E-18
            5167             777     726.233E-18     762.398E-18
            5166             777     726.233E-18     762.398E-18
            5166             778     773.607E-18     696.385E-18
            5165             778     773.607E-18     696.385E-18
            5164             779     719.755E-18     673.911E-18
            5165             779     719.755E-18     673.911E-18
            5163             780     607.756E-18     720.763E-18
            5164             780     607.756E-18     720.763E-18
            5162             781     808.456E-18     940.723E-18
            5163             781     808.456E-18     940.723E-18
            5162             782     1.01642E-15     901.218E-18
            5161             782     1.01642E-15     901.218E-18
            5161             783     664.818E-18     603.142E-18
            5160             783     664.818E-18     603.142E-18
            5159             784     253.986E-18     367.158E-18
            5160             784     253.986E-18     367.158E-18
            5159             785     422.746E-18     354.096E-18
            5158             785     422.746E-18     354.096E-18
            5157             786     602.484E-18     687.274E-18
            5158             786     602.484E-18     687.274E-18
            5157             787     671.738E-18     863.967E-18
            5139             787     671.738E-18     863.967E-18
            5121             788     656.179E-18     588.299E-18
            5139             788     656.179E-18     588.299E-18
            5103             789     518.477E-18     452.964E-18
            5121             789     518.477E-18     452.964E-18
            5085             790     392.853E-18     414.584E-18
            5103             790     392.853E-18     414.584E-18
            5085             791     531.349E-18     539.290E-18
            5067             791     531.349E-18     539.290E-18
             876            1518     8.90921E-03     9.59438E-03
             858            1518     8.90921E-03     9.59438E-03
             875            1518     8.90921E-03     9.59438E-03
             857            1518     8.90921E-03     9.59438E-03
             876            1519     9.17688E-03     9.30744E-03
             877            1519     9.17688E-03     9.30744E-03
             859            1519     9.17688E-03     9.30744E-03
             858            1519     9.17688E-03     9.30744E-03
             878            1520     9.48418E-03     9.20542E-03
             877            1520     9.48418E-03     9.20542E-03
             859            1520     9.48418E-03     9.20542E-03
             860            1520     9.48418E-03     9.20542E-03
             879            1521     9.73923E-03     9.26991E-03
             860            1521     9.73923E-03     9.26991E-03
             878            1521     9.73923E-03     9.26991E-03
             861            1521     9.73923E-03     9.26991E-03
             879            1522     9.99462E-03     9.39188E-03
             862            1522     9.99462E-03     9.39188E-03
             861            1522     9.99462E-03     9.39188E-03
             880            1522     9.99462E-03     9.39188E-03
             880            1523     10.2723E-03     9.56229E-03
             863            1523     10.2723E-03     9.56229E-03
             881            1523     10.2723E-03     9.56229E-03
             862            1523     10.2723E-03     9.56229E-03
             882            1524     10.5686E-03     9.75913E-03
             881            1524     10.5686E-03     9.75913E-03
             864            1524     10.5686E-03     9.75913E-03
             863            1524     10.5686E-03     9.75913E-03
             864            1525     10.8842E-03     9.98302E-03
             865            1525     10.8842E-03     9.98302E-03
             883            1525     10.8842E-03     9.98302E-03
             882            1525     10.8842E-03     9.98302E-03
             866            1526     11.2066E-03     10.2176E-03
             865            1526     11.2066E-03     10.2176E-03
             884            1526     11.2066E-03     10.2176E-03
             883            1526     11.2066E-03     10.2176E-03
             866            1527     11.5240E-03     10.4489E-03
             867            1527     11.5240E-03     10.4489E-03
             884            1527     11.5240E-03     10.4489E-03
             885            1527     11.5240E-03     10.4489E-03
             867            1528     11.8012E-03     10.6449E-03
             886            1528     11.8012E-03     10.6449E-03
             885            1528     11.8012E-03     10.6449E-03
             868            1528     11.8012E-03     10.6449E-03
             868            1529     11.9945E-03     10.7438E-03
             887            1529     11.9945E-03     10.7438E-03
             869            1529     11.9945E-03     10.7438E-03
             886            1529     11.9945E-03     10.7438E-03
             887            1530     11.9778E-03     10.6410E-03
             888            1530     11.9778E-03     10.6410E-03
             869            1530     11.9778E-03     10.6410E-03
             870            1530     11.9778E-03     10.6410E-03
             889            1531     11.5547E-03     10.1057E-03
             870            1531     11.5547E-03     10.1057E-03
             871            1531     11.5547E-03     10.1057E-03
             888            1531     11.5547E-03     10.1057E-03
             890            1532     10.3883E-03     8.77433E-03
             871            1532     10.3883E-03     8.77433E-03
             889            1532     10.3883E-03     8.77433E-03
             872            1532     10.3883E-03     8.77433E-03
             873            1533     7.64927E-03     5.99257E-03
             891            1533     7.64927E-03     5.99257E-03
             872            1533     7.64927E-03     5.99257E-03
             890            1533     7.64927E-03     5.99257E-03
             892            1534     6.22127E-03     6.20704E-03
             874            1534     6.22127E-03     6.20704E-03
             891            1534     6.22127E-03     6.20704E-03
             873            1534     6.22127E-03     6.20704E-03
             875            1535     9.00204E-03     8.69901E-03
             876            1535     9.00204E-03     8.69901E-03
             894            1535     9.00204E-03     8.69901E-03
             893            1535     9.00204E-03     8.69901E-03
             876            1536     8.85578E-03     8.90266E-03
             894            1536     8.85578E-03     8.90266E-03
             895            1536     8.85578E-03     8.90266E-03
             877            1536     8.85578E-03     8.90266E-03
             896            1537     9.00838E-03     8.89632E-03
             877            1537     9.00838E-03     8.89632E-03
             895            1537     9.00838E-03     8.89632E-03
             878            1537     9.00838E-03     8.89632E-03
             897            1538     9.25169E-03     8.97623E-03
             878            1538     9.25169E-03     8.97623E-03
             896            1538     9.25169E-03     8.97623E-03
             879            1538     9.25169E-03     8.97623E-03
             898            1539     9.49165E-03     9.14919E-03
             897            1539     9.49165E-03     9.14919E-03
             879            1539     9.49165E-03     9.14919E-03
             880            1539     9.49165E-03     9.14919E-03
             881            1540     9.77392E-03     9.35914E-03
             899            1540     9.77392E-03     9.35914E-03
             898            1540     9.77392E-03     9.35914E-03
             880            1540     9.77392E-03     9.35914E-03
             899            1541     10.0892E-03     9.61894E-03
             881            1541     10.0892E-03     9.61894E-03
             882            1541     10.0892E-03     9.61894E-03
             900            1541     10.0892E-03     9.61894E-03
             900            1542     10.4380E-03     9.91557E-03
             883            1542     10.4380E-03     9.91557E-03
             882            1542     10.4380E-03     9.91557E-03
             901            1542     10.4380E-03     9.91557E-03
             884            1543     10.8203E-03     10.2505E-03
             902            1543     10.8203E-03     10.2505E-03
             883            1543     10.8203E-03     10.2505E-03
             901            1543     10.8203E-03     10.2505E-03
             903            1544     11.2302E-03     10.6152E-03
             902            1544     11.2302E-03     10.6152E-03
             885            1544     11.2302E-03     10.6152E-03
             884            1544     11.2302E-03     10.6152E-03
             904            1545     11.6631E-03     11.0046E-03
             885            1545     11.6631E-03     11.0046E-03
             886            1545     11.6631E-03     11.0046E-03
             903            1545     11.6631E-03     11.0046E-03
             905            1546     12.0675E-03     11.3685E-03
             886            1546     12.0675E-03     11.3685E-03
             887            1546     12.0675E-03     11.3685E-03
             904            1546     12.0675E-03     11.3685E-03
             887            1547     12.3948E-03     11.6517E-03
             905            1547     12.3948E-03     11.6517E-03
             906            1547     12.3948E-03     11.6517E-03
             888            1547     12.3948E-03     11.6517E-03
             889            1548     12.3205E-03     11.5890E-03
             906            1548     12.3205E-03     11.5890E-03
             907            1548     12.3205E-03     11.5890E-03
             888            1548     12.3205E-03     11.5890E-03
             890            1549     11.4922E-03     10.8156E-03
             908            1549     11.4922E-03     10.8156E-03
             889            1549     11.4922E-03     10.8156E-03
             907            1549     11.4922E-03     10.8156E-03
             909            1550     8.76294E-03     8.39213E-03
             890            1550     8.76294E-03     8.39213E-03
             891            1550     8.76294E-03     8.39213E-03
             908            1550     8.76294E-03     8.39213E-03
             910            1551     7.64143E-03     7.28208E-03
             891            1551     7.64143E-03     7.28208E-03
             909            1551     7.64143E-03     7.28208E-03
             892            1551     7.64143E-03     7.28208E-03
             893            1552     8.71388E-03     7.95916E-03
             894            1552     8.71388E-03     7.95916E-03
             912            1552     8.71388E-03     7.95916E-03
             911            1552     8.71388E-03     7.95916E-03
             894            1553     8.65680E-03     8.26129E-03
             912            1553     8.65680E-03     8.26129E-03
             913            1553     8.65680E-03     8.26129E-03
             895            1553     8.65680E-03     8.26129E-03
             914            1554     8.63656E-03     8.53220E-03
             896            1554     8.63656E-03     8.53220E-03
             895            1554     8.63656E-03     8.53220E-03
             913            1554     8.63656E-03     8.53220E-03
             915            1555     8.76723E-03     8.72017E-03
             914            1555     8.76723E-03     8.72017E-03
             896            1555     8.76723E-03     8.72017E-03
             897            1555     8.76723E-03     8.72017E-03
             898            1556     8.99973E-03     8.93043E-03
             897            1556     8.99973E-03     8.93043E-03
             915            1556     8.99973E-03     8.93043E-03
             916            1556     8.99973E-03     8.93043E-03
             898            1557     9.28052E-03     9.19501E-03
             899            1557     9.28052E-03     9.19501E-03
             916            1557     9.28052E-03     9.19501E-03
             917            1557     9.28052E-03     9.19501E-03
             899            1558     9.61065E-03     9.50925E-03
             900            1558     9.61065E-03     9.50925E-03
             918            1558     9.61065E-03     9.50925E-03
             917            1558     9.61065E-03     9.50925E-03
             901            1559     9.98543E-03     9.87296E-03
             900            1559     9.98543E-03     9.87296E-03
             918            1559     9.98543E-03     9.87296E-03
             919            1559     9.98543E-03     9.87296E-03
             902            1560     10.4092E-03     10.2867E-03
             901            1560     10.4092E-03     10.2867E-03
             919            1560     10.4092E-03     10.2867E-03
             920            1560     10.4092E-03     10.2867E-03
             903            1561     10.8828E-03     10.7524E-03
             921            1561     10.8828E-03     10.7524E-03
             902            1561     10.8828E-03     10.7524E-03
             920            1561     10.8828E-03     10.7524E-03
             903            1562     11.4008E-03     11.2624E-03
             921            1562     11.4008E-03     11.2624E-03
             922            1562     11.4008E-03     11.2624E-03
             904            1562     11.4008E-03     11.2624E-03
             922            1563     11.9533E-03     11.8108E-03
             923            1563     11.9533E-03     11.8108E-03
             905            1563     11.9533E-03     11.8108E-03
             904            1563     11.9533E-03     11.8108E-03
             906            1564     12.4254E-03     12.2974E-03
             924            1564     12.4254E-03     12.2974E-03
             923            1564     12.4254E-03     12.2974E-03
             905            1564     12.4254E-03     12.2974E-03
             907            1565     12.7336E-03     12.6193E-03
             925            1565     12.7336E-03     12.6193E-03
             906            1565     12.7336E-03     12.6193E-03
             924            1565     12.7336E-03     12.6193E-03
             926            1566     12.1479E-03     12.2726E-03
             908            1566     12.1479E-03     12.2726E-03
             925            1566     12.1479E-03     12.2726E-03
             907            1566     12.1479E-03     12.2726E-03
             908            1567     10.5199E-03     10.8815E-03
             926            1567     10.5199E-03     10.8815E-03
             909            1567     10.5199E-03     10.8815E-03
             927            1567     10.5199E-03     10.8815E-03
             909            1568     10.9038E-03     10.8062E-03
             927            1568     10.9038E-03     10.8062E-03
             928            1568     10.9038E-03     10.8062E-03
             910            1568     10.9038E-03     10.8062E-03
             912            1569     8.30931E-03     7.55367E-03
             911            1569     8.30931E-03     7.55367E-03
             930            1569     8.30931E-03     7.55367E-03
             929            1569     8.30931E-03     7.55367E-03
             912            1570     8.24282E-03     7.85049E-03
             930            1570     8.24282E-03     7.85049E-03
             913            1570     8.24282E-03     7.85049E-03
             931            1570     8.24282E-03     7.85049E-03
             932            1571     8.19717E-03     8.20503E-03
             931            1571     8.19717E-03     8.20503E-03
             914            1571     8.19717E-03     8.20503E-03
             913            1571     8.19717E-03     8.20503E-03
             932            1572     8.28880E-03     8.47139E-03
             915            1572     8.28880E-03     8.47139E-03
             933            1572     8.28880E-03     8.47139E-03
             914            1572     8.28880E-03     8.47139E-03
             933            1573     8.50512E-03     8.73158E-03
             916            1573     8.50512E-03     8.73158E-03
             934            1573     8.50512E-03     8.73158E-03
             915            1573     8.50512E-03     8.73158E-03
             917            1574     8.78407E-03     9.04801E-03
             934            1574     8.78407E-03     9.04801E-03
             916            1574     8.78407E-03     9.04801E-03
             935            1574     8.78407E-03     9.04801E-03
             935            1575     9.11612E-03     9.40889E-03
             918            1575     9.11612E-03     9.40889E-03
             917            1575     9.11612E-03     9.40889E-03
             936            1575     9.11612E-03     9.40889E-03
             936            1576     9.50192E-03     9.82134E-03
             919            1576     9.50192E-03     9.82134E-03
             918            1576     9.50192E-03     9.82134E-03
             937            1576     9.50192E-03     9.82134E-03
             919            1577     9.93595E-03     10.2793E-03
             938            1577     9.93595E-03     10.2793E-03
             920            1577     9.93595E-03     10.2793E-03
             937            1577     9.93595E-03     10.2793E-03
             920            1578     10.4237E-03     10.7878E-03
             921            1578     10.4237E-03     10.7878E-03
             939            1578     10.4237E-03     10.7878E-03
             938            1578     10.4237E-03     10.7878E-03
             939            1579     10.9569E-03     11.3434E-03
             922            1579     10.9569E-03     11.3434E-03
             940            1579     10.9569E-03     11.3434E-03
             921            1579     10.9569E-03     11.3434E-03
             922            1580     11.5288E-03     11.9348E-03
             941            1580     11.5288E-03     11.9348E-03
             940            1580     11.5288E-03     11.9348E-03
             923            1580     11.5288E-03     11.9348E-03
             923            1581     12.0945E-03     12.5389E-03
             924            1581     12.0945E-03     12.5389E-03
             942            1581     12.0945E-03     12.5389E-03
             941            1581     12.0945E-03     12.5389E-03
             943            1582     12.5422E-03     13.0386E-03
             924            1582     12.5422E-03     13.0386E-03
             925            1582     12.5422E-03     13.0386E-03
             942            1582     12.5422E-03     13.0386E-03
             926            1583     12.8466E-03     13.3731E-03
             925            1583     12.8466E-03     13.3731E-03
             944            1583     12.8466E-03     13.3731E-03
             943            1583     12.8466E-03     13.3731E-03
             944            1584     13.1271E-03     13.5308E-03
             945            1584     13.1271E-03     13.5308E-03
             926            1584     13.1271E-03     13.5308E-03
             927            1584     13.1271E-03     13.5308E-03
             928            1585     14.7164E-03     15.0734E-03
             945            1585     14.7164E-03     15.0734E-03
             946            1585     14.7164E-03     15.0734E-03
             927            1585     14.7164E-03     15.0734E-03
             948            1586     7.78938E-03     7.37517E-03
             947            1586     7.78938E-03     7.37517E-03
             929            1586     7.78938E-03     7.37517E-03
             930            1586     7.78938E-03     7.37517E-03
             949            1587     7.60067E-03     7.73777E-03
             931            1587     7.60067E-03     7.73777E-03
             930            1587     7.60067E-03     7.73777E-03
             948            1587     7.60067E-03     7.73777E-03
             949            1588     7.64038E-03     7.95821E-03
             932            1588     7.64038E-03     7.95821E-03
             950            1588     7.64038E-03     7.95821E-03
             931            1588     7.64038E-03     7.95821E-03
             950            1589     7.79964E-03     8.22292E-03
             933            1589     7.79964E-03     8.22292E-03
             932            1589     7.79964E-03     8.22292E-03
             951            1589     7.79964E-03     8.22292E-03
             934            1590     8.00045E-03     8.54975E-03
             952            1590     8.00045E-03     8.54975E-03
             933            1590     8.00045E-03     8.54975E-03
             951            1590     8.00045E-03     8.54975E-03
             935            1591     8.27181E-03     8.90465E-03
             952            1591     8.27181E-03     8.90465E-03
             934            1591     8.27181E-03     8.90465E-03
             953            1591     8.27181E-03     8.90465E-03
             936            1592     8.60023E-03     9.30927E-03
             954            1592     8.60023E-03     9.30927E-03
             935            1592     8.60023E-03     9.30927E-03
             953            1592     8.60023E-03     9.30927E-03
             937            1593     8.97685E-03     9.74787E-03
             954            1593     8.97685E-03     9.74787E-03
             955            1593     8.97685E-03     9.74787E-03
             936            1593     8.97685E-03     9.74787E-03
             956            1594     9.40025E-03     10.2266E-03
             955            1594     9.40025E-03     10.2266E-03
             938            1594     9.40025E-03     10.2266E-03
             937            1594     9.40025E-03     10.2266E-03
             938            1595     9.85978E-03     10.7314E-03
             957            1595     9.85978E-03     10.7314E-03
             939            1595     9.85978E-03     10.7314E-03
             956            1595     9.85978E-03     10.7314E-03
             939            1596     10.3572E-03     11.2725E-03
             957            1596     10.3572E-03     11.2725E-03
             958            1596     10.3572E-03     11.2725E-03
             940            1596     10.3572E-03     11.2725E-03
             941            1597     10.8690E-03     11.8296E-03
             940            1597     10.8690E-03     11.8296E-03
             959            1597     10.8690E-03     11.8296E-03
             958            1597     10.8690E-03     11.8296E-03
             941            1598     11.4307E-03     12.4353E-03
             959            1598     11.4307E-03     12.4353E-03
             960            1598     11.4307E-03     12.4353E-03
             942            1598     11.4307E-03     12.4353E-03
             942            1599     11.9950E-03     13.0777E-03
             960            1599     11.9950E-03     13.0777E-03
             943            1599     11.9950E-03     13.0777E-03
             961            1599     11.9950E-03     13.0777E-03
             943            1600     12.9208E-03     13.9436E-03
             944            1600     12.9208E-03     13.9436E-03
             962            1600     12.9208E-03     13.9436E-03
             961            1600     12.9208E-03     13.9436E-03
             945            1601     15.1714E-03     15.8206E-03
             963            1601     15.1714E-03     15.8206E-03
             962            1601     15.1714E-03     15.8206E-03
             944            1601     15.1714E-03     15.8206E-03
             946            1602     19.0721E-03     19.0360E-03
             963            1602     19.0721E-03     19.0360E-03
             964            1602     19.0721E-03     19.0360E-03
             945            1602     19.0721E-03     19.0360E-03
             948            1603     6.87971E-03     7.47475E-03
             966            1603     6.87971E-03     7.47475E-03
             965            1603     6.87971E-03     7.47475E-03
             947            1603     6.87971E-03     7.47475E-03
             948            1604     6.96100E-03     7.52847E-03
             949            1604     6.96100E-03     7.52847E-03
             967            1604     6.96100E-03     7.52847E-03
             966            1604     6.96100E-03     7.52847E-03
             950            1605     7.11570E-03     7.70499E-03
             968            1605     7.11570E-03     7.70499E-03
             967            1605     7.11570E-03     7.70499E-03
             949            1605     7.11570E-03     7.70499E-03
             950            1606     7.27786E-03     8.00929E-03
             968            1606     7.27786E-03     8.00929E-03
             951            1606     7.27786E-03     8.00929E-03
             969            1606     7.27786E-03     8.00929E-03
             970            1607     7.48005E-03     8.36946E-03
             952            1607     7.48005E-03     8.36946E-03
             969            1607     7.48005E-03     8.36946E-03
             951            1607     7.48005E-03     8.36946E-03
             953            1608     7.74122E-03     8.77242E-03
             971            1608     7.74122E-03     8.77242E-03
             970            1608     7.74122E-03     8.77242E-03
             952            1608     7.74122E-03     8.77242E-03
             954            1609     8.05683E-03     9.20362E-03
             972            1609     8.05683E-03     9.20362E-03
             971            1609     8.05683E-03     9.20362E-03
             953            1609     8.05683E-03     9.20362E-03
             955            1610     8.41972E-03     9.66809E-03
             972            1610     8.41972E-03     9.66809E-03
             954            1610     8.41972E-03     9.66809E-03
             973            1610     8.41972E-03     9.66809E-03
             973            1611     8.82102E-03     10.1492E-03
             956            1611     8.82102E-03     10.1492E-03
             974            1611     8.82102E-03     10.1492E-03
             955            1611     8.82102E-03     10.1492E-03
             975            1612     9.24820E-03     10.6516E-03
             974            1612     9.24820E-03     10.6516E-03
             956            1612     9.24820E-03     10.6516E-03
             957            1612     9.24820E-03     10.6516E-03
             957            1613     9.68718E-03     11.1521E-03
             975            1613     9.68718E-03     11.1521E-03
             976            1613     9.68718E-03     11.1521E-03
             958            1613     9.68718E-03     11.1521E-03
             976            1614     10.1500E-03     11.6810E-03
             959            1614     10.1500E-03     11.6810E-03
             958            1614     10.1500E-03     11.6810E-03
             977            1614     10.1500E-03     11.6810E-03
             959            1615     10.6234E-03     12.2279E-03
             960            1615     10.6234E-03     12.2279E-03
             977            1615     10.6234E-03     12.2279E-03
             978            1615     10.6234E-03     12.2279E-03
             960            1616     11.3203E-03     12.9921E-03
             979            1616     11.3203E-03     12.9921E-03
             978            1616     11.3203E-03     12.9921E-03
             961            1616     11.3203E-03     12.9921E-03
             979            1617     12.4139E-03     14.1937E-03
             980            1617     12.4139E-03     14.1937E-03
             962            1617     12.4139E-03     14.1937E-03
             961            1617     12.4139E-03     14.1937E-03
             963            1618     15.1440E-03     16.9754E-03
             981            1618     15.1440E-03     16.9754E-03
             962            1618     15.1440E-03     16.9754E-03
             980            1618     15.1440E-03     16.9754E-03
             964            1619     21.6918E-03     23.2647E-03
             963            1619     21.6918E-03     23.2647E-03
             981            1619     21.6918E-03     23.2647E-03
             982            1619     21.6918E-03     23.2647E-03
             966            1620     10.4453E-03     11.8670E-03
             984            1620     10.4453E-03     11.8670E-03
             965            1620     10.4453E-03     11.8670E-03
             983            1620     10.4453E-03     11.8670E-03
             966            1621     11.3325E-03     11.6680E-03
             985            1621     11.3325E-03     11.6680E-03
             967            1621     11.3325E-03     11.6680E-03
             984            1621     11.3325E-03     11.6680E-03
             967            1622     11.8629E-03     11.9793E-03
             985            1622     11.8629E-03     11.9793E-03
             968            1622     11.8629E-03     11.9793E-03
             986            1622     11.8629E-03     11.9793E-03
             969            1623     12.4549E-03     12.5983E-03
             968            1623     12.4549E-03     12.5983E-03
             987            1623     12.4549E-03     12.5983E-03
             986            1623     12.4549E-03     12.5983E-03
             988            1624     13.1267E-03     13.2937E-03
             970            1624     13.1267E-03     13.2937E-03
             969            1624     13.1267E-03     13.2937E-03
             987            1624     13.1267E-03     13.2937E-03
             989            1625     13.8856E-03     14.0992E-03
             988            1625     13.8856E-03     14.0992E-03
             970            1625     13.8856E-03     14.0992E-03
             971            1625     13.8856E-03     14.0992E-03
             972            1626     14.7013E-03     14.9438E-03
             989            1626     14.7013E-03     14.9438E-03
             990            1626     14.7013E-03     14.9438E-03
             971            1626     14.7013E-03     14.9438E-03
             972            1627     15.5583E-03     15.8192E-03
             973            1627     15.5583E-03     15.8192E-03
             990            1627     15.5583E-03     15.8192E-03
             991            1627     15.5583E-03     15.8192E-03
             974            1628     16.4199E-03     16.6839E-03
             991            1628     16.4199E-03     16.6839E-03
             992            1628     16.4199E-03     16.6839E-03
             973            1628     16.4199E-03     16.6839E-03
             975            1629     17.2610E-03     17.5168E-03
             974            1629     17.2610E-03     17.5168E-03
             992            1629     17.2610E-03     17.5168E-03
             993            1629     17.2610E-03     17.5168E-03
             994            1630     18.0359E-03     18.2650E-03
             975            1630     18.0359E-03     18.2650E-03
             976            1630     18.0359E-03     18.2650E-03
             993            1630     18.0359E-03     18.2650E-03
             995            1631     18.7243E-03     18.9141E-03
             977            1631     18.7243E-03     18.9141E-03
             994            1631     18.7243E-03     18.9141E-03
             976            1631     18.7243E-03     18.9141E-03
             995            1632     19.2755E-03     19.4017E-03
             978            1632     19.2755E-03     19.4017E-03
             996            1632     19.2755E-03     19.4017E-03
             977            1632     19.2755E-03     19.4017E-03
             997            1633     19.7356E-03     19.7872E-03
             979            1633     19.7356E-03     19.7872E-03
             996            1633     19.7356E-03     19.7872E-03
             978            1633     19.7356E-03     19.7872E-03
             997            1634     20.1656E-03     20.1200E-03
             998            1634     20.1656E-03     20.1200E-03
             980            1634     20.1656E-03     20.1200E-03
             979            1634     20.1656E-03     20.1200E-03
             980            1635     20.7193E-03     20.7087E-03
             981            1635     20.7193E-03     20.7087E-03
             999            1635     20.7193E-03     20.7087E-03
             998            1635     20.7193E-03     20.7087E-03
             982            1636     22.5292E-03     23.1277E-03
            1000            1636     22.5292E-03     23.1277E-03
             999            1636     22.5292E-03     23.1277E-03
             981            1636     22.5292E-03     23.1277E-03
             983            1637     14.2183E-03     15.8327E-03
             984            1637     14.2183E-03     15.8327E-03
            1002            1637     14.2183E-03     15.8327E-03
            1001            1637     14.2183E-03     15.8327E-03
            1002            1638     15.0784E-03     15.6334E-03
             985            1638     15.0784E-03     15.6334E-03
            1003            1638     15.0784E-03     15.6334E-03
             984            1638     15.0784E-03     15.6334E-03
            1003            1639     16.1771E-03     16.0171E-03
             986            1639     16.1771E-03     16.0171E-03
            1004            1639     16.1771E-03     16.0171E-03
             985            1639     16.1771E-03     16.0171E-03
             987            1640     17.3351E-03     16.8936E-03
             986            1640     17.3351E-03     16.8936E-03
            1005            1640     17.3351E-03     16.8936E-03
            1004            1640     17.3351E-03     16.8936E-03
             988            1641     18.6020E-03     18.0076E-03
             987            1641     18.6020E-03     18.0076E-03
            1005            1641     18.6020E-03     18.0076E-03
            1006            1641     18.6020E-03     18.0076E-03
            1007            1642     19.9854E-03     19.2877E-03
             989            1642     19.9854E-03     19.2877E-03
            1006            1642     19.9854E-03     19.2877E-03
             988            1642     19.9854E-03     19.2877E-03
             990            1643     21.4387E-03     20.6673E-03
            1007            1643     21.4387E-03     20.6673E-03
            1008            1643     21.4387E-03     20.6673E-03
             989            1643     21.4387E-03     20.6673E-03
             991            1644     22.9371E-03     22.0909E-03
            1009            1644     22.9371E-03     22.0909E-03
            1008            1644     22.9371E-03     22.0909E-03
             990            1644     22.9371E-03     22.0909E-03
             991            1645     24.4284E-03     23.5123E-03
             992            1645     24.4284E-03     23.5123E-03
            1010            1645     24.4284E-03     23.5123E-03
            1009            1645     24.4284E-03     23.5123E-03
             992            1646     25.8699E-03     24.8691E-03
            1011            1646     25.8699E-03     24.8691E-03
             993            1646     25.8699E-03     24.8691E-03
            1010            1646     25.8699E-03     24.8691E-03
            1011            1647     27.1987E-03     26.1070E-03
             994            1647     27.1987E-03     26.1070E-03
            1012            1647     27.1987E-03     26.1070E-03
             993            1647     27.1987E-03     26.1070E-03
             994            1648     28.3325E-03     27.1309E-03
            1012            1648     28.3325E-03     27.1309E-03
             995            1648     28.3325E-03     27.1309E-03
            1013            1648     28.3325E-03     27.1309E-03
            1013            1649     29.1811E-03     27.8505E-03
             996            1649     29.1811E-03     27.8505E-03
            1014            1649     29.1811E-03     27.8505E-03
             995            1649     29.1811E-03     27.8505E-03
             996            1650     29.5525E-03     28.0936E-03
            1015            1650     29.5525E-03     28.0936E-03
            1014            1650     29.5525E-03     28.0936E-03
             997            1650     29.5525E-03     28.0936E-03
            1015            1651     29.2702E-03     27.6748E-03
             997            1651     29.2702E-03     27.6748E-03
            1016            1651     29.2702E-03     27.6748E-03
             998            1651     29.2702E-03     27.6748E-03
             998            1652     27.6910E-03     26.0996E-03
            1017            1652     27.6910E-03     26.0996E-03
            1016            1652     27.6910E-03     26.0996E-03
             999            1652     27.6910E-03     26.0996E-03
             999            1653     24.7647E-03     23.3672E-03
            1018            1653     24.7647E-03     23.3672E-03
            1017            1653     24.7647E-03     23.3672E-03
            1000            1653     24.7647E-03     23.3672E-03
            1002            1654     13.5233E-03     14.0910E-03
            1019            1654     13.5233E-03     14.0910E-03
            1001            1654     13.5233E-03     14.0910E-03
            1020            1654     13.5233E-03     14.0910E-03
            1020            1655     13.8414E-03     14.6875E-03
            1003            1655     13.8414E-03     14.6875E-03
            1021            1655     13.8414E-03     14.6875E-03
            1002            1655     13.8414E-03     14.6875E-03
            1021            1656     14.9343E-03     15.2335E-03
            1022            1656     14.9343E-03     15.2335E-03
            1003            1656     14.9343E-03     15.2335E-03
            1004            1656     14.9343E-03     15.2335E-03
            1022            1657     16.3052E-03     16.1927E-03
            1005            1657     16.3052E-03     16.1927E-03
            1023            1657     16.3052E-03     16.1927E-03
            1004            1657     16.3052E-03     16.1927E-03
            1006            1658     17.7936E-03     17.4818E-03
            1023            1658     17.7936E-03     17.4818E-03
            1024            1658     17.7936E-03     17.4818E-03
            1005            1658     17.7936E-03     17.4818E-03
            1006            1659     19.4086E-03     18.9705E-03
            1025            1659     19.4086E-03     18.9705E-03
            1007            1659     19.4086E-03     18.9705E-03
            1024            1659     19.4086E-03     18.9705E-03
            1007            1660     21.1119E-03     20.6012E-03
            1025            1660     21.1119E-03     20.6012E-03
            1026            1660     21.1119E-03     20.6012E-03
            1008            1660     21.1119E-03     20.6012E-03
            1026            1661     22.8736E-03     22.3112E-03
            1009            1661     22.8736E-03     22.3112E-03
            1027            1661     22.8736E-03     22.3112E-03
            1008            1661     22.8736E-03     22.3112E-03
            1009            1662     24.6598E-03     24.0537E-03
            1028            1662     24.6598E-03     24.0537E-03
            1027            1662     24.6598E-03     24.0537E-03
            1010            1662     24.6598E-03     24.0537E-03
            1028            1663     26.4178E-03     25.7776E-03
            1029            1663     26.4178E-03     25.7776E-03
            1011            1663     26.4178E-03     25.7776E-03
            1010            1663     26.4178E-03     25.7776E-03
            1030            1664     28.0898E-03     27.4167E-03
            1011            1664     28.0898E-03     27.4167E-03
            1012            1664     28.0898E-03     27.4167E-03
            1029            1664     28.0898E-03     27.4167E-03
            1013            1665     29.5804E-03     28.8910E-03
            1031            1665     29.5804E-03     28.8910E-03
            1012            1665     29.5804E-03     28.8910E-03
            1030            1665     29.5804E-03     28.8910E-03
            1014            1666     30.7539E-03     30.0770E-03
            1032            1666     30.7539E-03     30.0770E-03
            1013            1666     30.7539E-03     30.0770E-03
            1031            1666     30.7539E-03     30.0770E-03
            1014            1667     31.4126E-03     30.7988E-03
            1032            1667     31.4126E-03     30.7988E-03
            1033            1667     31.4126E-03     30.7988E-03
            1015            1667     31.4126E-03     30.7988E-03
            1033            1668     31.2565E-03     30.8326E-03
            1016            1668     31.2565E-03     30.8326E-03
            1034            1668     31.2565E-03     30.8326E-03
            1015            1668     31.2565E-03     30.8326E-03
            1034            1669     29.7889E-03     29.7200E-03
            1035            1669     29.7889E-03     29.7200E-03
            1017            1669     29.7889E-03     29.7200E-03
            1016            1669     29.7889E-03     29.7200E-03
            1035            1670     28.7254E-03     28.7286E-03
            1018            1670     28.7254E-03     28.7286E-03
            1036            1670     28.7254E-03     28.7286E-03
            1017            1670     28.7254E-03     28.7286E-03
            1038            1671     12.5116E-03     12.3607E-03
            1020            1671     12.5116E-03     12.3607E-03
            1019            1671     12.5116E-03     12.3607E-03
            1037            1671     12.5116E-03     12.3607E-03
            1039            1672     13.0335E-03     13.3275E-03
            1038            1672     13.0335E-03     13.3275E-03
            1020            1672     13.0335E-03     13.3275E-03
            1021            1672     13.0335E-03     13.3275E-03
            1040            1673     13.9899E-03     14.3829E-03
            1021            1673     13.9899E-03     14.3829E-03
            1022            1673     13.9899E-03     14.3829E-03
            1039            1673     13.9899E-03     14.3829E-03
            1022            1674     15.4263E-03     15.5737E-03
            1040            1674     15.4263E-03     15.5737E-03
            1041            1674     15.4263E-03     15.5737E-03
            1023            1674     15.4263E-03     15.5737E-03
            1023            1675     17.0958E-03     17.0601E-03
            1024            1675     17.0958E-03     17.0601E-03
            1041            1675     17.0958E-03     17.0601E-03
            1042            1675     17.0958E-03     17.0601E-03
            1043            1676     18.9016E-03     18.7612E-03
            1025            1676     18.9016E-03     18.7612E-03
            1042            1676     18.9016E-03     18.7612E-03
            1024            1676     18.9016E-03     18.7612E-03
            1025            1677     20.8169E-03     20.6127E-03
            1026            1677     20.8169E-03     20.6127E-03
            1044            1677     20.8169E-03     20.6127E-03
            1043            1677     20.8169E-03     20.6127E-03
            1045            1678     22.8031E-03     22.5670E-03
            1026            1678     22.8031E-03     22.5670E-03
            1044            1678     22.8031E-03     22.5670E-03
            1027            1678     22.8031E-03     22.5670E-03
            1028            1679     24.8234E-03     24.5749E-03
            1046            1679     24.8234E-03     24.5749E-03
            1027            1679     24.8234E-03     24.5749E-03
            1045            1679     24.8234E-03     24.5749E-03
            1029            1680     26.8406E-03     26.5916E-03
            1047            1680     26.8406E-03     26.5916E-03
            1028            1680     26.8406E-03     26.5916E-03
            1046            1680     26.8406E-03     26.5916E-03
            1030            1681     28.7768E-03     28.5538E-03
            1029            1681     28.7768E-03     28.5538E-03
            1048            1681     28.7768E-03     28.5538E-03
            1047            1681     28.7768E-03     28.5538E-03
            1031            1682     30.5515E-03     30.3756E-03
            1030            1682     30.5515E-03     30.3756E-03
            1049            1682     30.5515E-03     30.3756E-03
            1048            1682     30.5515E-03     30.3756E-03
            1049            1683     32.0000E-03     31.9262E-03
            1032            1683     32.0000E-03     31.9262E-03
            1050            1683     32.0000E-03     31.9262E-03
            1031            1683     32.0000E-03     31.9262E-03
            1032            1684     32.9435E-03     33.0398E-03
            1051            1684     32.9435E-03     33.0398E-03
            1033            1684     32.9435E-03     33.0398E-03
            1050            1684     32.9435E-03     33.0398E-03
            1051            1685     33.1048E-03     33.4457E-03
            1052            1685     33.1048E-03     33.4457E-03
            1034            1685     33.1048E-03     33.4457E-03
            1033            1685     33.1048E-03     33.4457E-03
            1034            1686     32.7186E-03     33.2284E-03
            1053            1686     32.7186E-03     33.2284E-03
            1052            1686     32.7186E-03     33.2284E-03
            1035            1686     32.7186E-03     33.2284E-03
            1053            1687     33.2977E-03     33.4565E-03
            1035            1687     33.2977E-03     33.4565E-03
            1036            1687     33.2977E-03     33.4565E-03
            1054            1687     33.2977E-03     33.4565E-03
            1038            1688     11.4653E-03     11.2371E-03
            1056            1688     11.4653E-03     11.2371E-03
            1055            1688     11.4653E-03     11.2371E-03
            1037            1688     11.4653E-03     11.2371E-03
            1057            1689     12.0943E-03     12.1290E-03
            1056            1689     12.0943E-03     12.1290E-03
            1039            1689     12.0943E-03     12.1290E-03
            1038            1689     12.0943E-03     12.1290E-03
            1057            1690     13.1895E-03     13.4445E-03
            1058            1690     13.1895E-03     13.4445E-03
            1039            1690     13.1895E-03     13.4445E-03
            1040            1690     13.1895E-03     13.4445E-03
            1041            1691     14.6623E-03     14.9576E-03
            1040            1691     14.6623E-03     14.9576E-03
            1058            1691     14.6623E-03     14.9576E-03
            1059            1691     14.6623E-03     14.9576E-03
            1042            1692     16.4410E-03     16.6530E-03
            1059            1692     16.4410E-03     16.6530E-03
            1060            1692     16.4410E-03     16.6530E-03
            1041            1692     16.4410E-03     16.6530E-03
            1043            1693     18.3951E-03     18.5466E-03
            1060            1693     18.3951E-03     18.5466E-03
            1042            1693     18.3951E-03     18.5466E-03
            1061            1693     18.3951E-03     18.5466E-03
            1044            1694     20.4654E-03     20.5829E-03
            1043            1694     20.4654E-03     20.5829E-03
            1062            1694     20.4654E-03     20.5829E-03
            1061            1694     20.4654E-03     20.5829E-03
            1063            1695     22.6151E-03     22.7224E-03
            1044            1695     22.6151E-03     22.7224E-03
            1045            1695     22.6151E-03     22.7224E-03
            1062            1695     22.6151E-03     22.7224E-03
            1063            1696     24.8145E-03     24.9306E-03
            1045            1696     24.8145E-03     24.9306E-03
            1046            1696     24.8145E-03     24.9306E-03
            1064            1696     24.8145E-03     24.9306E-03
            1046            1697     27.0134E-03     27.1620E-03
            1047            1697     27.0134E-03     27.1620E-03
            1064            1697     27.0134E-03     27.1620E-03
            1065            1697     27.0134E-03     27.1620E-03
            1047            1698     29.1741E-03     29.3702E-03
            1048            1698     29.1741E-03     29.3702E-03
            1065            1698     29.1741E-03     29.3702E-03
            1066            1698     29.1741E-03     29.3702E-03
            1049            1699     31.1815E-03     31.4701E-03
            1048            1699     31.1815E-03     31.4701E-03
            1067            1699     31.1815E-03     31.4701E-03
            1066            1699     31.1815E-03     31.4701E-03
            1049            1700     32.9429E-03     33.3477E-03
            1067            1700     32.9429E-03     33.3477E-03
            1050            1700     32.9429E-03     33.3477E-03
            1068            1700     32.9429E-03     33.3477E-03
            1051            1701     34.2732E-03     34.8401E-03
            1050            1701     34.2732E-03     34.8401E-03
            1068            1701     34.2732E-03     34.8401E-03
            1069            1701     34.2732E-03     34.8401E-03
            1051            1702     35.1290E-03     35.8383E-03
            1052            1702     35.1290E-03     35.8383E-03
            1070            1702     35.1290E-03     35.8383E-03
            1069            1702     35.1290E-03     35.8383E-03
            1052            1703     35.9668E-03     36.5604E-03
            1053            1703     35.9668E-03     36.5604E-03
            1070            1703     35.9668E-03     36.5604E-03
            1071            1703     35.9668E-03     36.5604E-03
            1053            1704     37.4584E-03     37.7918E-03
            1054            1704     37.4584E-03     37.7918E-03
            1072            1704     37.4584E-03     37.7918E-03
            1071            1704     37.4584E-03     37.7918E-03
            1056            1705     10.4523E-03     10.0583E-03
            1073            1705     10.4523E-03     10.0583E-03
            1074            1705     10.4523E-03     10.0583E-03
            1055            1705     10.4523E-03     10.0583E-03
            1056            1706     11.1492E-03     11.1404E-03
            1075            1706     11.1492E-03     11.1404E-03
            1074            1706     11.1492E-03     11.1404E-03
            1057            1706     11.1492E-03     11.1404E-03
            1057            1707     12.3413E-03     12.5755E-03
            1076            1707     12.3413E-03     12.5755E-03
            1058            1707     12.3413E-03     12.5755E-03
            1075            1707     12.3413E-03     12.5755E-03
            1059            1708     13.9219E-03     14.3046E-03
            1076            1708     13.9219E-03     14.3046E-03
            1077            1708     13.9219E-03     14.3046E-03
            1058            1708     13.9219E-03     14.3046E-03
            1078            1709     15.7769E-03     16.2083E-03
            1077            1709     15.7769E-03     16.2083E-03
            1060            1709     15.7769E-03     16.2083E-03
            1059            1709     15.7769E-03     16.2083E-03
            1061            1710     17.8281E-03     18.2586E-03
            1060            1710     17.8281E-03     18.2586E-03
            1078            1710     17.8281E-03     18.2586E-03
            1079            1710     17.8281E-03     18.2586E-03
            1080            1711     20.0010E-03     20.4347E-03
            1079            1711     20.0010E-03     20.4347E-03
            1061            1711     20.0010E-03     20.4347E-03
            1062            1711     20.0010E-03     20.4347E-03
            1063            1712     22.2602E-03     22.7062E-03
            1062            1712     22.2602E-03     22.7062E-03
            1080            1712     22.2602E-03     22.7062E-03
            1081            1712     22.2602E-03     22.7062E-03
            1082            1713     24.5707E-03     25.0451E-03
            1064            1713     24.5707E-03     25.0451E-03
            1081            1713     24.5707E-03     25.0451E-03
            1063            1713     24.5707E-03     25.0451E-03
            1065            1714     26.9137E-03     27.4302E-03
            1064            1714     26.9137E-03     27.4302E-03
            1083            1714     26.9137E-03     27.4302E-03
            1082            1714     26.9137E-03     27.4302E-03
            1065            1715     29.2309E-03     29.8156E-03
            1083            1715     29.2309E-03     29.8156E-03
            1084            1715     29.2309E-03     29.8156E-03
            1066            1715     29.2309E-03     29.8156E-03
            1084            1716     31.5028E-03     32.1589E-03
            1066            1716     31.5028E-03     32.1589E-03
            1067            1716     31.5028E-03     32.1589E-03
            1085            1716     31.5028E-03     32.1589E-03
            1085            1717     33.6033E-03     34.3720E-03
            1067            1717     33.6033E-03     34.3720E-03
            1086            1717     33.6033E-03     34.3720E-03
            1068            1717     33.6033E-03     34.3720E-03
            1069            1718     35.4946E-03     36.3438E-03
            1068            1718     35.4946E-03     36.3438E-03
            1086            1718     35.4946E-03     36.3438E-03
            1087            1718     35.4946E-03     36.3438E-03
            1070            1719     37.2331E-03     38.0615E-03
            1087            1719     37.2331E-03     38.0615E-03
            1088            1719     37.2331E-03     38.0615E-03
            1069            1719     37.2331E-03     38.0615E-03
            1088            1720     38.9969E-03     39.7309E-03
            1071            1720     38.9969E-03     39.7309E-03
            1070            1720     38.9969E-03     39.7309E-03
            1089            1720     38.9969E-03     39.7309E-03
            1072            1721     41.4341E-03     41.8339E-03
            1071            1721     41.4341E-03     41.8339E-03
            1089            1721     41.4341E-03     41.8339E-03
            1090            1721     41.4341E-03     41.8339E-03
            1074            1722     9.37168E-03     8.99090E-03
            1091            1722     9.37168E-03     8.99090E-03
            1073            1722     9.37168E-03     8.99090E-03
            1092            1722     9.37168E-03     8.99090E-03
            1075            1723     10.1701E-03     10.1576E-03
            1074            1723     10.1701E-03     10.1576E-03
            1093            1723     10.1701E-03     10.1576E-03
            1092            1723     10.1701E-03     10.1576E-03
            1075            1724     11.4540E-03     11.7780E-03
            1076            1724     11.4540E-03     11.7780E-03
            1093            1724     11.4540E-03     11.7780E-03
            1094            1724     11.4540E-03     11.7780E-03
            1095            1725     13.1238E-03     13.6471E-03
            1077            1725     13.1238E-03     13.6471E-03
            1094            1725     13.1238E-03     13.6471E-03
            1076            1725     13.1238E-03     13.6471E-03
            1077            1726     15.0573E-03     15.7032E-03
            1078            1726     15.0573E-03     15.7032E-03
            1095            1726     15.0573E-03     15.7032E-03
            1096            1726     15.0573E-03     15.7032E-03
            1079            1727     17.1677E-03     17.8751E-03
            1097            1727     17.1677E-03     17.8751E-03
            1096            1727     17.1677E-03     17.8751E-03
            1078            1727     17.1677E-03     17.8751E-03
            1097            1728     19.4027E-03     20.1440E-03
            1080            1728     19.4027E-03     20.1440E-03
            1098            1728     19.4027E-03     20.1440E-03
            1079            1728     19.4027E-03     20.1440E-03
            1099            1729     21.7195E-03     22.4933E-03
            1081            1729     21.7195E-03     22.4933E-03
            1098            1729     21.7195E-03     22.4933E-03
            1080            1729     21.7195E-03     22.4933E-03
            1099            1730     24.0994E-03     24.9122E-03
            1082            1730     24.0994E-03     24.9122E-03
            1100            1730     24.0994E-03     24.9122E-03
            1081            1730     24.0994E-03     24.9122E-03
            1083            1731     26.5222E-03     27.3826E-03
            1101            1731     26.5222E-03     27.3826E-03
            1100            1731     26.5222E-03     27.3826E-03
            1082            1731     26.5222E-03     27.3826E-03
            1102            1732     28.9895E-03     29.9050E-03
            1084            1732     28.9895E-03     29.9050E-03
            1083            1732     28.9895E-03     29.9050E-03
            1101            1732     28.9895E-03     29.9050E-03
            1084            1733     31.4644E-03     32.4467E-03
            1103            1733     31.4644E-03     32.4467E-03
            1085            1733     31.4644E-03     32.4467E-03
            1102            1733     31.4644E-03     32.4467E-03
            1085            1734     33.9997E-03     35.0087E-03
            1103            1734     33.9997E-03     35.0087E-03
            1086            1734     33.9997E-03     35.0087E-03
            1104            1734     33.9997E-03     35.0087E-03
            1104            1735     36.5321E-03     37.5652E-03
            1105            1735     36.5321E-03     37.5652E-03
            1087            1735     36.5321E-03     37.5652E-03
            1086            1735     36.5321E-03     37.5652E-03
            1087            1736     39.1202E-03     40.0897E-03
            1088            1736     39.1202E-03     40.0897E-03
            1105            1736     39.1202E-03     40.0897E-03
            1106            1736     39.1202E-03     40.0897E-03
            1088            1737     41.9612E-03     42.6894E-03
            1106            1737     41.9612E-03     42.6894E-03
            1089            1737     41.9612E-03     42.6894E-03
            1107            1737     41.9612E-03     42.6894E-03
            1090            1738     45.1663E-03     45.7694E-03
            1107            1738     45.1663E-03     45.7694E-03
            1089            1738     45.1663E-03     45.7694E-03
            1108            1738     45.1663E-03     45.7694E-03
            1092            1739     8.25619E-03     7.92922E-03
            1109            1739     8.25619E-03     7.92922E-03
            1110            1739     8.25619E-03     7.92922E-03
            1091            1739     8.25619E-03     7.92922E-03
            1111            1740     9.11462E-03     9.23692E-03
            1093            1740     9.11462E-03     9.23692E-03
            1092            1740     9.11462E-03     9.23692E-03
            1110            1740     9.11462E-03     9.23692E-03
            1093            1741     10.5091E-03     10.9851E-03
            1094            1741     10.5091E-03     10.9851E-03
            1111            1741     10.5091E-03     10.9851E-03
            1112            1741     10.5091E-03     10.9851E-03
            1113            1742     12.2558E-03     13.0042E-03
            1094            1742     12.2558E-03     13.0042E-03
            1095            1742     12.2558E-03     13.0042E-03
            1112            1742     12.2558E-03     13.0042E-03
            1114            1743     14.2518E-03     15.1540E-03
            1095            1743     14.2518E-03     15.1540E-03
            1113            1743     14.2518E-03     15.1540E-03
            1096            1743     14.2518E-03     15.1540E-03
            1096            1744     16.4103E-03     17.4033E-03
            1097            1744     16.4103E-03     17.4033E-03
            1114            1744     16.4103E-03     17.4033E-03
            1115            1744     16.4103E-03     17.4033E-03
            1116            1745     18.6742E-03     19.7244E-03
            1097            1745     18.6742E-03     19.7244E-03
            1115            1745     18.6742E-03     19.7244E-03
            1098            1745     18.6742E-03     19.7244E-03
            1117            1746     21.0154E-03     22.1093E-03
            1099            1746     21.0154E-03     22.1093E-03
            1098            1746     21.0154E-03     22.1093E-03
            1116            1746     21.0154E-03     22.1093E-03
            1099            1747     23.4215E-03     24.5545E-03
            1100            1747     23.4215E-03     24.5545E-03
            1117            1747     23.4215E-03     24.5545E-03
            1118            1747     23.4215E-03     24.5545E-03
            1101            1748     25.8914E-03     27.0695E-03
            1118            1748     25.8914E-03     27.0695E-03
            1100            1748     25.8914E-03     27.0695E-03
            1119            1748     25.8914E-03     27.0695E-03
            1102            1749     28.4417E-03     29.6593E-03
            1120            1749     28.4417E-03     29.6593E-03
            1101            1749     28.4417E-03     29.6593E-03
            1119            1749     28.4417E-03     29.6593E-03
            1120            1750     31.1198E-03     32.3699E-03
            1103            1750     31.1198E-03     32.3699E-03
            1102            1750     31.1198E-03     32.3699E-03
            1121            1750     31.1198E-03     32.3699E-03
            1103            1751     33.9636E-03     35.2223E-03
            1104            1751     33.9636E-03     35.2223E-03
            1121            1751     33.9636E-03     35.2223E-03
            1122            1751     33.9636E-03     35.2223E-03
            1105            1752     37.1998E-03     38.3488E-03
            1123            1752     37.1998E-03     38.3488E-03
            1122            1752     37.1998E-03     38.3488E-03
            1104            1752     37.1998E-03     38.3488E-03
            1124            1753     40.7618E-03     41.8015E-03
            1105            1753     40.7618E-03     41.8015E-03
            1106            1753     40.7618E-03     41.8015E-03
            1123            1753     40.7618E-03     41.8015E-03
            1125            1754     44.6141E-03     45.5461E-03
            1106            1754     44.6141E-03     45.5461E-03
            1107            1754     44.6141E-03     45.5461E-03
            1124            1754     44.6141E-03     45.5461E-03
            1108            1755     48.9862E-03     49.5319E-03
            1126            1755     48.9862E-03     49.5319E-03
            1107            1755     48.9862E-03     49.5319E-03
            1125            1755     48.9862E-03     49.5319E-03
            1109            1756     7.05115E-03     6.85400E-03
            1110            1756     7.05115E-03     6.85400E-03
            1127            1756     7.05115E-03     6.85400E-03
            1128            1756     7.05115E-03     6.85400E-03
            1129            1757     8.00523E-03     8.33852E-03
            1110            1757     8.00523E-03     8.33852E-03
            1111            1757     8.00523E-03     8.33852E-03
            1128            1757     8.00523E-03     8.33852E-03
            1112            1758     9.47265E-03     10.2609E-03
            1130            1758     9.47265E-03     10.2609E-03
            1129            1758     9.47265E-03     10.2609E-03
            1111            1758     9.47265E-03     10.2609E-03
            1131            1759     11.3153E-03     12.3693E-03
            1112            1759     11.3153E-03     12.3693E-03
            1130            1759     11.3153E-03     12.3693E-03
            1113            1759     11.3153E-03     12.3693E-03
            1132            1760     13.3770E-03     14.5897E-03
            1113            1760     13.3770E-03     14.5897E-03
            1114            1760     13.3770E-03     14.5897E-03
            1131            1760     13.3770E-03     14.5897E-03
            1133            1761     15.5695E-03     16.8788E-03
            1114            1761     15.5695E-03     16.8788E-03
            1132            1761     15.5695E-03     16.8788E-03
            1115            1761     15.5695E-03     16.8788E-03
            1134            1762     17.8477E-03     19.2190E-03
            1115            1762     17.8477E-03     19.2190E-03
            1133            1762     17.8477E-03     19.2190E-03
            1116            1762     17.8477E-03     19.2190E-03
            1116            1763     20.1930E-03     21.6054E-03
            1134            1763     20.1930E-03     21.6054E-03
            1117            1763     20.1930E-03     21.6054E-03
            1135            1763     20.1930E-03     21.6054E-03
            1135            1764     22.5954E-03     24.0432E-03
            1117            1764     22.5954E-03     24.0432E-03
            1118            1764     22.5954E-03     24.0432E-03
            1136            1764     22.5954E-03     24.0432E-03
            1118            1765     25.0790E-03     26.5512E-03
            1137            1765     25.0790E-03     26.5512E-03
            1136            1765     25.0790E-03     26.5512E-03
            1119            1765     25.0790E-03     26.5512E-03
            1138            1766     27.6665E-03     29.1682E-03
            1120            1766     27.6665E-03     29.1682E-03
            1119            1766     27.6665E-03     29.1682E-03
            1137            1766     27.6665E-03     29.1682E-03
            1138            1767     30.4472E-03     31.9496E-03
            1139            1767     30.4472E-03     31.9496E-03
            1120            1767     30.4472E-03     31.9496E-03
            1121            1767     30.4472E-03     31.9496E-03
            1122            1768     33.5400E-03     35.0282E-03
            1139            1768     33.5400E-03     35.0282E-03
            1121            1768     33.5400E-03     35.0282E-03
            1140            1768     33.5400E-03     35.0282E-03
            1141            1769     37.1239E-03     38.5269E-03
            1140            1769     37.1239E-03     38.5269E-03
            1122            1769     37.1239E-03     38.5269E-03
            1123            1769     37.1239E-03     38.5269E-03
            1141            1770     41.7587E-03     42.8473E-03
            1123            1770     41.7587E-03     42.8473E-03
            1142            1770     41.7587E-03     42.8473E-03
            1124            1770     41.7587E-03     42.8473E-03
            1143            1771     47.1419E-03     47.9666E-03
            1142            1771     47.1419E-03     47.9666E-03
            1124            1771     47.1419E-03     47.9666E-03
            1125            1771     47.1419E-03     47.9666E-03
            1143            1772     52.5540E-03     53.5538E-03
            1144            1772     52.5540E-03     53.5538E-03
            1125            1772     52.5540E-03     53.5538E-03
            1126            1772     52.5540E-03     53.5538E-03
            1146            1773     5.74457E-03     5.84916E-03
            1145            1773     5.74457E-03     5.84916E-03
            1128            1773     5.74457E-03     5.84916E-03
            1127            1773     5.74457E-03     5.84916E-03
            1146            1774     6.74152E-03     7.56780E-03
            1147            1774     6.74152E-03     7.56780E-03
            1128            1774     6.74152E-03     7.56780E-03
            1129            1774     6.74152E-03     7.56780E-03
            1129            1775     8.37097E-03     9.60045E-03
            1148            1775     8.37097E-03     9.60045E-03
            1147            1775     8.37097E-03     9.60045E-03
            1130            1775     8.37097E-03     9.60045E-03
            1148            1776     10.3336E-03     11.7781E-03
            1130            1776     10.3336E-03     11.7781E-03
            1131            1776     10.3336E-03     11.7781E-03
            1149            1776     10.3336E-03     11.7781E-03
            1131            1777     12.4623E-03     14.0423E-03
            1150            1777     12.4623E-03     14.0423E-03
            1132            1777     12.4623E-03     14.0423E-03
            1149            1777     12.4623E-03     14.0423E-03
            1150            1778     14.6856E-03     16.3504E-03
            1132            1778     14.6856E-03     16.3504E-03
            1133            1778     14.6856E-03     16.3504E-03
            1151            1778     14.6856E-03     16.3504E-03
            1152            1779     16.9747E-03     18.6893E-03
            1133            1779     16.9747E-03     18.6893E-03
            1151            1779     16.9747E-03     18.6893E-03
            1134            1779     16.9747E-03     18.6893E-03
            1153            1780     19.3107E-03     21.0555E-03
            1134            1780     19.3107E-03     21.0555E-03
            1135            1780     19.3107E-03     21.0555E-03
            1152            1780     19.3107E-03     21.0555E-03
            1154            1781     21.7063E-03     23.4649E-03
            1135            1781     21.7063E-03     23.4649E-03
            1153            1781     21.7063E-03     23.4649E-03
            1136            1781     21.7063E-03     23.4649E-03
            1154            1782     24.1702E-03     25.9365E-03
            1137            1782     24.1702E-03     25.9365E-03
            1155            1782     24.1702E-03     25.9365E-03
            1136            1782     24.1702E-03     25.9365E-03
            1155            1783     26.7708E-03     28.5290E-03
            1138            1783     26.7708E-03     28.5290E-03
            1137            1783     26.7708E-03     28.5290E-03
            1156            1783     26.7708E-03     28.5290E-03
            1138            1784     29.5614E-03     31.3162E-03
            1156            1784     29.5614E-03     31.3162E-03
            1139            1784     29.5614E-03     31.3162E-03
            1157            1784     29.5614E-03     31.3162E-03
            1158            1785     32.7394E-03     34.4523E-03
            1139            1785     32.7394E-03     34.4523E-03
            1140            1785     32.7394E-03     34.4523E-03
            1157            1785     32.7394E-03     34.4523E-03
            1140            1786     36.4962E-03     38.1746E-03
            1159            1786     36.4962E-03     38.1746E-03
            1158            1786     36.4962E-03     38.1746E-03
            1141            1786     36.4962E-03     38.1746E-03
            1141            1787     41.3131E-03     42.8436E-03
            1159            1787     41.3131E-03     42.8436E-03
            1160            1787     41.3131E-03     42.8436E-03
            1142            1787     41.3131E-03     42.8436E-03
            1161            1788     48.4410E-03     49.3837E-03
            1142            1788     48.4410E-03     49.3837E-03
            1160            1788     48.4410E-03     49.3837E-03
            1143            1788     48.4410E-03     49.3837E-03
            1143            1789     56.5419E-03     56.7172E-03
            1161            1789     56.5419E-03     56.7172E-03
            1162            1789     56.5419E-03     56.7172E-03
            1144            1789     56.5419E-03     56.7172E-03
            1164            1790     4.15311E-03     5.05845E-03
            1145            1790     4.15311E-03     5.05845E-03
            1163            1790     4.15311E-03     5.05845E-03
            1146            1790     4.15311E-03     5.05845E-03
            1164            1791     5.41257E-03     6.91308E-03
            1147            1791     5.41257E-03     6.91308E-03
            1146            1791     5.41257E-03     6.91308E-03
            1165            1791     5.41257E-03     6.91308E-03
            1147            1792     7.27470E-03     9.02171E-03
            1148            1792     7.27470E-03     9.02171E-03
            1166            1792     7.27470E-03     9.02171E-03
            1165            1792     7.27470E-03     9.02171E-03
            1167            1793     9.36425E-03     11.2653E-03
            1166            1793     9.36425E-03     11.2653E-03
            1149            1793     9.36425E-03     11.2653E-03
            1148            1793     9.36425E-03     11.2653E-03
            1149            1794     11.5564E-03     13.5579E-03
            1168            1794     11.5564E-03     13.5579E-03
            1167            1794     11.5564E-03     13.5579E-03
            1150            1794     11.5564E-03     13.5579E-03
            1150            1795     13.8131E-03     15.8731E-03
            1168            1795     13.8131E-03     15.8731E-03
            1151            1795     13.8131E-03     15.8731E-03
            1169            1795     13.8131E-03     15.8731E-03
            1151            1796     16.1078E-03     18.1991E-03
            1152            1796     16.1078E-03     18.1991E-03
            1169            1796     16.1078E-03     18.1991E-03
            1170            1796     16.1078E-03     18.1991E-03
            1153            1797     18.4447E-03     20.5436E-03
            1171            1797     18.4447E-03     20.5436E-03
            1170            1797     18.4447E-03     20.5436E-03
            1152            1797     18.4447E-03     20.5436E-03
            1153            1798     20.8259E-03     22.9119E-03
            1171            1798     20.8259E-03     22.9119E-03
            1172            1798     20.8259E-03     22.9119E-03
            1154            1798     20.8259E-03     22.9119E-03
            1173            1799     23.2892E-03     25.3475E-03
            1155            1799     23.2892E-03     25.3475E-03
            1154            1799     23.2892E-03     25.3475E-03
            1172            1799     23.2892E-03     25.3475E-03
            1155            1800     25.8652E-03     27.8813E-03
            1174            1800     25.8652E-03     27.8813E-03
            1156            1800     25.8652E-03     27.8813E-03
            1173            1800     25.8652E-03     27.8813E-03
            1156            1801     28.6699E-03     30.6354E-03
            1157            1801     28.6699E-03     30.6354E-03
            1174            1801     28.6699E-03     30.6354E-03
            1175            1801     28.6699E-03     30.6354E-03
            1176            1802     31.7849E-03     33.7083E-03
            1158            1802     31.7849E-03     33.7083E-03
            1175            1802     31.7849E-03     33.7083E-03
            1157            1802     31.7849E-03     33.7083E-03
            1159            1803     35.5479E-03     37.4425E-03
            1176            1803     35.5479E-03     37.4425E-03
            1177            1803     35.5479E-03     37.4425E-03
            1158            1803     35.5479E-03     37.4425E-03
            1178            1804     40.1635E-03     42.1193E-03
            1177            1804     40.1635E-03     42.1193E-03
            1159            1804     40.1635E-03     42.1193E-03
            1160            1804     40.1635E-03     42.1193E-03
            1160            1805     46.9392E-03     49.0272E-03
            1161            1805     46.9392E-03     49.0272E-03
            1178            1805     46.9392E-03     49.0272E-03
            1179            1805     46.9392E-03     49.0272E-03
            1161            1806     57.9633E-03     59.6522E-03
            1179            1806     57.9633E-03     59.6522E-03
            1162            1806     57.9633E-03     59.6522E-03
            1180            1806     57.9633E-03     59.6522E-03
            1164            1807     11.6023E-03     13.4956E-03
            1163            1807     11.6023E-03     13.4956E-03
            1181            1807     11.6023E-03     13.4956E-03
            1182            1807     11.6023E-03     13.4956E-03
            1165            1808     13.5953E-03     14.5161E-03
            1164            1808     13.5953E-03     14.5161E-03
            1182            1808     13.5953E-03     14.5161E-03
            1183            1808     13.5953E-03     14.5161E-03
            1165            1809     15.6090E-03     16.3908E-03
            1183            1809     15.6090E-03     16.3908E-03
            1166            1809     15.6090E-03     16.3908E-03
            1184            1809     15.6090E-03     16.3908E-03
            1185            1810     17.8837E-03     18.7130E-03
            1166            1810     17.8837E-03     18.7130E-03
            1167            1810     17.8837E-03     18.7130E-03
            1184            1810     17.8837E-03     18.7130E-03
            1186            1811     20.3574E-03     21.2116E-03
            1185            1811     20.3574E-03     21.2116E-03
            1167            1811     20.3574E-03     21.2116E-03
            1168            1811     20.3574E-03     21.2116E-03
            1168            1812     22.9665E-03     23.8466E-03
            1186            1812     22.9665E-03     23.8466E-03
            1169            1812     22.9665E-03     23.8466E-03
            1187            1812     22.9665E-03     23.8466E-03
            1188            1813     25.6752E-03     26.5456E-03
            1170            1813     25.6752E-03     26.5456E-03
            1169            1813     25.6752E-03     26.5456E-03
            1187            1813     25.6752E-03     26.5456E-03
            1171            1814     28.4373E-03     29.2795E-03
            1188            1814     28.4373E-03     29.2795E-03
            1189            1814     28.4373E-03     29.2795E-03
            1170            1814     28.4373E-03     29.2795E-03
            1171            1815     31.2367E-03     32.0143E-03
            1172            1815     31.2367E-03     32.0143E-03
            1189            1815     31.2367E-03     32.0143E-03
            1190            1815     31.2367E-03     32.0143E-03
            1172            1816     34.0442E-03     34.7422E-03
            1173            1816     34.0442E-03     34.7422E-03
            1191            1816     34.0442E-03     34.7422E-03
            1190            1816     34.0442E-03     34.7422E-03
            1173            1817     36.8684E-03     37.4363E-03
            1174            1817     36.8684E-03     37.4363E-03
            1192            1817     36.8684E-03     37.4363E-03
            1191            1817     36.8684E-03     37.4363E-03
            1192            1818     39.6919E-03     40.1275E-03
            1193            1818     39.6919E-03     40.1275E-03
            1175            1818     39.6919E-03     40.1275E-03
            1174            1818     39.6919E-03     40.1275E-03
            1193            1819     42.5746E-03     42.8107E-03
            1175            1819     42.5746E-03     42.8107E-03
            1194            1819     42.5746E-03     42.8107E-03
            1176            1819     42.5746E-03     42.8107E-03
            1176            1820     45.5035E-03     45.5898E-03
            1177            1820     45.5035E-03     45.5898E-03
            1195            1820     45.5035E-03     45.5898E-03
            1194            1820     45.5035E-03     45.5898E-03
            1177            1821     48.7005E-03     48.6105E-03
            1178            1821     48.7005E-03     48.6105E-03
            1195            1821     48.7005E-03     48.6105E-03
            1196            1821     48.7005E-03     48.6105E-03
            1197            1822     52.1187E-03     52.1151E-03
            1178            1822     52.1187E-03     52.1151E-03
            1196            1822     52.1187E-03     52.1151E-03
            1179            1822     52.1187E-03     52.1151E-03
            1197            1823     57.2134E-03     58.2860E-03
            1180            1823     57.2134E-03     58.2860E-03
            1179            1823     57.2134E-03     58.2860E-03
            1198            1823     57.2134E-03     58.2860E-03
            1200            1824     19.1103E-03     21.4181E-03
            1181            1824     19.1103E-03     21.4181E-03
            1182            1824     19.1103E-03     21.4181E-03
            1199            1824     19.1103E-03     21.4181E-03
            1182            1825     20.9349E-03     21.7595E-03
            1183            1825     20.9349E-03     21.7595E-03
            1201            1825     20.9349E-03     21.7595E-03
            1200            1825     20.9349E-03     21.7595E-03
            1183            1826     23.3305E-03     23.3170E-03
            1201            1826     23.3305E-03     23.3170E-03
            1184            1826     23.3305E-03     23.3170E-03
            1202            1826     23.3305E-03     23.3170E-03
            1184            1827     26.0053E-03     25.7524E-03
            1202            1827     26.0053E-03     25.7524E-03
            1203            1827     26.0053E-03     25.7524E-03
            1185            1827     26.0053E-03     25.7524E-03
            1204            1828     28.9521E-03     28.6177E-03
            1185            1828     28.9521E-03     28.6177E-03
            1203            1828     28.9521E-03     28.6177E-03
            1186            1828     28.9521E-03     28.6177E-03
            1187            1829     32.1356E-03     31.7575E-03
            1204            1829     32.1356E-03     31.7575E-03
            1186            1829     32.1356E-03     31.7575E-03
            1205            1829     32.1356E-03     31.7575E-03
            1187            1830     35.4602E-03     35.0517E-03
            1188            1830     35.4602E-03     35.0517E-03
            1206            1830     35.4602E-03     35.0517E-03
            1205            1830     35.4602E-03     35.0517E-03
            1207            1831     38.8805E-03     38.4180E-03
            1188            1831     38.8805E-03     38.4180E-03
            1189            1831     38.8805E-03     38.4180E-03
            1206            1831     38.8805E-03     38.4180E-03
            1189            1832     42.3213E-03     41.7947E-03
            1190            1832     42.3213E-03     41.7947E-03
            1208            1832     42.3213E-03     41.7947E-03
            1207            1832     42.3213E-03     41.7947E-03
            1209            1833     45.7377E-03     45.1124E-03
            1190            1833     45.7377E-03     45.1124E-03
            1208            1833     45.7377E-03     45.1124E-03
            1191            1833     45.7377E-03     45.1124E-03
            1192            1834     49.0559E-03     48.3144E-03
            1191            1834     49.0559E-03     48.3144E-03
            1209            1834     49.0559E-03     48.3144E-03
            1210            1834     49.0559E-03     48.3144E-03
            1210            1835     52.2082E-03     51.3164E-03
            1193            1835     52.2082E-03     51.3164E-03
            1192            1835     52.2082E-03     51.3164E-03
            1211            1835     52.2082E-03     51.3164E-03
            1193            1836     55.0981E-03     54.0340E-03
            1211            1836     55.0981E-03     54.0340E-03
            1212            1836     55.0981E-03     54.0340E-03
            1194            1836     55.0981E-03     54.0340E-03
            1213            1837     57.5901E-03     56.3529E-03
            1195            1837     57.5901E-03     56.3529E-03
            1194            1837     57.5901E-03     56.3529E-03
            1212            1837     57.5901E-03     56.3529E-03
            1196            1838     59.4972E-03     58.1036E-03
            1213            1838     59.4972E-03     58.1036E-03
            1214            1838     59.4972E-03     58.1036E-03
            1195            1838     59.4972E-03     58.1036E-03
            1197            1839     60.4291E-03     59.0360E-03
            1196            1839     60.4291E-03     59.0360E-03
            1215            1839     60.4291E-03     59.0360E-03
            1214            1839     60.4291E-03     59.0360E-03
            1198            1840     59.9531E-03     58.4383E-03
            1216            1840     59.9531E-03     58.4383E-03
            1197            1840     59.9531E-03     58.4383E-03
            1215            1840     59.9531E-03     58.4383E-03
            1218            1841     17.3986E-03     18.5860E-03
            1199            1841     17.3986E-03     18.5860E-03
            1217            1841     17.3986E-03     18.5860E-03
            1200            1841     17.3986E-03     18.5860E-03
            1200            1842     18.6273E-03     20.1171E-03
            1201            1842     18.6273E-03     20.1171E-03
            1218            1842     18.6273E-03     20.1171E-03
            1219            1842     18.6273E-03     20.1171E-03
            1219            1843     21.2507E-03     21.9623E-03
            1202            1843     21.2507E-03     21.9623E-03
            1220            1843     21.2507E-03     21.9623E-03
            1201            1843     21.2507E-03     21.9623E-03
            1221            1844     24.3952E-03     24.6302E-03
            1202            1844     24.3952E-03     24.6302E-03
            1203            1844     24.3952E-03     24.6302E-03
            1220            1844     24.3952E-03     24.6302E-03
            1204            1845     27.7896E-03     27.8333E-03
            1221            1845     27.7896E-03     27.8333E-03
            1203            1845     27.7896E-03     27.8333E-03
            1222            1845     27.7896E-03     27.8333E-03
            1205            1846     31.3923E-03     31.3385E-03
            1223            1846     31.3923E-03     31.3385E-03
            1204            1846     31.3923E-03     31.3385E-03
            1222            1846     31.3923E-03     31.3385E-03
            1224            1847     35.1341E-03     35.0340E-03
            1205            1847     35.1341E-03     35.0340E-03
            1206            1847     35.1341E-03     35.0340E-03
            1223            1847     35.1341E-03     35.0340E-03
            1206            1848     38.9638E-03     38.8337E-03
            1224            1848     38.9638E-03     38.8337E-03
            1207            1848     38.9638E-03     38.8337E-03
            1225            1848     38.9638E-03     38.8337E-03
            1207            1849     42.8413E-03     42.6788E-03
            1208            1849     42.8413E-03     42.6788E-03
            1226            1849     42.8413E-03     42.6788E-03
            1225            1849     42.8413E-03     42.6788E-03
            1208            1850     46.7052E-03     46.5191E-03
            1209            1850     46.7052E-03     46.5191E-03
            1226            1850     46.7052E-03     46.5191E-03
            1227            1850     46.7052E-03     46.5191E-03
            1210            1851     50.5062E-03     50.2894E-03
            1228            1851     50.5062E-03     50.2894E-03
            1209            1851     50.5062E-03     50.2894E-03
            1227            1851     50.5062E-03     50.2894E-03
            1229            1852     54.1487E-03     53.9268E-03
            1228            1852     54.1487E-03     53.9268E-03
            1211            1852     54.1487E-03     53.9268E-03
            1210            1852     54.1487E-03     53.9268E-03
            1229            1853     57.5239E-03     57.3232E-03
            1211            1853     57.5239E-03     57.3232E-03
            1230            1853     57.5239E-03     57.3232E-03
            1212            1853     57.5239E-03     57.3232E-03
            1212            1854     60.4650E-03     60.3526E-03
            1230            1854     60.4650E-03     60.3526E-03
            1231            1854     60.4650E-03     60.3526E-03
            1213            1854     60.4650E-03     60.3526E-03
            1232            1855     62.7252E-03     62.8268E-03
            1213            1855     62.7252E-03     62.8268E-03
            1231            1855     62.7252E-03     62.8268E-03
            1214            1855     62.7252E-03     62.8268E-03
            1215            1856     64.0201E-03     64.3677E-03
            1232            1856     64.0201E-03     64.3677E-03
            1233            1856     64.0201E-03     64.3677E-03
            1214            1856     64.0201E-03     64.3677E-03
            1234            1857     64.9262E-03     65.1881E-03
            1216            1857     64.9262E-03     65.1881E-03
            1233            1857     64.9262E-03     65.1881E-03
            1215            1857     64.9262E-03     65.1881E-03
            1235            1858     15.3911E-03     15.7096E-03
            1217            1858     15.3911E-03     15.7096E-03
            1236            1858     15.3911E-03     15.7096E-03
            1218            1858     15.3911E-03     15.7096E-03
            1236            1859     16.9909E-03     17.9934E-03
            1219            1859     16.9909E-03     17.9934E-03
            1218            1859     16.9909E-03     17.9934E-03
            1237            1859     16.9909E-03     17.9934E-03
            1238            1860     19.6227E-03     20.6623E-03
            1219            1860     19.6227E-03     20.6623E-03
            1237            1860     19.6227E-03     20.6623E-03
            1220            1860     19.6227E-03     20.6623E-03
            1238            1861     23.0559E-03     23.7235E-03
            1239            1861     23.0559E-03     23.7235E-03
            1221            1861     23.0559E-03     23.7235E-03
            1220            1861     23.0559E-03     23.7235E-03
            1221            1862     26.8247E-03     27.2707E-03
            1240            1862     26.8247E-03     27.2707E-03
            1222            1862     26.8247E-03     27.2707E-03
            1239            1862     26.8247E-03     27.2707E-03
            1222            1863     30.7807E-03     31.1108E-03
            1240            1863     30.7807E-03     31.1108E-03
            1223            1863     30.7807E-03     31.1108E-03
            1241            1863     30.7807E-03     31.1108E-03
            1223            1864     34.8685E-03     35.1446E-03
            1224            1864     34.8685E-03     35.1446E-03
            1242            1864     34.8685E-03     35.1446E-03
            1241            1864     34.8685E-03     35.1446E-03
            1224            1865     39.0428E-03     39.3000E-03
            1242            1865     39.0428E-03     39.3000E-03
            1225            1865     39.0428E-03     39.3000E-03
            1243            1865     39.0428E-03     39.3000E-03
            1244            1866     43.2624E-03     43.5275E-03
            1225            1866     43.2624E-03     43.5275E-03
            1226            1866     43.2624E-03     43.5275E-03
            1243            1866     43.2624E-03     43.5275E-03
            1226            1867     47.4963E-03     47.7809E-03
            1244            1867     47.4963E-03     47.7809E-03
            1227            1867     47.4963E-03     47.7809E-03
            1245            1867     47.4963E-03     47.7809E-03
            1228            1868     51.6715E-03     52.0122E-03
            1227            1868     51.6715E-03     52.0122E-03
            1245            1868     51.6715E-03     52.0122E-03
            1246            1868     51.6715E-03     52.0122E-03
            1246            1869     55.7209E-03     56.1405E-03
            1247            1869     55.7209E-03     56.1405E-03
            1229            1869     55.7209E-03     56.1405E-03
            1228            1869     55.7209E-03     56.1405E-03
            1248            1870     59.5102E-03     60.0667E-03
            1247            1870     59.5102E-03     60.0667E-03
            1229            1870     59.5102E-03     60.0667E-03
            1230            1870     59.5102E-03     60.0667E-03
            1231            1871     62.8616E-03     63.6303E-03
            1230            1871     62.8616E-03     63.6303E-03
            1249            1871     62.8616E-03     63.6303E-03
            1248            1871     62.8616E-03     63.6303E-03
            1249            1872     65.6129E-03     66.5848E-03
            1231            1872     65.6129E-03     66.5848E-03
            1250            1872     65.6129E-03     66.5848E-03
            1232            1872     65.6129E-03     66.5848E-03
            1251            1873     67.6851E-03     68.7956E-03
            1232            1873     67.6851E-03     68.7956E-03
            1233            1873     67.6851E-03     68.7956E-03
            1250            1873     67.6851E-03     68.7956E-03
            1233            1874     69.8605E-03     70.6332E-03
            1252            1874     69.8605E-03     70.6332E-03
            1234            1874     69.8605E-03     70.6332E-03
            1251            1874     69.8605E-03     70.6332E-03
            1236            1875     13.4106E-03     13.7115E-03
            1254            1875     13.4106E-03     13.7115E-03
            1235            1875     13.4106E-03     13.7115E-03
            1253            1875     13.4106E-03     13.7115E-03
            1237            1876     15.3201E-03     16.0882E-03
            1254            1876     15.3201E-03     16.0882E-03
            1255            1876     15.3201E-03     16.0882E-03
            1236            1876     15.3201E-03     16.0882E-03
            1237            1877     18.2944E-03     19.3220E-03
            1255            1877     18.2944E-03     19.3220E-03
            1238            1877     18.2944E-03     19.3220E-03
            1256            1877     18.2944E-03     19.3220E-03
            1238            1878     21.9277E-03     22.9045E-03
            1239            1878     21.9277E-03     22.9045E-03
            1257            1878     21.9277E-03     22.9045E-03
            1256            1878     21.9277E-03     22.9045E-03
            1239            1879     25.9666E-03     26.7747E-03
            1258            1879     25.9666E-03     26.7747E-03
            1257            1879     25.9666E-03     26.7747E-03
            1240            1879     25.9666E-03     26.7747E-03
            1258            1880     30.1916E-03     30.9063E-03
            1241            1880     30.1916E-03     30.9063E-03
            1259            1880     30.1916E-03     30.9063E-03
            1240            1880     30.1916E-03     30.9063E-03
            1242            1881     34.5364E-03     35.2033E-03
            1259            1881     34.5364E-03     35.2033E-03
            1241            1881     34.5364E-03     35.2033E-03
            1260            1881     34.5364E-03     35.2033E-03
            1261            1882     38.9595E-03     39.6242E-03
            1260            1882     38.9595E-03     39.6242E-03
            1243            1882     38.9595E-03     39.6242E-03
            1242            1882     38.9595E-03     39.6242E-03
            1262            1883     43.4389E-03     44.1303E-03
            1261            1883     43.4389E-03     44.1303E-03
            1244            1883     43.4389E-03     44.1303E-03
            1243            1883     43.4389E-03     44.1303E-03
            1263            1884     47.9328E-03     48.6876E-03
            1244            1884     47.9328E-03     48.6876E-03
            1245            1884     47.9328E-03     48.6876E-03
            1262            1884     47.9328E-03     48.6876E-03
            1264            1885     52.4169E-03     53.2556E-03
            1245            1885     52.4169E-03     53.2556E-03
            1263            1885     52.4169E-03     53.2556E-03
            1246            1885     52.4169E-03     53.2556E-03
            1265            1886     56.7974E-03     57.7701E-03
            1246            1886     56.7974E-03     57.7701E-03
            1264            1886     56.7974E-03     57.7701E-03
            1247            1886     56.7974E-03     57.7701E-03
            1266            1887     60.9843E-03     62.1178E-03
            1265            1887     60.9843E-03     62.1178E-03
            1247            1887     60.9843E-03     62.1178E-03
            1248            1887     60.9843E-03     62.1178E-03
            1248            1888     64.8378E-03     66.1338E-03
            1266            1888     64.8378E-03     66.1338E-03
            1249            1888     64.8378E-03     66.1338E-03
            1267            1888     64.8378E-03     66.1338E-03
            1250            1889     68.1970E-03     69.6350E-03
            1249            1889     68.1970E-03     69.6350E-03
            1267            1889     68.1970E-03     69.6350E-03
            1268            1889     68.1970E-03     69.6350E-03
            1250            1890     71.2667E-03     72.5469E-03
            1268            1890     71.2667E-03     72.5469E-03
            1251            1890     71.2667E-03     72.5469E-03
            1269            1890     71.2667E-03     72.5469E-03
            1270            1891     74.3187E-03     75.1372E-03
            1251            1891     74.3187E-03     75.1372E-03
            1252            1891     74.3187E-03     75.1372E-03
            1269            1891     74.3187E-03     75.1372E-03
            1271            1892     11.5410E-03     11.6920E-03
            1272            1892     11.5410E-03     11.6920E-03
            1254            1892     11.5410E-03     11.6920E-03
            1253            1892     11.5410E-03     11.6920E-03
            1273            1893     13.7244E-03     14.5628E-03
            1254            1893     13.7244E-03     14.5628E-03
            1272            1893     13.7244E-03     14.5628E-03
            1255            1893     13.7244E-03     14.5628E-03
            1274            1894     17.0179E-03     18.1076E-03
            1255            1894     17.0179E-03     18.1076E-03
            1273            1894     17.0179E-03     18.1076E-03
            1256            1894     17.0179E-03     18.1076E-03
            1274            1895     20.9180E-03     22.0805E-03
            1257            1895     20.9180E-03     22.0805E-03
            1256            1895     20.9180E-03     22.0805E-03
            1275            1895     20.9180E-03     22.0805E-03
            1275            1896     25.1368E-03     26.2607E-03
            1276            1896     25.1368E-03     26.2607E-03
            1258            1896     25.1368E-03     26.2607E-03
            1257            1896     25.1368E-03     26.2607E-03
            1258            1897     29.5461E-03     30.6078E-03
            1276            1897     29.5461E-03     30.6078E-03
            1277            1897     29.5461E-03     30.6078E-03
            1259            1897     29.5461E-03     30.6078E-03
            1259            1898     34.0559E-03     35.0969E-03
            1260            1898     34.0559E-03     35.0969E-03
            1277            1898     34.0559E-03     35.0969E-03
            1278            1898     34.0559E-03     35.0969E-03
            1278            1899     38.6412E-03     39.6927E-03
            1279            1899     38.6412E-03     39.6927E-03
            1260            1899     38.6412E-03     39.6927E-03
            1261            1899     38.6412E-03     39.6927E-03
            1280            1900     43.2781E-03     44.3750E-03
            1279            1900     43.2781E-03     44.3750E-03
            1261            1900     43.2781E-03     44.3750E-03
            1262            1900     43.2781E-03     44.3750E-03
            1262            1901     47.9624E-03     49.1311E-03
            1280            1901     47.9624E-03     49.1311E-03
            1281            1901     47.9624E-03     49.1311E-03
            1263            1901     47.9624E-03     49.1311E-03
            1282            1902     52.6535E-03     53.9299E-03
            1281            1902     52.6535E-03     53.9299E-03
            1264            1902     52.6535E-03     53.9299E-03
            1263            1902     52.6535E-03     53.9299E-03
            1283            1903     57.3490E-03     58.7388E-03
            1264            1903     57.3490E-03     58.7388E-03
            1282            1903     57.3490E-03     58.7388E-03
            1265            1903     57.3490E-03     58.7388E-03
            1283            1904     61.9429E-03     63.4740E-03
            1284            1904     61.9429E-03     63.4740E-03
            1266            1904     61.9429E-03     63.4740E-03
            1265            1904     61.9429E-03     63.4740E-03
            1285            1905     66.3597E-03     67.9874E-03
            1284            1905     66.3597E-03     67.9874E-03
            1267            1905     66.3597E-03     67.9874E-03
            1266            1905     66.3597E-03     67.9874E-03
            1268            1906     70.5520E-03     72.1303E-03
            1285            1906     70.5520E-03     72.1303E-03
            1286            1906     70.5520E-03     72.1303E-03
            1267            1906     70.5520E-03     72.1303E-03
            1269            1907     74.4608E-03     75.8569E-03
            1287            1907     74.4608E-03     75.8569E-03
            1268            1907     74.4608E-03     75.8569E-03
            1286            1907     74.4608E-03     75.8569E-03
            1287            1908     78.4184E-03     79.3444E-03
            1269            1908     78.4184E-03     79.3444E-03
            1288            1908     78.4184E-03     79.3444E-03
            1270            1908     78.4184E-03     79.3444E-03
            1272            1909     9.62511E-03     9.91705E-03
            1271            1909     9.62511E-03     9.91705E-03
            1289            1909     9.62511E-03     9.91705E-03
            1290            1909     9.62511E-03     9.91705E-03
            1272            1910     12.1934E-03     13.1208E-03
            1273            1910     12.1934E-03     13.1208E-03
            1290            1910     12.1934E-03     13.1208E-03
            1291            1910     12.1934E-03     13.1208E-03
            1274            1911     15.8014E-03     17.0616E-03
            1292            1911     15.8014E-03     17.0616E-03
            1291            1911     15.8014E-03     17.0616E-03
            1273            1911     15.8014E-03     17.0616E-03
            1274            1912     19.9187E-03     21.2791E-03
            1292            1912     19.9187E-03     21.2791E-03
            1275            1912     19.9187E-03     21.2791E-03
            1293            1912     19.9187E-03     21.2791E-03
            1294            1913     24.2913E-03     25.6745E-03
            1275            1913     24.2913E-03     25.6745E-03
            1293            1913     24.2913E-03     25.6745E-03
            1276            1913     24.2913E-03     25.6745E-03
            1277            1914     28.8003E-03     30.1781E-03
            1295            1914     28.8003E-03     30.1781E-03
            1276            1914     28.8003E-03     30.1781E-03
            1294            1914     28.8003E-03     30.1781E-03
            1295            1915     33.3982E-03     34.7788E-03
            1277            1915     33.3982E-03     34.7788E-03
            1296            1915     33.3982E-03     34.7788E-03
            1278            1915     33.3982E-03     34.7788E-03
            1296            1916     38.0581E-03     39.4638E-03
            1278            1916     38.0581E-03     39.4638E-03
            1297            1916     38.0581E-03     39.4638E-03
            1279            1916     38.0581E-03     39.4638E-03
            1279            1917     42.7766E-03     44.2338E-03
            1280            1917     42.7766E-03     44.2338E-03
            1297            1917     42.7766E-03     44.2338E-03
            1298            1917     42.7766E-03     44.2338E-03
            1298            1918     47.5506E-03     49.0810E-03
            1280            1918     47.5506E-03     49.0810E-03
            1281            1918     47.5506E-03     49.0810E-03
            1299            1918     47.5506E-03     49.0810E-03
            1282            1919     52.4015E-03     54.0225E-03
            1299            1919     52.4015E-03     54.0225E-03
            1300            1919     52.4015E-03     54.0225E-03
            1281            1919     52.4015E-03     54.0225E-03
            1300            1920     57.3088E-03     59.0352E-03
            1282            1920     57.3088E-03     59.0352E-03
            1283            1920     57.3088E-03     59.0352E-03
            1301            1920     57.3088E-03     59.0352E-03
            1284            1921     62.3469E-03     64.1238E-03
            1283            1921     62.3469E-03     64.1238E-03
            1302            1921     62.3469E-03     64.1238E-03
            1301            1921     62.3469E-03     64.1238E-03
            1284            1922     67.4086E-03     69.2232E-03
            1303            1922     67.4086E-03     69.2232E-03
            1285            1922     67.4086E-03     69.2232E-03
            1302            1922     67.4086E-03     69.2232E-03
            1304            1923     72.4445E-03     74.1658E-03
            1285            1923     72.4445E-03     74.1658E-03
            1303            1923     72.4445E-03     74.1658E-03
            1286            1923     72.4445E-03     74.1658E-03
            1286            1924     77.4324E-03     78.8207E-03
            1304            1924     77.4324E-03     78.8207E-03
            1287            1924     77.4324E-03     78.8207E-03
            1305            1924     77.4324E-03     78.8207E-03
            1288            1925     82.2039E-03     83.3322E-03
            1287            1925     82.2039E-03     83.3322E-03
            1305            1925     82.2039E-03     83.3322E-03
            1306            1925     82.2039E-03     83.3322E-03
            1307            1926     7.76313E-03     8.21172E-03
            1308            1926     7.76313E-03     8.21172E-03
            1290            1926     7.76313E-03     8.21172E-03
            1289            1926     7.76313E-03     8.21172E-03
            1308            1927     10.7148E-03     11.8955E-03
            1309            1927     10.7148E-03     11.8955E-03
            1290            1927     10.7148E-03     11.8955E-03
            1291            1927     10.7148E-03     11.8955E-03
            1309            1928     14.6397E-03     16.1105E-03
            1291            1928     14.6397E-03     16.1105E-03
            1292            1928     14.6397E-03     16.1105E-03
            1310            1928     14.6397E-03     16.1105E-03
            1292            1929     18.9365E-03     20.5255E-03
            1310            1929     18.9365E-03     20.5255E-03
            1311            1929     18.9365E-03     20.5255E-03
            1293            1929     18.9365E-03     20.5255E-03
            1312            1930     23.4018E-03     25.0378E-03
            1294            1930     23.4018E-03     25.0378E-03
            1293            1930     23.4018E-03     25.0378E-03
            1311            1930     23.4018E-03     25.0378E-03
            1295            1931     27.9548E-03     29.6264E-03
            1313            1931     27.9548E-03     29.6264E-03
            1312            1931     27.9548E-03     29.6264E-03
            1294            1931     27.9548E-03     29.6264E-03
            1296            1932     32.5707E-03     34.2651E-03
            1314            1932     32.5707E-03     34.2651E-03
            1295            1932     32.5707E-03     34.2651E-03
            1313            1932     32.5707E-03     34.2651E-03
            1297            1933     37.2363E-03     38.9657E-03
            1314            1933     37.2363E-03     38.9657E-03
            1315            1933     37.2363E-03     38.9657E-03
            1296            1933     37.2363E-03     38.9657E-03
            1316            1934     41.9591E-03     43.7313E-03
            1315            1934     41.9591E-03     43.7313E-03
            1297            1934     41.9591E-03     43.7313E-03
            1298            1934     41.9591E-03     43.7313E-03
            1317            1935     46.7534E-03     48.5898E-03
            1316            1935     46.7534E-03     48.5898E-03
            1299            1935     46.7534E-03     48.5898E-03
            1298            1935     46.7534E-03     48.5898E-03
            1318            1936     51.6536E-03     53.5550E-03
            1317            1936     51.6536E-03     53.5550E-03
            1300            1936     51.6536E-03     53.5550E-03
            1299            1936     51.6536E-03     53.5550E-03
            1319            1937     56.7316E-03     58.6958E-03
            1300            1937     56.7316E-03     58.6958E-03
            1318            1937     56.7316E-03     58.6958E-03
            1301            1937     56.7316E-03     58.6958E-03
            1302            1938     62.0253E-03     64.0311E-03
            1301            1938     62.0253E-03     64.0311E-03
            1319            1938     62.0253E-03     64.0311E-03
            1320            1938     62.0253E-03     64.0311E-03
            1321            1939     67.7980E-03     69.6846E-03
            1320            1939     67.7980E-03     69.6846E-03
            1302            1939     67.7980E-03     69.6846E-03
            1303            1939     67.7980E-03     69.6846E-03
            1321            1940     73.8511E-03     75.6235E-03
            1303            1940     73.8511E-03     75.6235E-03
            1322            1940     73.8511E-03     75.6235E-03
            1304            1940     73.8511E-03     75.6235E-03
            1304            1941     79.9312E-03     81.5487E-03
            1323            1941     79.9312E-03     81.5487E-03
            1305            1941     79.9312E-03     81.5487E-03
            1322            1941     79.9312E-03     81.5487E-03
            1305            1942     86.0127E-03     87.0308E-03
            1324            1942     86.0127E-03     87.0308E-03
            1323            1942     86.0127E-03     87.0308E-03
            1306            1942     86.0127E-03     87.0308E-03
            1325            1943     5.89575E-03     6.77226E-03
            1308            1943     5.89575E-03     6.77226E-03
            1326            1943     5.89575E-03     6.77226E-03
            1307            1943     5.89575E-03     6.77226E-03
            1309            1944     9.36683E-03     10.9114E-03
            1308            1944     9.36683E-03     10.9114E-03
            1327            1944     9.36683E-03     10.9114E-03
            1326            1944     9.36683E-03     10.9114E-03
            1328            1945     13.5902E-03     15.3116E-03
            1309            1945     13.5902E-03     15.3116E-03
            1310            1945     13.5902E-03     15.3116E-03
            1327            1945     13.5902E-03     15.3116E-03
            1329            1946     18.0067E-03     19.8371E-03
            1311            1946     18.0067E-03     19.8371E-03
            1310            1946     18.0067E-03     19.8371E-03
            1328            1946     18.0067E-03     19.8371E-03
            1330            1947     22.4957E-03     24.4165E-03
            1311            1947     22.4957E-03     24.4165E-03
            1312            1947     22.4957E-03     24.4165E-03
            1329            1947     22.4957E-03     24.4165E-03
            1330            1948     27.0409E-03     29.0071E-03
            1313            1948     27.0409E-03     29.0071E-03
            1331            1948     27.0409E-03     29.0071E-03
            1312            1948     27.0409E-03     29.0071E-03
            1331            1949     31.6191E-03     33.6240E-03
            1332            1949     31.6191E-03     33.6240E-03
            1313            1949     31.6191E-03     33.6240E-03
            1314            1949     31.6191E-03     33.6240E-03
            1332            1950     36.2383E-03     38.2685E-03
            1314            1950     36.2383E-03     38.2685E-03
            1333            1950     36.2383E-03     38.2685E-03
            1315            1950     36.2383E-03     38.2685E-03
            1316            1951     40.9010E-03     42.9642E-03
            1333            1951     40.9010E-03     42.9642E-03
            1315            1951     40.9010E-03     42.9642E-03
            1334            1951     40.9010E-03     42.9642E-03
            1317            1952     45.6490E-03     47.7374E-03
            1335            1952     45.6490E-03     47.7374E-03
            1316            1952     45.6490E-03     47.7374E-03
            1334            1952     45.6490E-03     47.7374E-03
            1317            1953     50.5168E-03     52.6475E-03
            1318            1953     50.5168E-03     52.6475E-03
            1335            1953     50.5168E-03     52.6475E-03
            1336            1953     50.5168E-03     52.6475E-03
            1337            1954     55.6111E-03     57.7575E-03
            1318            1954     55.6111E-03     57.7575E-03
            1319            1954     55.6111E-03     57.7575E-03
            1336            1954     55.6111E-03     57.7575E-03
            1319            1955     61.0794E-03     63.2299E-03
            1338            1955     61.0794E-03     63.2299E-03
            1337            1955     61.0794E-03     63.2299E-03
            1320            1955     61.0794E-03     63.2299E-03
            1338            1956     67.0934E-03     69.1840E-03
            1339            1956     67.0934E-03     69.1840E-03
            1321            1956     67.0934E-03     69.1840E-03
            1320            1956     67.0934E-03     69.1840E-03
            1339            1957     74.3090E-03     76.0334E-03
            1321            1957     74.3090E-03     76.0334E-03
            1340            1957     74.3090E-03     76.0334E-03
            1322            1957     74.3090E-03     76.0334E-03
            1323            1958     82.1397E-03     83.5610E-03
            1322            1958     82.1397E-03     83.5610E-03
            1340            1958     82.1397E-03     83.5610E-03
            1341            1958     82.1397E-03     83.5610E-03
            1323            1959     89.3920E-03     90.9919E-03
            1324            1959     89.3920E-03     90.9919E-03
            1341            1959     89.3920E-03     90.9919E-03
            1342            1959     89.3920E-03     90.9919E-03
            1326            1960     4.23461E-03     5.92084E-03
            1343            1960     4.23461E-03     5.92084E-03
            1344            1960     4.23461E-03     5.92084E-03
            1325            1960     4.23461E-03     5.92084E-03
            1344            1961     8.39158E-03     10.2167E-03
            1326            1961     8.39158E-03     10.2167E-03
            1327            1961     8.39158E-03     10.2167E-03
            1345            1961     8.39158E-03     10.2167E-03
            1345            1962     12.7698E-03     14.7483E-03
            1346            1962     12.7698E-03     14.7483E-03
            1328            1962     12.7698E-03     14.7483E-03
            1327            1962     12.7698E-03     14.7483E-03
            1328            1963     17.1845E-03     19.3254E-03
            1347            1963     17.1845E-03     19.3254E-03
            1346            1963     17.1845E-03     19.3254E-03
            1329            1963     17.1845E-03     19.3254E-03
            1329            1964     21.6442E-03     23.8779E-03
            1330            1964     21.6442E-03     23.8779E-03
            1347            1964     21.6442E-03     23.8779E-03
            1348            1964     21.6442E-03     23.8779E-03
            1349            1965     26.1218E-03     28.4199E-03
            1331            1965     26.1218E-03     28.4199E-03
            1330            1965     26.1218E-03     28.4199E-03
            1348            1965     26.1218E-03     28.4199E-03
            1331            1966     30.6247E-03     32.9522E-03
            1350            1966     30.6247E-03     32.9522E-03
            1349            1966     30.6247E-03     32.9522E-03
            1332            1966     30.6247E-03     32.9522E-03
            1351            1967     35.1481E-03     37.4895E-03
            1333            1967     35.1481E-03     37.4895E-03
            1332            1967     35.1481E-03     37.4895E-03
            1350            1967     35.1481E-03     37.4895E-03
            1352            1968     39.7207E-03     42.0558E-03
            1333            1968     39.7207E-03     42.0558E-03
            1334            1968     39.7207E-03     42.0558E-03
            1351            1968     39.7207E-03     42.0558E-03
            1353            1969     44.3556E-03     46.6827E-03
            1352            1969     44.3556E-03     46.6827E-03
            1334            1969     44.3556E-03     46.6827E-03
            1335            1969     44.3556E-03     46.6827E-03
            1335            1970     49.1385E-03     51.4368E-03
            1353            1970     49.1385E-03     51.4368E-03
            1336            1970     49.1385E-03     51.4368E-03
            1354            1970     49.1385E-03     51.4368E-03
            1355            1971     54.1258E-03     56.4113E-03
            1354            1971     54.1258E-03     56.4113E-03
            1336            1971     54.1258E-03     56.4113E-03
            1337            1971     54.1258E-03     56.4113E-03
            1355            1972     59.5440E-03     61.7755E-03
            1338            1972     59.5440E-03     61.7755E-03
            1356            1972     59.5440E-03     61.7755E-03
            1337            1972     59.5440E-03     61.7755E-03
            1338            1973     65.6064E-03     67.8087E-03
            1339            1973     65.6064E-03     67.8087E-03
            1356            1973     65.6064E-03     67.8087E-03
            1357            1973     65.6064E-03     67.8087E-03
            1357            1974     72.8381E-03     74.8995E-03
            1339            1974     72.8381E-03     74.8995E-03
            1358            1974     72.8381E-03     74.8995E-03
            1340            1974     72.8381E-03     74.8995E-03
            1359            1975     82.7079E-03     84.0634E-03
            1358            1975     82.7079E-03     84.0634E-03
            1340            1975     82.7079E-03     84.0634E-03
            1341            1975     82.7079E-03     84.0634E-03
            1359            1976     93.1692E-03     93.5438E-03
            1341            1976     93.1692E-03     93.5438E-03
            1342            1976     93.1692E-03     93.5438E-03
            1360            1976     93.1692E-03     93.5438E-03
            1362            1977     3.92134E-03     5.76810E-03
            1361            1977     3.92134E-03     5.76810E-03
            1344            1977     3.92134E-03     5.76810E-03
            1343            1977     3.92134E-03     5.76810E-03
            1362            1978     8.08256E-03     10.0609E-03
            1363            1978     8.08256E-03     10.0609E-03
            1344            1978     8.08256E-03     10.0609E-03
            1345            1978     8.08256E-03     10.0609E-03
            1364            1979     12.2937E-03     14.5898E-03
            1345            1979     12.2937E-03     14.5898E-03
            1346            1979     12.2937E-03     14.5898E-03
            1363            1979     12.2937E-03     14.5898E-03
            1364            1980     16.5994E-03     19.0846E-03
            1346            1980     16.5994E-03     19.0846E-03
            1347            1980     16.5994E-03     19.0846E-03
            1365            1980     16.5994E-03     19.0846E-03
            1366            1981     20.9345E-03     23.5422E-03
            1365            1981     20.9345E-03     23.5422E-03
            1348            1981     20.9345E-03     23.5422E-03
            1347            1981     20.9345E-03     23.5422E-03
            1348            1982     25.2993E-03     27.9701E-03
            1367            1982     25.2993E-03     27.9701E-03
            1349            1982     25.2993E-03     27.9701E-03
            1366            1982     25.2993E-03     27.9701E-03
            1368            1983     29.6780E-03     32.3713E-03
            1349            1983     29.6780E-03     32.3713E-03
            1367            1983     29.6780E-03     32.3713E-03
            1350            1983     29.6780E-03     32.3713E-03
            1368            1984     34.0864E-03     36.7643E-03
            1350            1984     34.0864E-03     36.7643E-03
            1369            1984     34.0864E-03     36.7643E-03
            1351            1984     34.0864E-03     36.7643E-03
            1352            1985     38.5269E-03     41.1598E-03
            1369            1985     38.5269E-03     41.1598E-03
            1370            1985     38.5269E-03     41.1598E-03
            1351            1985     38.5269E-03     41.1598E-03
            1371            1986     43.0481E-03     45.6070E-03
            1352            1986     43.0481E-03     45.6070E-03
            1370            1986     43.0481E-03     45.6070E-03
            1353            1986     43.0481E-03     45.6070E-03
            1353            1987     47.6772E-03     50.1401E-03
            1371            1987     47.6772E-03     50.1401E-03
            1354            1987     47.6772E-03     50.1401E-03
            1372            1987     47.6772E-03     50.1401E-03
            1354            1988     52.5490E-03     54.8952E-03
            1372            1988     52.5490E-03     54.8952E-03
            1373            1988     52.5490E-03     54.8952E-03
            1355            1988     52.5490E-03     54.8952E-03
            1355            1989     57.7377E-03     59.9743E-03
            1356            1989     57.7377E-03     59.9743E-03
            1373            1989     57.7377E-03     59.9743E-03
            1374            1989     57.7377E-03     59.9743E-03
            1375            1990     63.6361E-03     65.7769E-03
            1356            1990     63.6361E-03     65.7769E-03
            1374            1990     63.6361E-03     65.7769E-03
            1357            1990     63.6361E-03     65.7769E-03
            1376            1991     70.4347E-03     72.5967E-03
            1358            1991     70.4347E-03     72.5967E-03
            1357            1991     70.4347E-03     72.5967E-03
            1375            1991     70.4347E-03     72.5967E-03
            1358            1992     79.6949E-03     81.9948E-03
            1377            1992     79.6949E-03     81.9948E-03
            1376            1992     79.6949E-03     81.9948E-03
            1359            1992     79.6949E-03     81.9948E-03
            1359            1993     93.6426E-03     95.3591E-03
            1360            1993     93.6426E-03     95.3591E-03
            1377            1993     93.6426E-03     95.3591E-03
            1378            1993     93.6426E-03     95.3591E-03
            1380            1994     14.8480E-03     17.0929E-03
            1362            1994     14.8480E-03     17.0929E-03
            1361            1994     14.8480E-03     17.0929E-03
            1379            1994     14.8480E-03     17.0929E-03
            1363            1995     18.5493E-03     19.6395E-03
            1362            1995     18.5493E-03     19.6395E-03
            1380            1995     18.5493E-03     19.6395E-03
            1381            1995     18.5493E-03     19.6395E-03
            1364            1996     22.2267E-03     23.2940E-03
            1381            1996     22.2267E-03     23.2940E-03
            1363            1996     22.2267E-03     23.2940E-03
            1382            1996     22.2267E-03     23.2940E-03
            1365            1997     26.2561E-03     27.4799E-03
            1383            1997     26.2561E-03     27.4799E-03
            1364            1997     26.2561E-03     27.4799E-03
            1382            1997     26.2561E-03     27.4799E-03
            1366            1998     30.5590E-03     31.8852E-03
            1384            1998     30.5590E-03     31.8852E-03
            1383            1998     30.5590E-03     31.8852E-03
            1365            1998     30.5590E-03     31.8852E-03
            1366            1999     35.0421E-03     36.4342E-03
            1385            1999     35.0421E-03     36.4342E-03
            1384            1999     35.0421E-03     36.4342E-03
            1367            1999     35.0421E-03     36.4342E-03
            1367            2000     39.6573E-03     41.0531E-03
            1386            2000     39.6573E-03     41.0531E-03
            1385            2000     39.6573E-03     41.0531E-03
            1368            2000     39.6573E-03     41.0531E-03
            1387            2001     44.3356E-03     45.6961E-03
            1369            2001     44.3356E-03     45.6961E-03
            1386            2001     44.3356E-03     45.6961E-03
            1368            2001     44.3356E-03     45.6961E-03
            1388            2002     49.0655E-03     50.3287E-03
            1370            2002     49.0655E-03     50.3287E-03
            1369            2002     49.0655E-03     50.3287E-03
            1387            2002     49.0655E-03     50.3287E-03
            1389            2003     53.7986E-03     54.9392E-03
            1388            2003     53.7986E-03     54.9392E-03
            1370            2003     53.7986E-03     54.9392E-03
            1371            2003     53.7986E-03     54.9392E-03
            1372            2004     58.5636E-03     59.4974E-03
            1390            2004     58.5636E-03     59.4974E-03
            1371            2004     58.5636E-03     59.4974E-03
            1389            2004     58.5636E-03     59.4974E-03
            1391            2005     63.3188E-03     64.0438E-03
            1373            2005     63.3188E-03     64.0438E-03
            1372            2005     63.3188E-03     64.0438E-03
            1390            2005     63.3188E-03     64.0438E-03
            1391            2006     68.1704E-03     68.5769E-03
            1392            2006     68.1704E-03     68.5769E-03
            1373            2006     68.1704E-03     68.5769E-03
            1374            2006     68.1704E-03     68.5769E-03
            1392            2007     73.0703E-03     73.2352E-03
            1393            2007     73.0703E-03     73.2352E-03
            1374            2007     73.0703E-03     73.2352E-03
            1375            2007     73.0703E-03     73.2352E-03
            1375            2008     78.3591E-03     78.2399E-03
            1393            2008     78.3591E-03     78.2399E-03
            1376            2008     78.3591E-03     78.2399E-03
            1394            2008     78.3591E-03     78.2399E-03
            1376            2009     83.9544E-03     83.9292E-03
            1377            2009     83.9544E-03     83.9292E-03
            1395            2009     83.9544E-03     83.9292E-03
            1394            2009     83.9544E-03     83.9292E-03
            1395            2010     91.9045E-03     93.5107E-03
            1396            2010     91.9045E-03     93.5107E-03
            1377            2010     91.9045E-03     93.5107E-03
            1378            2010     91.9045E-03     93.5107E-03
            1398            2011     24.0439E-03     27.0848E-03
            1380            2011     24.0439E-03     27.0848E-03
            1379            2011     24.0439E-03     27.0848E-03
            1397            2011     24.0439E-03     27.0848E-03
            1380            2012     26.9227E-03     28.0984E-03
            1399            2012     26.9227E-03     28.0984E-03
            1398            2012     26.9227E-03     28.0984E-03
            1381            2012     26.9227E-03     28.0984E-03
            1382            2013     30.7158E-03     30.9664E-03
            1381            2013     30.7158E-03     30.9664E-03
            1399            2013     30.7158E-03     30.9664E-03
            1400            2013     30.7158E-03     30.9664E-03
            1400            2014     34.9909E-03     35.0566E-03
            1382            2014     34.9909E-03     35.0566E-03
            1401            2014     34.9909E-03     35.0566E-03
            1383            2014     34.9909E-03     35.0566E-03
            1384            2015     39.6730E-03     39.7238E-03
            1383            2015     39.6730E-03     39.7238E-03
            1401            2015     39.6730E-03     39.7238E-03
            1402            2015     39.6730E-03     39.7238E-03
            1402            2016     44.6850E-03     44.7389E-03
            1385            2016     44.6850E-03     44.7389E-03
            1403            2016     44.6850E-03     44.7389E-03
            1384            2016     44.6850E-03     44.7389E-03
            1403            2017     49.8883E-03     49.9394E-03
            1385            2017     49.8883E-03     49.9394E-03
            1386            2017     49.8883E-03     49.9394E-03
            1404            2017     49.8883E-03     49.9394E-03
            1386            2018     55.2220E-03     55.2243E-03
            1404            2018     55.2220E-03     55.2243E-03
            1387            2018     55.2220E-03     55.2243E-03
            1405            2018     55.2220E-03     55.2243E-03
            1405            2019     60.5917E-03     60.5210E-03
            1406            2019     60.5917E-03     60.5210E-03
            1387            2019     60.5917E-03     60.5210E-03
            1388            2019     60.5917E-03     60.5210E-03
            1406            2020     65.9529E-03     65.7559E-03
            1407            2020     65.9529E-03     65.7559E-03
            1389            2020     65.9529E-03     65.7559E-03
            1388            2020     65.9529E-03     65.7559E-03
            1407            2021     71.2219E-03     70.8702E-03
            1389            2021     71.2219E-03     70.8702E-03
            1390            2021     71.2219E-03     70.8702E-03
            1408            2021     71.2219E-03     70.8702E-03
            1390            2022     76.3464E-03     75.7913E-03
            1408            2022     76.3464E-03     75.7913E-03
            1391            2022     76.3464E-03     75.7913E-03
            1409            2022     76.3464E-03     75.7913E-03
            1392            2023     81.2238E-03     80.4398E-03
            1409            2023     81.2238E-03     80.4398E-03
            1410            2023     81.2238E-03     80.4398E-03
            1391            2023     81.2238E-03     80.4398E-03
            1411            2024     85.7763E-03     84.7628E-03
            1410            2024     85.7763E-03     84.7628E-03
            1393            2024     85.7763E-03     84.7628E-03
            1392            2024     85.7763E-03     84.7628E-03
            1394            2025     89.8097E-03     88.6105E-03
            1412            2025     89.8097E-03     88.6105E-03
            1393            2025     89.8097E-03     88.6105E-03
            1411            2025     89.8097E-03     88.6105E-03
            1394            2026     93.1950E-03     92.0104E-03
            1395            2026     93.1950E-03     92.0104E-03
            1412            2026     93.1950E-03     92.0104E-03
            1413            2026     93.1950E-03     92.0104E-03
            1395            2027     95.6162E-03     94.1160E-03
            1413            2027     95.6162E-03     94.1160E-03
            1396            2027     95.6162E-03     94.1160E-03
            1414            2027     95.6162E-03     94.1160E-03
            1397            2028     21.3390E-03     23.1921E-03
            1416            2028     21.3390E-03     23.1921E-03
            1398            2028     21.3390E-03     23.1921E-03
            1415            2028     21.3390E-03     23.1921E-03
            1417            2029     23.6143E-03     25.8155E-03
            1416            2029     23.6143E-03     25.8155E-03
            1398            2029     23.6143E-03     25.8155E-03
            1399            2029     23.6143E-03     25.8155E-03
            1400            2030     27.9006E-03     29.1128E-03
            1417            2030     27.9006E-03     29.1128E-03
            1399            2030     27.9006E-03     29.1128E-03
            1418            2030     27.9006E-03     29.1128E-03
            1418            2031     32.9031E-03     33.5860E-03
            1419            2031     32.9031E-03     33.5860E-03
            1400            2031     32.9031E-03     33.5860E-03
            1401            2031     32.9031E-03     33.5860E-03
            1419            2032     38.2465E-03     38.7425E-03
            1401            2032     38.2465E-03     38.7425E-03
            1402            2032     38.2465E-03     38.7425E-03
            1420            2032     38.2465E-03     38.7425E-03
            1420            2033     43.8501E-03     44.2659E-03
            1402            2033     43.8501E-03     44.2659E-03
            1421            2033     43.8501E-03     44.2659E-03
            1403            2033     43.8501E-03     44.2659E-03
            1404            2034     49.6243E-03     50.0069E-03
            1422            2034     49.6243E-03     50.0069E-03
            1403            2034     49.6243E-03     50.0069E-03
            1421            2034     49.6243E-03     50.0069E-03
            1404            2035     55.5038E-03     55.8654E-03
            1422            2035     55.5038E-03     55.8654E-03
            1405            2035     55.5038E-03     55.8654E-03
            1423            2035     55.5038E-03     55.8654E-03
            1423            2036     61.4470E-03     61.7763E-03
            1406            2036     61.4470E-03     61.7763E-03
            1424            2036     61.4470E-03     61.7763E-03
            1405            2036     61.4470E-03     61.7763E-03
            1425            2037     67.3850E-03     67.6910E-03
            1424            2037     67.3850E-03     67.6910E-03
            1406            2037     67.3850E-03     67.6910E-03
            1407            2037     67.3850E-03     67.6910E-03
            1426            2038     73.2790E-03     73.5468E-03
            1425            2038     73.2790E-03     73.5468E-03
            1407            2038     73.2790E-03     73.5468E-03
            1408            2038     73.2790E-03     73.5468E-03
            1408            2039     79.0303E-03     79.2949E-03
            1409            2039     79.0303E-03     79.2949E-03
            1427            2039     79.0303E-03     79.2949E-03
            1426            2039     79.0303E-03     79.2949E-03
            1409            2040     84.5579E-03     84.8423E-03
            1428            2040     84.5579E-03     84.8423E-03
            1410            2040     84.5579E-03     84.8423E-03
            1427            2040     84.5579E-03     84.8423E-03
            1428            2041     89.7160E-03     90.1053E-03
            1429            2041     89.7160E-03     90.1053E-03
            1410            2041     89.7160E-03     90.1053E-03
            1411            2041     89.7160E-03     90.1053E-03
            1429            2042     94.3134E-03     94.9342E-03
            1411            2042     94.3134E-03     94.9342E-03
            1412            2042     94.3134E-03     94.9342E-03
            1430            2042     94.3134E-03     94.9342E-03
            1412            2043     98.3053E-03     99.0612E-03
            1430            2043     98.3053E-03     99.0612E-03
            1413            2043     98.3053E-03     99.0612E-03
            1431            2043     98.3053E-03     99.0612E-03
            1413            2044     101.581E-03     102.038E-03
            1414            2044     101.581E-03     102.038E-03
            1431            2044     101.581E-03     102.038E-03
            1432            2044     101.581E-03     102.038E-03
            1416            2045     18.3698E-03     19.2219E-03
            1415            2045     18.3698E-03     19.2219E-03
            1433            2045     18.3698E-03     19.2219E-03
            1434            2045     18.3698E-03     19.2219E-03
            1416            2046     21.2395E-03     23.0174E-03
            1434            2046     21.2395E-03     23.0174E-03
            1417            2046     21.2395E-03     23.0174E-03
            1435            2046     21.2395E-03     23.0174E-03
            1435            2047     25.7100E-03     27.4539E-03
            1417            2047     25.7100E-03     27.4539E-03
            1418            2047     25.7100E-03     27.4539E-03
            1436            2047     25.7100E-03     27.4539E-03
            1419            2048     31.2201E-03     32.4695E-03
            1436            2048     31.2201E-03     32.4695E-03
            1437            2048     31.2201E-03     32.4695E-03
            1418            2048     31.2201E-03     32.4695E-03
            1438            2049     37.1116E-03     38.1003E-03
            1437            2049     37.1116E-03     38.1003E-03
            1420            2049     37.1116E-03     38.1003E-03
            1419            2049     37.1116E-03     38.1003E-03
            1420            2050     43.2116E-03     44.0671E-03
            1439            2050     43.2116E-03     44.0671E-03
            1421            2050     43.2116E-03     44.0671E-03
            1438            2050     43.2116E-03     44.0671E-03
            1421            2051     49.4516E-03     50.2542E-03
            1439            2051     49.4516E-03     50.2542E-03
            1422            2051     49.4516E-03     50.2542E-03
            1440            2051     49.4516E-03     50.2542E-03
            1422            2052     55.7871E-03     56.5757E-03
            1440            2052     55.7871E-03     56.5757E-03
            1441            2052     55.7871E-03     56.5757E-03
            1423            2052     55.7871E-03     56.5757E-03
            1423            2053     62.1756E-03     62.9849E-03
            1424            2053     62.1756E-03     62.9849E-03
            1441            2053     62.1756E-03     62.9849E-03
            1442            2053     62.1756E-03     62.9849E-03
            1424            2054     68.5935E-03     69.4357E-03
            1443            2054     68.5935E-03     69.4357E-03
            1425            2054     68.5935E-03     69.4357E-03
            1442            2054     68.5935E-03     69.4357E-03
            1426            2055     74.9694E-03     75.8922E-03
            1443            2055     74.9694E-03     75.8922E-03
            1425            2055     74.9694E-03     75.8922E-03
            1444            2055     74.9694E-03     75.8922E-03
            1445            2056     81.2489E-03     82.2758E-03
            1444            2056     81.2489E-03     82.2758E-03
            1426            2056     81.2489E-03     82.2758E-03
            1427            2056     81.2489E-03     82.2758E-03
            1446            2057     87.3171E-03     88.5119E-03
            1427            2057     87.3171E-03     88.5119E-03
            1428            2057     87.3171E-03     88.5119E-03
            1445            2057     87.3171E-03     88.5119E-03
            1447            2058     92.9945E-03     94.4377E-03
            1428            2058     92.9945E-03     94.4377E-03
            1429            2058     92.9945E-03     94.4377E-03
            1446            2058     92.9945E-03     94.4377E-03
            1429            2059     98.2291E-03     99.8332E-03
            1447            2059     98.2291E-03     99.8332E-03
            1448            2059     98.2291E-03     99.8332E-03
            1430            2059     98.2291E-03     99.8332E-03
            1430            2060     102.700E-03     104.407E-03
            1449            2060     102.700E-03     104.407E-03
            1448            2060     102.700E-03     104.407E-03
            1431            2060     102.700E-03     104.407E-03
            1432            2061     106.783E-03     108.144E-03
            1449            2061     106.783E-03     108.144E-03
            1450            2061     106.783E-03     108.144E-03
            1431            2061     106.783E-03     108.144E-03
            1451            2062     15.5057E-03     16.4299E-03
            1434            2062     15.5057E-03     16.4299E-03
            1452            2062     15.5057E-03     16.4299E-03
            1433            2062     15.5057E-03     16.4299E-03
            1452            2063     18.9557E-03     20.5302E-03
            1434            2063     18.9557E-03     20.5302E-03
            1435            2063     18.9557E-03     20.5302E-03
            1453            2063     18.9557E-03     20.5302E-03
            1453            2064     23.9960E-03     25.8255E-03
            1454            2064     23.9960E-03     25.8255E-03
            1435            2064     23.9960E-03     25.8255E-03
            1436            2064     23.9960E-03     25.8255E-03
            1437            2065     29.8537E-03     31.5324E-03
            1454            2065     29.8537E-03     31.5324E-03
            1436            2065     29.8537E-03     31.5324E-03
            1455            2065     29.8537E-03     31.5324E-03
            1437            2066     36.1490E-03     37.5761E-03
            1455            2066     36.1490E-03     37.5761E-03
            1456            2066     36.1490E-03     37.5761E-03
            1438            2066     36.1490E-03     37.5761E-03
            1438            2067     42.6170E-03     43.9171E-03
            1439            2067     42.6170E-03     43.9171E-03
            1456            2067     42.6170E-03     43.9171E-03
            1457            2067     42.6170E-03     43.9171E-03
            1439            2068     49.2006E-03     50.4370E-03
            1440            2068     49.2006E-03     50.4370E-03
            1458            2068     49.2006E-03     50.4370E-03
            1457            2068     49.2006E-03     50.4370E-03
            1459            2069     55.8608E-03     57.0994E-03
            1441            2069     55.8608E-03     57.0994E-03
            1458            2069     55.8608E-03     57.0994E-03
            1440            2069     55.8608E-03     57.0994E-03
            1460            2070     62.5847E-03     63.8644E-03
            1441            2070     62.5847E-03     63.8644E-03
            1459            2070     62.5847E-03     63.8644E-03
            1442            2070     62.5847E-03     63.8644E-03
            1442            2071     69.3360E-03     70.7075E-03
            1443            2071     69.3360E-03     70.7075E-03
            1461            2071     69.3360E-03     70.7075E-03
            1460            2071     69.3360E-03     70.7075E-03
            1461            2072     76.1014E-03     77.5905E-03
            1444            2072     76.1014E-03     77.5905E-03
            1462            2072     76.1014E-03     77.5905E-03
            1443            2072     76.1014E-03     77.5905E-03
            1444            2073     82.7990E-03     84.4631E-03
            1445            2073     82.7990E-03     84.4631E-03
            1463            2073     82.7990E-03     84.4631E-03
            1462            2073     82.7990E-03     84.4631E-03
            1464            2074     89.3347E-03     91.2033E-03
            1445            2074     89.3347E-03     91.2033E-03
            1446            2074     89.3347E-03     91.2033E-03
            1463            2074     89.3347E-03     91.2033E-03
            1447            2075     95.6054E-03     97.6388E-03
            1446            2075     95.6054E-03     97.6388E-03
            1464            2075     95.6054E-03     97.6388E-03
            1465            2075     95.6054E-03     97.6388E-03
            1448            2076     101.343E-03     103.520E-03
            1465            2076     101.343E-03     103.520E-03
            1447            2076     101.343E-03     103.520E-03
            1466            2076     101.343E-03     103.520E-03
            1467            2077     106.607E-03     108.570E-03
            1448            2077     106.607E-03     108.570E-03
            1449            2077     106.607E-03     108.570E-03
            1466            2077     106.607E-03     108.570E-03
            1468            2078     111.489E-03     112.767E-03
            1450            2078     111.489E-03     112.767E-03
            1449            2078     111.489E-03     112.767E-03
            1467            2078     111.489E-03     112.767E-03
            1451            2079     12.8602E-03     13.6919E-03
            1470            2079     12.8602E-03     13.6919E-03
            1452            2079     12.8602E-03     13.6919E-03
            1469            2079     12.8602E-03     13.6919E-03
            1470            2080     16.8751E-03     18.6367E-03
            1471            2080     16.8751E-03     18.6367E-03
            1452            2080     16.8751E-03     18.6367E-03
            1453            2080     16.8751E-03     18.6367E-03
            1454            2081     22.4566E-03     24.4046E-03
            1453            2081     22.4566E-03     24.4046E-03
            1472            2081     22.4566E-03     24.4046E-03
            1471            2081     22.4566E-03     24.4046E-03
            1472            2082     28.7050E-03     30.6282E-03
            1455            2082     28.7050E-03     30.6282E-03
            1454            2082     28.7050E-03     30.6282E-03
            1473            2082     28.7050E-03     30.6282E-03
            1455            2083     35.2508E-03     37.0524E-03
            1456            2083     35.2508E-03     37.0524E-03
            1474            2083     35.2508E-03     37.0524E-03
            1473            2083     35.2508E-03     37.0524E-03
            1474            2084     41.9642E-03     43.6488E-03
            1456            2084     41.9642E-03     43.6488E-03
            1457            2084     41.9642E-03     43.6488E-03
            1475            2084     41.9642E-03     43.6488E-03
            1458            2085     48.7591E-03     50.4016E-03
            1457            2085     48.7591E-03     50.4016E-03
            1476            2085     48.7591E-03     50.4016E-03
            1475            2085     48.7591E-03     50.4016E-03
            1459            2086     55.6236E-03     57.2759E-03
            1477            2086     55.6236E-03     57.2759E-03
            1476            2086     55.6236E-03     57.2759E-03
            1458            2086     55.6236E-03     57.2759E-03
            1460            2087     62.5437E-03     64.2590E-03
            1477            2087     62.5437E-03     64.2590E-03
            1459            2087     62.5437E-03     64.2590E-03
            1478            2087     62.5437E-03     64.2590E-03
            1479            2088     69.5264E-03     71.3436E-03
            1478            2088     69.5264E-03     71.3436E-03
            1460            2088     69.5264E-03     71.3436E-03
            1461            2088     69.5264E-03     71.3436E-03
            1479            2089     76.5414E-03     78.5074E-03
            1480            2089     76.5414E-03     78.5074E-03
            1461            2089     76.5414E-03     78.5074E-03
            1462            2089     76.5414E-03     78.5074E-03
            1481            2090     83.5947E-03     85.7188E-03
            1462            2090     83.5947E-03     85.7188E-03
            1480            2090     83.5947E-03     85.7188E-03
            1463            2090     83.5947E-03     85.7188E-03
            1481            2091     90.5895E-03     92.8890E-03
            1463            2091     90.5895E-03     92.8890E-03
            1482            2091     90.5895E-03     92.8890E-03
            1464            2091     90.5895E-03     92.8890E-03
            1482            2092     97.4088E-03     99.8268E-03
            1464            2092     97.4088E-03     99.8268E-03
            1483            2092     97.4088E-03     99.8268E-03
            1465            2092     97.4088E-03     99.8268E-03
            1465            2093     103.933E-03     106.271E-03
            1483            2093     103.933E-03     106.271E-03
            1466            2093     103.933E-03     106.271E-03
            1484            2093     103.933E-03     106.271E-03
            1467            2094     109.962E-03     112.015E-03
            1484            2094     109.962E-03     112.015E-03
            1485            2094     109.962E-03     112.015E-03
            1466            2094     109.962E-03     112.015E-03
            1485            2095     115.663E-03     117.096E-03
            1467            2095     115.663E-03     117.096E-03
            1468            2095     115.663E-03     117.096E-03
            1486            2095     115.663E-03     117.096E-03
            1487            2096     10.2453E-03     11.4258E-03
            1488            2096     10.2453E-03     11.4258E-03
            1469            2096     10.2453E-03     11.4258E-03
            1470            2096     10.2453E-03     11.4258E-03
            1488            2097     15.0227E-03     16.9734E-03
            1470            2097     15.0227E-03     16.9734E-03
            1489            2097     15.0227E-03     16.9734E-03
            1471            2097     15.0227E-03     16.9734E-03
            1489            2098     21.1055E-03     23.2672E-03
            1471            2098     21.1055E-03     23.2672E-03
            1490            2098     21.1055E-03     23.2672E-03
            1472            2098     21.1055E-03     23.2672E-03
            1490            2099     27.6389E-03     29.7820E-03
            1473            2099     27.6389E-03     29.7820E-03
            1472            2099     27.6389E-03     29.7820E-03
            1491            2099     27.6389E-03     29.7820E-03
            1473            2100     34.3688E-03     36.4433E-03
            1474            2100     34.3688E-03     36.4433E-03
            1491            2100     34.3688E-03     36.4433E-03
            1492            2100     34.3688E-03     36.4433E-03
            1475            2101     41.1957E-03     43.2070E-03
            1492            2101     41.1957E-03     43.2070E-03
            1493            2101     41.1957E-03     43.2070E-03
            1474            2101     41.1957E-03     43.2070E-03
            1476            2102     48.0864E-03     50.0766E-03
            1494            2102     48.0864E-03     50.0766E-03
            1493            2102     48.0864E-03     50.0766E-03
            1475            2102     48.0864E-03     50.0766E-03
            1494            2103     55.0301E-03     57.0432E-03
            1476            2103     55.0301E-03     57.0432E-03
            1495            2103     55.0301E-03     57.0432E-03
            1477            2103     55.0301E-03     57.0432E-03
            1496            2104     62.0351E-03     64.1159E-03
            1478            2104     62.0351E-03     64.1159E-03
            1495            2104     62.0351E-03     64.1159E-03
            1477            2104     62.0351E-03     64.1159E-03
            1497            2105     69.1098E-03     71.2929E-03
            1496            2105     69.1098E-03     71.2929E-03
            1479            2105     69.1098E-03     71.2929E-03
            1478            2105     69.1098E-03     71.2929E-03
            1498            2106     76.2869E-03     78.6007E-03
            1479            2106     76.2869E-03     78.6007E-03
            1480            2106     76.2869E-03     78.6007E-03
            1497            2106     76.2869E-03     78.6007E-03
            1499            2107     83.5541E-03     86.0171E-03
            1480            2107     83.5541E-03     86.0171E-03
            1498            2107     83.5541E-03     86.0171E-03
            1481            2107     83.5541E-03     86.0171E-03
            1499            2108     90.9952E-03     93.5417E-03
            1481            2108     90.9952E-03     93.5417E-03
            1482            2108     90.9952E-03     93.5417E-03
            1500            2108     90.9952E-03     93.5417E-03
            1483            2109     98.4602E-03     101.066E-03
            1482            2109     98.4602E-03     101.066E-03
            1501            2109     98.4602E-03     101.066E-03
            1500            2109     98.4602E-03     101.066E-03
            1502            2110     105.827E-03     108.308E-03
            1501            2110     105.827E-03     108.308E-03
            1483            2110     105.827E-03     108.308E-03
            1484            2110     105.827E-03     108.308E-03
            1485            2111     112.935E-03     114.980E-03
            1503            2111     112.935E-03     114.980E-03
            1502            2111     112.935E-03     114.980E-03
            1484            2111     112.935E-03     114.980E-03
            1485            2112     119.460E-03     121.095E-03
            1503            2112     119.460E-03     121.095E-03
            1486            2112     119.460E-03     121.095E-03
            1504            2112     119.460E-03     121.095E-03
            1506            2113     7.87818E-03     9.50657E-03
            1487            2113     7.87818E-03     9.50657E-03
            1505            2113     7.87818E-03     9.50657E-03
            1488            2113     7.87818E-03     9.50657E-03
            1489            2114     13.4727E-03     15.7450E-03
            1506            2114     13.4727E-03     15.7450E-03
            1507            2114     13.4727E-03     15.7450E-03
            1488            2114     13.4727E-03     15.7450E-03
            1507            2115     19.9555E-03     22.3452E-03
            1490            2115     19.9555E-03     22.3452E-03
            1508            2115     19.9555E-03     22.3452E-03
            1489            2115     19.9555E-03     22.3452E-03
            1490            2116     26.6735E-03     29.0215E-03
            1508            2116     26.6735E-03     29.0215E-03
            1509            2116     26.6735E-03     29.0215E-03
            1491            2116     26.6735E-03     29.0215E-03
            1491            2117     33.4769E-03     35.7725E-03
            1509            2117     33.4769E-03     35.7725E-03
            1510            2117     33.4769E-03     35.7725E-03
            1492            2117     33.4769E-03     35.7725E-03
            1492            2118     40.3135E-03     42.6014E-03
            1493            2118     40.3135E-03     42.6014E-03
            1511            2118     40.3135E-03     42.6014E-03
            1510            2118     40.3135E-03     42.6014E-03
            1512            2119     47.1910E-03     49.4789E-03
            1494            2119     47.1910E-03     49.4789E-03
            1511            2119     47.1910E-03     49.4789E-03
            1493            2119     47.1910E-03     49.4789E-03
            1513            2120     54.1076E-03     56.4299E-03
            1495            2120     54.1076E-03     56.4299E-03
            1512            2120     54.1076E-03     56.4299E-03
            1494            2120     54.1076E-03     56.4299E-03
            1513            2121     61.0843E-03     63.4601E-03
            1514            2121     61.0843E-03     63.4601E-03
            1496            2121     61.0843E-03     63.4601E-03
            1495            2121     61.0843E-03     63.4601E-03
            1497            2122     68.1433E-03     70.6085E-03
            1514            2122     68.1433E-03     70.6085E-03
            1515            2122     68.1433E-03     70.6085E-03
            1496            2122     68.1433E-03     70.6085E-03
            1497            2123     75.3311E-03     77.8922E-03
            1516            2123     75.3311E-03     77.8922E-03
            1515            2123     75.3311E-03     77.8922E-03
            1498            2123     75.3311E-03     77.8922E-03
            1499            2124     82.7323E-03     85.3946E-03
            1517            2124     82.7323E-03     85.3946E-03
            1498            2124     82.7323E-03     85.3946E-03
            1516            2124     82.7323E-03     85.3946E-03
            1499            2125     90.3802E-03     93.1250E-03
            1500            2125     90.3802E-03     93.1250E-03
            1517            2125     90.3802E-03     93.1250E-03
            1518            2125     90.3802E-03     93.1250E-03
            1501            2126     98.5728E-03     101.199E-03
            1500            2126     98.5728E-03     101.199E-03
            1519            2126     98.5728E-03     101.199E-03
            1518            2126     98.5728E-03     101.199E-03
            1519            2127     107.001E-03     109.513E-03
            1501            2127     107.001E-03     109.513E-03
            1502            2127     107.001E-03     109.513E-03
            1520            2127     107.001E-03     109.513E-03
            1520            2128     115.275E-03     117.575E-03
            1502            2128     115.275E-03     117.575E-03
            1503            2128     115.275E-03     117.575E-03
            1521            2128     115.275E-03     117.575E-03
            1504            2129     123.218E-03     124.693E-03
            1521            2129     123.218E-03     124.693E-03
            1503            2129     123.218E-03     124.693E-03
            1522            2129     123.218E-03     124.693E-03
            1505            2130     6.07654E-03     8.41965E-03
            1524            2130     6.07654E-03     8.41965E-03
            1506            2130     6.07654E-03     8.41965E-03
            1523            2130     6.07654E-03     8.41965E-03
            1507            2131     12.3956E-03     15.1061E-03
            1524            2131     12.3956E-03     15.1061E-03
            1506            2131     12.3956E-03     15.1061E-03
            1525            2131     12.3956E-03     15.1061E-03
            1507            2132     19.1284E-03     21.6842E-03
            1508            2132     19.1284E-03     21.6842E-03
            1525            2132     19.1284E-03     21.6842E-03
            1526            2132     19.1284E-03     21.6842E-03
            1509            2133     25.8828E-03     28.3764E-03
            1508            2133     25.8828E-03     28.3764E-03
            1527            2133     25.8828E-03     28.3764E-03
            1526            2133     25.8828E-03     28.3764E-03
            1528            2134     32.6128E-03     35.1396E-03
            1527            2134     32.6128E-03     35.1396E-03
            1509            2134     32.6128E-03     35.1396E-03
            1510            2134     32.6128E-03     35.1396E-03
            1529            2135     39.3656E-03     41.9058E-03
            1528            2135     39.3656E-03     41.9058E-03
            1510            2135     39.3656E-03     41.9058E-03
            1511            2135     39.3656E-03     41.9058E-03
            1511            2136     46.1325E-03     48.7021E-03
            1530            2136     46.1325E-03     48.7021E-03
            1529            2136     46.1325E-03     48.7021E-03
            1512            2136     46.1325E-03     48.7021E-03
            1513            2137     52.9358E-03     55.5275E-03
            1531            2137     52.9358E-03     55.5275E-03
            1530            2137     52.9358E-03     55.5275E-03
            1512            2137     52.9358E-03     55.5275E-03
            1513            2138     59.7828E-03     62.4142E-03
            1532            2138     59.7828E-03     62.4142E-03
            1531            2138     59.7828E-03     62.4142E-03
            1514            2138     59.7828E-03     62.4142E-03
            1515            2139     66.7264E-03     69.3914E-03
            1533            2139     66.7264E-03     69.3914E-03
            1532            2139     66.7264E-03     69.3914E-03
            1514            2139     66.7264E-03     69.3914E-03
            1534            2140     73.8045E-03     76.5321E-03
            1515            2140     73.8045E-03     76.5321E-03
            1533            2140     73.8045E-03     76.5321E-03
            1516            2140     73.8045E-03     76.5321E-03
            1534            2141     81.1378E-03     83.9022E-03
            1535            2141     81.1378E-03     83.9022E-03
            1517            2141     81.1378E-03     83.9022E-03
            1516            2141     81.1378E-03     83.9022E-03
            1536            2142     88.8927E-03     91.6885E-03
            1518            2142     88.8927E-03     91.6885E-03
            1535            2142     88.8927E-03     91.6885E-03
            1517            2142     88.8927E-03     91.6885E-03
            1536            2143     97.2373E-03     100.006E-03
            1518            2143     97.2373E-03     100.006E-03
            1519            2143     97.2373E-03     100.006E-03
            1537            2143     97.2373E-03     100.006E-03
            1519            2144     106.934E-03     109.292E-03
            1520            2144     106.934E-03     109.292E-03
            1537            2144     106.934E-03     109.292E-03
            1538            2144     106.934E-03     109.292E-03
            1538            2145     117.161E-03     119.178E-03
            1520            2145     117.161E-03     119.178E-03
            1521            2145     117.161E-03     119.178E-03
            1539            2145     117.161E-03     119.178E-03
            1540            2146     126.372E-03     128.557E-03
            1521            2146     126.372E-03     128.557E-03
            1539            2146     126.372E-03     128.557E-03
            1522            2146     126.372E-03     128.557E-03
            1542            2147     6.01888E-03     9.03002E-03
            1523            2147     6.01888E-03     9.03002E-03
            1524            2147     6.01888E-03     9.03002E-03
            1541            2147     6.01888E-03     9.03002E-03
            1542            2148     12.2369E-03     14.9886E-03
            1543            2148     12.2369E-03     14.9886E-03
            1524            2148     12.2369E-03     14.9886E-03
            1525            2148     12.2369E-03     14.9886E-03
            1526            2149     18.8233E-03     21.3957E-03
            1544            2149     18.8233E-03     21.3957E-03
            1525            2149     18.8233E-03     21.3957E-03
            1543            2149     18.8233E-03     21.3957E-03
            1544            2150     25.3394E-03     28.0210E-03
            1527            2150     25.3394E-03     28.0210E-03
            1526            2150     25.3394E-03     28.0210E-03
            1545            2150     25.3394E-03     28.0210E-03
            1545            2151     31.8837E-03     34.6465E-03
            1546            2151     31.8837E-03     34.6465E-03
            1528            2151     31.8837E-03     34.6465E-03
            1527            2151     31.8837E-03     34.6465E-03
            1528            2152     38.4403E-03     41.2703E-03
            1546            2152     38.4403E-03     41.2703E-03
            1547            2152     38.4403E-03     41.2703E-03
            1529            2152     38.4403E-03     41.2703E-03
            1530            2153     45.0236E-03     47.8831E-03
            1547            2153     45.0236E-03     47.8831E-03
            1548            2153     45.0236E-03     47.8831E-03
            1529            2153     45.0236E-03     47.8831E-03
            1549            2154     51.6278E-03     54.5000E-03
            1530            2154     51.6278E-03     54.5000E-03
            1531            2154     51.6278E-03     54.5000E-03
            1548            2154     51.6278E-03     54.5000E-03
            1550            2155     58.2873E-03     61.1452E-03
            1531            2155     58.2873E-03     61.1452E-03
            1532            2155     58.2873E-03     61.1452E-03
            1549            2155     58.2873E-03     61.1452E-03
            1550            2156     65.0120E-03     67.8556E-03
            1533            2156     65.0120E-03     67.8556E-03
            1532            2156     65.0120E-03     67.8556E-03
            1551            2156     65.0120E-03     67.8556E-03
            1533            2157     71.9003E-03     74.7021E-03
            1551            2157     71.9003E-03     74.7021E-03
            1534            2157     71.9003E-03     74.7021E-03
            1552            2157     71.9003E-03     74.7021E-03
            1534            2158     79.0066E-03     81.7924E-03
            1552            2158     79.0066E-03     81.7924E-03
            1535            2158     79.0066E-03     81.7924E-03
            1553            2158     79.0066E-03     81.7924E-03
            1553            2159     86.5855E-03     89.3113E-03
            1536            2159     86.5855E-03     89.3113E-03
            1535            2159     86.5855E-03     89.3113E-03
            1554            2159     86.5855E-03     89.3113E-03
            1537            2160     94.8697E-03     97.5786E-03
            1555            2160     94.8697E-03     97.5786E-03
            1536            2160     94.8697E-03     97.5786E-03
            1554            2160     94.8697E-03     97.5786E-03
            1538            2161     104.438E-03     107.020E-03
            1537            2161     104.438E-03     107.020E-03
            1555            2161     104.438E-03     107.020E-03
            1556            2161     104.438E-03     107.020E-03
            1538            2162     117.000E-03     118.763E-03
            1557            2162     117.000E-03     118.763E-03
            1556            2162     117.000E-03     118.763E-03
            1539            2162     117.000E-03     118.763E-03
            1540            2163     129.906E-03     130.465E-03
            1539            2163     129.906E-03     130.465E-03
            1558            2163     129.906E-03     130.465E-03
            1557            2163     129.906E-03     130.465E-03
            1542            2164     8.03854E-03     10.5217E-03
            1541            2164     8.03854E-03     10.5217E-03
            1559            2164     8.03854E-03     10.5217E-03
            1560            2164     8.03854E-03     10.5217E-03
            1560            2165     13.3153E-03     15.5666E-03
            1542            2165     13.3153E-03     15.5666E-03
            1561            2165     13.3153E-03     15.5666E-03
            1543            2165     13.3153E-03     15.5666E-03
            1562            2166     19.1339E-03     21.7382E-03
            1561            2166     19.1339E-03     21.7382E-03
            1543            2166     19.1339E-03     21.7382E-03
            1544            2166     19.1339E-03     21.7382E-03
            1545            2167     25.2161E-03     28.1000E-03
            1563            2167     25.2161E-03     28.1000E-03
            1544            2167     25.2161E-03     28.1000E-03
            1562            2167     25.2161E-03     28.1000E-03
            1564            2168     31.4100E-03     34.4823E-03
            1546            2168     31.4100E-03     34.4823E-03
            1545            2168     31.4100E-03     34.4823E-03
            1563            2168     31.4100E-03     34.4823E-03
            1565            2169     37.6850E-03     40.8566E-03
            1546            2169     37.6850E-03     40.8566E-03
            1547            2169     37.6850E-03     40.8566E-03
            1564            2169     37.6850E-03     40.8566E-03
            1547            2170     43.9975E-03     47.2068E-03
            1566            2170     43.9975E-03     47.2068E-03
            1548            2170     43.9975E-03     47.2068E-03
            1565            2170     43.9975E-03     47.2068E-03
            1567            2171     50.3567E-03     53.5452E-03
            1566            2171     50.3567E-03     53.5452E-03
            1549            2171     50.3567E-03     53.5452E-03
            1548            2171     50.3567E-03     53.5452E-03
            1550            2172     56.7530E-03     59.8780E-03
            1568            2172     56.7530E-03     59.8780E-03
            1567            2172     56.7530E-03     59.8780E-03
            1549            2172     56.7530E-03     59.8780E-03
            1569            2173     63.2386E-03     66.2542E-03
            1550            2173     63.2386E-03     66.2542E-03
            1568            2173     63.2386E-03     66.2542E-03
            1551            2173     63.2386E-03     66.2542E-03
            1552            2174     69.8331E-03     72.7073E-03
            1569            2174     69.8331E-03     72.7073E-03
            1551            2174     69.8331E-03     72.7073E-03
            1570            2174     69.8331E-03     72.7073E-03
            1570            2175     76.6880E-03     79.3864E-03
            1552            2175     76.6880E-03     79.3864E-03
            1571            2175     76.6880E-03     79.3864E-03
            1553            2175     76.6880E-03     79.3864E-03
            1553            2176     83.8712E-03     86.3979E-03
            1572            2176     83.8712E-03     86.3979E-03
            1571            2176     83.8712E-03     86.3979E-03
            1554            2176     83.8712E-03     86.3979E-03
            1573            2177     91.8331E-03     94.2027E-03
            1555            2177     91.8331E-03     94.2027E-03
            1554            2177     91.8331E-03     94.2027E-03
            1572            2177     91.8331E-03     94.2027E-03
            1555            2178     100.756E-03     103.114E-03
            1573            2178     100.756E-03     103.114E-03
            1574            2178     100.756E-03     103.114E-03
            1556            2178     100.756E-03     103.114E-03
            1556            2179     112.464E-03     114.975E-03
            1575            2179     112.464E-03     114.975E-03
            1557            2179     112.464E-03     114.975E-03
            1574            2179     112.464E-03     114.975E-03
            1575            2180     129.391E-03     131.138E-03
            1558            2180     129.391E-03     131.138E-03
            1576            2180     129.391E-03     131.138E-03
            1557            2180     129.391E-03     131.138E-03
            1560            2181     19.4096E-03     21.9831E-03
            1577            2181     19.4096E-03     21.9831E-03
            1559            2181     19.4096E-03     21.9831E-03
            1578            2181     19.4096E-03     21.9831E-03
            1579            2182     24.1928E-03     25.2979E-03
            1560            2182     24.1928E-03     25.2979E-03
            1561            2182     24.1928E-03     25.2979E-03
            1578            2182     24.1928E-03     25.2979E-03
            1561            2183     29.2255E-03     30.4716E-03
            1562            2183     29.2255E-03     30.4716E-03
            1579            2183     29.2255E-03     30.4716E-03
            1580            2183     29.2255E-03     30.4716E-03
            1562            2184     34.8928E-03     36.4472E-03
            1563            2184     34.8928E-03     36.4472E-03
            1580            2184     34.8928E-03     36.4472E-03
            1581            2184     34.8928E-03     36.4472E-03
            1581            2185     40.9744E-03     42.7180E-03
            1563            2185     40.9744E-03     42.7180E-03
            1582            2185     40.9744E-03     42.7180E-03
            1564            2185     40.9744E-03     42.7180E-03
            1582            2186     47.3234E-03     49.1809E-03
            1564            2186     47.3234E-03     49.1809E-03
            1583            2186     47.3234E-03     49.1809E-03
            1565            2186     47.3234E-03     49.1809E-03
            1583            2187     53.8393E-03     55.7187E-03
            1565            2187     53.8393E-03     55.7187E-03
            1584            2187     53.8393E-03     55.7187E-03
            1566            2187     53.8393E-03     55.7187E-03
            1584            2188     60.4400E-03     62.2862E-03
            1585            2188     60.4400E-03     62.2862E-03
            1567            2188     60.4400E-03     62.2862E-03
            1566            2188     60.4400E-03     62.2862E-03
            1586            2189     67.1029E-03     68.8335E-03
            1585            2189     67.1029E-03     68.8335E-03
            1567            2189     67.1029E-03     68.8335E-03
            1568            2189     67.1029E-03     68.8335E-03
            1587            2190     73.7621E-03     75.3413E-03
            1586            2190     73.7621E-03     75.3413E-03
            1568            2190     73.7621E-03     75.3413E-03
            1569            2190     73.7621E-03     75.3413E-03
            1587            2191     80.4715E-03     81.7868E-03
            1570            2191     80.4715E-03     81.7868E-03
            1588            2191     80.4715E-03     81.7868E-03
            1569            2191     80.4715E-03     81.7868E-03
            1588            2192     87.1426E-03     88.1853E-03
            1570            2192     87.1426E-03     88.1853E-03
            1589            2192     87.1426E-03     88.1853E-03
            1571            2192     87.1426E-03     88.1853E-03
            1571            2193     93.9621E-03     94.5738E-03
            1572            2193     93.9621E-03     94.5738E-03
            1590            2193     93.9621E-03     94.5738E-03
            1589            2193     93.9621E-03     94.5738E-03
            1590            2194     100.791E-03     101.076E-03
            1573            2194     100.791E-03     101.076E-03
            1591            2194     100.791E-03     101.076E-03
            1572            2194     100.791E-03     101.076E-03
            1573            2195     108.149E-03     108.023E-03
            1574            2195     108.149E-03     108.023E-03
            1591            2195     108.149E-03     108.023E-03
            1592            2195     108.149E-03     108.023E-03
            1592            2196     115.848E-03     115.830E-03
            1574            2196     115.848E-03     115.830E-03
            1593            2196     115.848E-03     115.830E-03
            1575            2196     115.848E-03     115.830E-03
            1593            2197     126.608E-03     128.803E-03
            1576            2197     126.608E-03     128.803E-03
            1594            2197     126.608E-03     128.803E-03
            1575            2197     126.608E-03     128.803E-03
            1595            2198     27.5389E-03     31.1243E-03
            1596            2198     27.5389E-03     31.1243E-03
            1577            2198     27.5389E-03     31.1243E-03
            1578            2198     27.5389E-03     31.1243E-03
            1596            2199     31.6428E-03     33.0917E-03
            1578            2199     31.6428E-03     33.0917E-03
            1597            2199     31.6428E-03     33.0917E-03
            1579            2199     31.6428E-03     33.0917E-03
            1580            2200     37.0225E-03     37.5656E-03
            1579            2200     37.0225E-03     37.5656E-03
            1598            2200     37.0225E-03     37.5656E-03
            1597            2200     37.0225E-03     37.5656E-03
            1599            2201     43.0936E-03     43.5196E-03
            1598            2201     43.0936E-03     43.5196E-03
            1580            2201     43.0936E-03     43.5196E-03
            1581            2201     43.0936E-03     43.5196E-03
            1599            2202     49.6890E-03     50.1585E-03
            1581            2202     49.6890E-03     50.1585E-03
            1600            2202     49.6890E-03     50.1585E-03
            1582            2202     49.6890E-03     50.1585E-03
            1582            2203     56.6696E-03     57.1824E-03
            1583            2203     56.6696E-03     57.1824E-03
            1600            2203     56.6696E-03     57.1824E-03
            1601            2203     56.6696E-03     57.1824E-03
            1602            2204     63.8799E-03     64.4021E-03
            1601            2204     63.8799E-03     64.4021E-03
            1583            2204     63.8799E-03     64.4021E-03
            1584            2204     63.8799E-03     64.4021E-03
            1584            2205     71.2280E-03     71.7185E-03
            1585            2205     71.2280E-03     71.7185E-03
            1602            2205     71.2280E-03     71.7185E-03
            1603            2205     71.2280E-03     71.7185E-03
            1585            2206     78.6294E-03     79.0359E-03
            1586            2206     78.6294E-03     79.0359E-03
            1603            2206     78.6294E-03     79.0359E-03
            1604            2206     78.6294E-03     79.0359E-03
            1586            2207     86.0241E-03     86.3052E-03
            1605            2207     86.0241E-03     86.3052E-03
            1604            2207     86.0241E-03     86.3052E-03
            1587            2207     86.0241E-03     86.3052E-03
            1588            2208     93.3347E-03     93.4311E-03
            1587            2208     93.3347E-03     93.4311E-03
            1606            2208     93.3347E-03     93.4311E-03
            1605            2208     93.3347E-03     93.4311E-03
            1588            2209     100.523E-03     100.381E-03
            1589            2209     100.523E-03     100.381E-03
            1607            2209     100.523E-03     100.381E-03
            1606            2209     100.523E-03     100.381E-03
            1608            2210     107.448E-03     107.040E-03
            1589            2210     107.448E-03     107.040E-03
            1607            2210     107.448E-03     107.040E-03
            1590            2210     107.448E-03     107.040E-03
            1590            2211     114.131E-03     113.407E-03
            1591            2211     114.131E-03     113.407E-03
            1609            2211     114.131E-03     113.407E-03
            1608            2211     114.131E-03     113.407E-03
            1609            2212     120.269E-03     119.360E-03
            1610            2212     120.269E-03     119.360E-03
            1592            2212     120.269E-03     119.360E-03
            1591            2212     120.269E-03     119.360E-03
            1592            2213     126.052E-03     125.120E-03
            1593            2213     126.052E-03     125.120E-03
            1610            2213     126.052E-03     125.120E-03
            1611            2213     126.052E-03     125.120E-03
            1611            2214     131.324E-03     129.894E-03
            1594            2214     131.324E-03     129.894E-03
            1612            2214     131.324E-03     129.894E-03
            1593            2214     131.324E-03     129.894E-03
            1613            2215     23.7402E-03     26.1613E-03
            1595            2215     23.7402E-03     26.1613E-03
            1596            2215     23.7402E-03     26.1613E-03
            1614            2215     23.7402E-03     26.1613E-03
            1614            2216     27.3257E-03     30.1361E-03
            1596            2216     27.3257E-03     30.1361E-03
            1597            2216     27.3257E-03     30.1361E-03
            1615            2216     27.3257E-03     30.1361E-03
            1615            2217     33.5011E-03     35.1626E-03
            1616            2217     33.5011E-03     35.1626E-03
            1598            2217     33.5011E-03     35.1626E-03
            1597            2217     33.5011E-03     35.1626E-03
            1598            2218     40.5187E-03     41.6525E-03
            1617            2218     40.5187E-03     41.6525E-03
            1599            2218     40.5187E-03     41.6525E-03
            1616            2218     40.5187E-03     41.6525E-03
            1600            2219     47.9175E-03     48.8923E-03
            1599            2219     47.9175E-03     48.8923E-03
            1617            2219     47.9175E-03     48.8923E-03
            1618            2219     47.9175E-03     48.8923E-03
            1600            2220     55.6083E-03     56.5192E-03
            1619            2220     55.6083E-03     56.5192E-03
            1601            2220     55.6083E-03     56.5192E-03
            1618            2220     55.6083E-03     56.5192E-03
            1619            2221     63.4704E-03     64.3730E-03
            1601            2221     63.4704E-03     64.3730E-03
            1620            2221     63.4704E-03     64.3730E-03
            1602            2221     63.4704E-03     64.3730E-03
            1603            2222     71.4601E-03     72.3453E-03
            1602            2222     71.4601E-03     72.3453E-03
            1620            2222     71.4601E-03     72.3453E-03
            1621            2222     71.4601E-03     72.3453E-03
            1604            2223     79.5153E-03     80.3873E-03
            1622            2223     79.5153E-03     80.3873E-03
            1603            2223     79.5153E-03     80.3873E-03
            1621            2223     79.5153E-03     80.3873E-03
            1622            2224     87.6017E-03     88.4452E-03
            1604            2224     87.6017E-03     88.4452E-03
            1605            2224     87.6017E-03     88.4452E-03
            1623            2224     87.6017E-03     88.4452E-03
            1624            2225     95.6625E-03     96.4851E-03
            1606            2225     95.6625E-03     96.4851E-03
            1605            2225     95.6625E-03     96.4851E-03
            1623            2225     95.6625E-03     96.4851E-03
            1607            2226     103.625E-03     104.447E-03
            1606            2226     103.625E-03     104.447E-03
            1625            2226     103.625E-03     104.447E-03
            1624            2226     103.625E-03     104.447E-03
            1607            2227     111.423E-03     112.268E-03
            1608            2227     111.423E-03     112.268E-03
            1626            2227     111.423E-03     112.268E-03
            1625            2227     111.423E-03     112.268E-03
            1626            2228     118.879E-03     119.882E-03
            1608            2228     118.879E-03     119.882E-03
            1609            2228     118.879E-03     119.882E-03
            1627            2228     118.879E-03     119.882E-03
            1627            2229     125.920E-03     127.122E-03
            1610            2229     125.920E-03     127.122E-03
            1628            2229     125.920E-03     127.122E-03
            1609            2229     125.920E-03     127.122E-03
            1628            2230     132.590E-03     133.880E-03
            1610            2230     132.590E-03     133.880E-03
            1629            2230     132.590E-03     133.880E-03
            1611            2230     132.590E-03     133.880E-03
            1611            2231     138.290E-03     138.975E-03
            1630            2231     138.290E-03     138.975E-03
            1629            2231     138.290E-03     138.975E-03
            1612            2231     138.290E-03     138.975E-03
            1613            2232     19.6750E-03     21.1036E-03
            1632            2232     19.6750E-03     21.1036E-03
            1614            2232     19.6750E-03     21.1036E-03
            1631            2232     19.6750E-03     21.1036E-03
            1614            2233     24.1644E-03     26.6838E-03
            1633            2233     24.1644E-03     26.6838E-03
            1632            2233     24.1644E-03     26.6838E-03
            1615            2233     24.1644E-03     26.6838E-03
            1615            2234     30.7452E-03     33.1348E-03
            1616            2234     30.7452E-03     33.1348E-03
            1634            2234     30.7452E-03     33.1348E-03
            1633            2234     30.7452E-03     33.1348E-03
            1635            2235     38.4510E-03     40.2671E-03
            1616            2235     38.4510E-03     40.2671E-03
            1617            2235     38.4510E-03     40.2671E-03
            1634            2235     38.4510E-03     40.2671E-03
            1636            2236     46.5244E-03     48.0580E-03
            1618            2236     46.5244E-03     48.0580E-03
            1617            2236     46.5244E-03     48.0580E-03
            1635            2236     46.5244E-03     48.0580E-03
            1637            2237     54.7795E-03     56.1893E-03
            1636            2237     54.7795E-03     56.1893E-03
            1618            2237     54.7795E-03     56.1893E-03
            1619            2237     54.7795E-03     56.1893E-03
            1637            2238     63.1768E-03     64.5376E-03
            1638            2238     63.1768E-03     64.5376E-03
            1619            2238     63.1768E-03     64.5376E-03
            1620            2238     63.1768E-03     64.5376E-03
            1639            2239     71.6614E-03     73.0292E-03
            1620            2239     71.6614E-03     73.0292E-03
            1638            2239     71.6614E-03     73.0292E-03
            1621            2239     71.6614E-03     73.0292E-03
            1640            2240     80.2317E-03     81.6285E-03
            1622            2240     80.2317E-03     81.6285E-03
            1621            2240     80.2317E-03     81.6285E-03
            1639            2240     80.2317E-03     81.6285E-03
            1641            2241     88.8400E-03     90.3063E-03
            1622            2241     88.8400E-03     90.3063E-03
            1640            2241     88.8400E-03     90.3063E-03
            1623            2241     88.8400E-03     90.3063E-03
            1624            2242     97.4859E-03     99.0450E-03
            1642            2242     97.4859E-03     99.0450E-03
            1623            2242     97.4859E-03     99.0450E-03
            1641            2242     97.4859E-03     99.0450E-03
            1625            2243     106.075E-03     107.795E-03
            1624            2243     106.075E-03     107.795E-03
            1642            2243     106.075E-03     107.795E-03
            1643            2243     106.075E-03     107.795E-03
            1644            2244     114.558E-03     116.487E-03
            1643            2244     114.558E-03     116.487E-03
            1625            2244     114.558E-03     116.487E-03
            1626            2244     114.558E-03     116.487E-03
            1627            2245     122.740E-03     124.949E-03
            1645            2245     122.740E-03     124.949E-03
            1644            2245     122.740E-03     124.949E-03
            1626            2245     122.740E-03     124.949E-03
            1627            2246     130.561E-03     132.976E-03
            1628            2246     130.561E-03     132.976E-03
            1645            2246     130.561E-03     132.976E-03
            1646            2246     130.561E-03     132.976E-03
            1629            2247     137.634E-03     140.004E-03
            1647            2247     137.634E-03     140.004E-03
            1628            2247     137.634E-03     140.004E-03
            1646            2247     137.634E-03     140.004E-03
            1648            2248     143.704E-03     145.804E-03
            1647            2248     143.704E-03     145.804E-03
            1630            2248     143.704E-03     145.804E-03
            1629            2248     143.704E-03     145.804E-03
            1649            2249     15.8561E-03     17.4453E-03
            1631            2249     15.8561E-03     17.4453E-03
            1650            2249     15.8561E-03     17.4453E-03
            1632            2249     15.8561E-03     17.4453E-03
            1633            2250     21.2711E-03     23.7127E-03
            1632            2250     21.2711E-03     23.7127E-03
            1650            2250     21.2711E-03     23.7127E-03
            1651            2250     21.2711E-03     23.7127E-03
            1634            2251     28.6392E-03     31.2663E-03
            1652            2251     28.6392E-03     31.2663E-03
            1651            2251     28.6392E-03     31.2663E-03
            1633            2251     28.6392E-03     31.2663E-03
            1652            2252     36.8254E-03     39.1691E-03
            1634            2252     36.8254E-03     39.1691E-03
            1635            2252     36.8254E-03     39.1691E-03
            1653            2252     36.8254E-03     39.1691E-03
            1653            2253     45.3609E-03     47.4129E-03
            1635            2253     45.3609E-03     47.4129E-03
            1636            2253     45.3609E-03     47.4129E-03
            1654            2253     45.3609E-03     47.4129E-03
            1636            2254     54.0270E-03     55.9291E-03
            1637            2254     54.0270E-03     55.9291E-03
            1655            2254     54.0270E-03     55.9291E-03
            1654            2254     54.0270E-03     55.9291E-03
            1638            2255     62.7791E-03     64.6220E-03
            1655            2255     62.7791E-03     64.6220E-03
            1656            2255     62.7791E-03     64.6220E-03
            1637            2255     62.7791E-03     64.6220E-03
            1657            2256     71.6112E-03     73.4665E-03
            1638            2256     71.6112E-03     73.4665E-03
            1656            2256     71.6112E-03     73.4665E-03
            1639            2256     71.6112E-03     73.4665E-03
            1640            2257     80.5037E-03     82.4295E-03
            1658            2257     80.5037E-03     82.4295E-03
            1657            2257     80.5037E-03     82.4295E-03
            1639            2257     80.5037E-03     82.4295E-03
            1641            2258     89.4854E-03     91.5219E-03
            1659            2258     89.4854E-03     91.5219E-03
            1640            2258     89.4854E-03     91.5219E-03
            1658            2258     89.4854E-03     91.5219E-03
            1641            2259     98.4974E-03     100.718E-03
            1659            2259     98.4974E-03     100.718E-03
            1660            2259     98.4974E-03     100.718E-03
            1642            2259     98.4974E-03     100.718E-03
            1660            2260     107.598E-03     110.014E-03
            1661            2260     107.598E-03     110.014E-03
            1643            2260     107.598E-03     110.014E-03
            1642            2260     107.598E-03     110.014E-03
            1662            2261     116.599E-03     119.317E-03
            1643            2261     116.599E-03     119.317E-03
            1661            2261     116.599E-03     119.317E-03
            1644            2261     116.599E-03     119.317E-03
            1645            2262     125.497E-03     128.420E-03
            1644            2262     125.497E-03     128.420E-03
            1663            2262     125.497E-03     128.420E-03
            1662            2262     125.497E-03     128.420E-03
            1645            2263     133.931E-03     136.952E-03
            1664            2263     133.931E-03     136.952E-03
            1646            2263     133.931E-03     136.952E-03
            1663            2263     133.931E-03     136.952E-03
            1665            2264     141.544E-03     144.471E-03
            1646            2264     141.544E-03     144.471E-03
            1664            2264     141.544E-03     144.471E-03
            1647            2264     141.544E-03     144.471E-03
            1665            2265     148.675E-03     150.436E-03
            1666            2265     148.675E-03     150.436E-03
            1647            2265     148.675E-03     150.436E-03
            1648            2265     148.675E-03     150.436E-03
            1667            2266     12.3177E-03     14.1825E-03
            1668            2266     12.3177E-03     14.1825E-03
            1649            2266     12.3177E-03     14.1825E-03
            1650            2266     12.3177E-03     14.1825E-03
            1668            2267     18.7992E-03     21.6366E-03
            1650            2267     18.7992E-03     21.6366E-03
            1669            2267     18.7992E-03     21.6366E-03
            1651            2267     18.7992E-03     21.6366E-03
            1651            2268     26.9439E-03     29.7388E-03
            1669            2268     26.9439E-03     29.7388E-03
            1652            2268     26.9439E-03     29.7388E-03
            1670            2268     26.9439E-03     29.7388E-03
            1671            2269     35.5347E-03     38.2276E-03
            1670            2269     35.5347E-03     38.2276E-03
            1652            2269     35.5347E-03     38.2276E-03
            1653            2269     35.5347E-03     38.2276E-03
            1654            2270     44.3363E-03     46.8122E-03
            1671            2270     44.3363E-03     46.8122E-03
            1672            2270     44.3363E-03     46.8122E-03
            1653            2270     44.3363E-03     46.8122E-03
            1672            2271     53.2333E-03     55.5653E-03
            1655            2271     53.2333E-03     55.5653E-03
            1654            2271     53.2333E-03     55.5653E-03
            1673            2271     53.2333E-03     55.5653E-03
            1674            2272     62.1736E-03     64.4640E-03
            1655            2272     62.1736E-03     64.4640E-03
            1673            2272     62.1736E-03     64.4640E-03
            1656            2272     62.1736E-03     64.4640E-03
            1656            2273     71.1669E-03     73.4765E-03
            1674            2273     71.1669E-03     73.4765E-03
            1675            2273     71.1669E-03     73.4765E-03
            1657            2273     71.1669E-03     73.4765E-03
            1657            2274     80.2333E-03     82.6232E-03
            1675            2274     80.2333E-03     82.6232E-03
            1658            2274     80.2333E-03     82.6232E-03
            1676            2274     80.2333E-03     82.6232E-03
            1676            2275     89.3630E-03     91.8940E-03
            1658            2275     89.3630E-03     91.8940E-03
            1659            2275     89.3630E-03     91.8940E-03
            1677            2275     89.3630E-03     91.8940E-03
            1659            2276     98.6268E-03     101.331E-03
            1660            2276     98.6268E-03     101.331E-03
            1677            2276     98.6268E-03     101.331E-03
            1678            2276     98.6268E-03     101.331E-03
            1679            2277     107.948E-03     110.910E-03
            1661            2277     107.948E-03     110.910E-03
            1660            2277     107.948E-03     110.910E-03
            1678            2277     107.948E-03     110.910E-03
            1680            2278     117.491E-03     120.620E-03
            1679            2278     117.491E-03     120.620E-03
            1661            2278     117.491E-03     120.620E-03
            1662            2278     117.491E-03     120.620E-03
            1662            2279     126.960E-03     130.310E-03
            1680            2279     126.960E-03     130.310E-03
            1663            2279     126.960E-03     130.310E-03
            1681            2279     126.960E-03     130.310E-03
            1664            2280     136.184E-03     139.537E-03
            1682            2280     136.184E-03     139.537E-03
            1663            2280     136.184E-03     139.537E-03
            1681            2280     136.184E-03     139.537E-03
            1683            2281     144.944E-03     147.694E-03
            1664            2281     144.944E-03     147.694E-03
            1665            2281     144.944E-03     147.694E-03
            1682            2281     144.944E-03     147.694E-03
            1683            2282     152.580E-03     154.869E-03
            1666            2282     152.580E-03     154.869E-03
            1684            2282     152.580E-03     154.869E-03
            1665            2282     152.580E-03     154.869E-03
            1686            2283     9.20746E-03     11.8954E-03
            1668            2283     9.20746E-03     11.8954E-03
            1667            2283     9.20746E-03     11.8954E-03
            1685            2283     9.20746E-03     11.8954E-03
            1668            2284     17.0311E-03     20.1175E-03
            1687            2284     17.0311E-03     20.1175E-03
            1686            2284     17.0311E-03     20.1175E-03
            1669            2284     17.0311E-03     20.1175E-03
            1688            2285     25.6333E-03     28.7845E-03
            1669            2285     25.6333E-03     28.7845E-03
            1670            2285     25.6333E-03     28.7845E-03
            1687            2285     25.6333E-03     28.7845E-03
            1689            2286     34.5042E-03     37.4184E-03
            1688            2286     34.5042E-03     37.4184E-03
            1671            2286     34.5042E-03     37.4184E-03
            1670            2286     34.5042E-03     37.4184E-03
            1671            2287     43.4207E-03     46.2035E-03
            1689            2287     43.4207E-03     46.2035E-03
            1690            2287     43.4207E-03     46.2035E-03
            1672            2287     43.4207E-03     46.2035E-03
            1672            2288     52.3548E-03     55.0618E-03
            1691            2288     52.3548E-03     55.0618E-03
            1673            2288     52.3548E-03     55.0618E-03
            1690            2288     52.3548E-03     55.0618E-03
            1674            2289     61.3220E-03     64.0003E-03
            1691            2289     61.3220E-03     64.0003E-03
            1692            2289     61.3220E-03     64.0003E-03
            1673            2289     61.3220E-03     64.0003E-03
            1674            2290     70.3225E-03     73.0316E-03
            1692            2290     70.3225E-03     73.0316E-03
            1675            2290     70.3225E-03     73.0316E-03
            1693            2290     70.3225E-03     73.0316E-03
            1694            2291     79.3748E-03     82.1563E-03
            1675            2291     79.3748E-03     82.1563E-03
            1693            2291     79.3748E-03     82.1563E-03
            1676            2291     79.3748E-03     82.1563E-03
            1695            2292     88.5194E-03     91.4189E-03
            1676            2292     88.5194E-03     91.4189E-03
            1677            2292     88.5194E-03     91.4189E-03
            1694            2292     88.5194E-03     91.4189E-03
            1696            2293     97.7676E-03     100.833E-03
            1677            2293     97.7676E-03     100.833E-03
            1678            2293     97.7676E-03     100.833E-03
            1695            2293     97.7676E-03     100.833E-03
            1697            2294     107.247E-03     110.482E-03
            1696            2294     107.247E-03     110.482E-03
            1679            2294     107.247E-03     110.482E-03
            1678            2294     107.247E-03     110.482E-03
            1680            2295     116.915E-03     120.360E-03
            1679            2295     116.915E-03     120.360E-03
            1697            2295     116.915E-03     120.360E-03
            1698            2295     116.915E-03     120.360E-03
            1680            2296     127.113E-03     130.532E-03
            1681            2296     127.113E-03     130.532E-03
            1698            2296     127.113E-03     130.532E-03
            1699            2296     127.113E-03     130.532E-03
            1681            2297     137.434E-03     140.764E-03
            1682            2297     137.434E-03     140.764E-03
            1700            2297     137.434E-03     140.764E-03
            1699            2297     137.434E-03     140.764E-03
            1701            2298     147.281E-03     150.425E-03
            1683            2298     147.281E-03     150.425E-03
            1682            2298     147.281E-03     150.425E-03
            1700            2298     147.281E-03     150.425E-03
            1684            2299     156.610E-03     158.511E-03
            1701            2299     156.610E-03     158.511E-03
            1702            2299     156.610E-03     158.511E-03
            1683            2299     156.610E-03     158.511E-03
            1686            2300     7.68568E-03     10.9760E-03
            1685            2300     7.68568E-03     10.9760E-03
            1703            2300     7.68568E-03     10.9760E-03
            1704            2300     7.68568E-03     10.9760E-03
            1704            2301     16.0307E-03     19.6809E-03
            1687            2301     16.0307E-03     19.6809E-03
            1686            2301     16.0307E-03     19.6809E-03
            1705            2301     16.0307E-03     19.6809E-03
            1705            2302     24.9276E-03     28.1872E-03
            1688            2302     24.9276E-03     28.1872E-03
            1706            2302     24.9276E-03     28.1872E-03
            1687            2302     24.9276E-03     28.1872E-03
            1706            2303     33.7847E-03     36.8780E-03
            1689            2303     33.7847E-03     36.8780E-03
            1688            2303     33.7847E-03     36.8780E-03
            1707            2303     33.7847E-03     36.8780E-03
            1708            2304     42.6074E-03     45.6526E-03
            1690            2304     42.6074E-03     45.6526E-03
            1689            2304     42.6074E-03     45.6526E-03
            1707            2304     42.6074E-03     45.6526E-03
            1708            2305     51.4326E-03     54.4659E-03
            1691            2305     51.4326E-03     54.4659E-03
            1709            2305     51.4326E-03     54.4659E-03
            1690            2305     51.4326E-03     54.4659E-03
            1692            2306     60.2686E-03     63.3081E-03
            1709            2306     60.2686E-03     63.3081E-03
            1710            2306     60.2686E-03     63.3081E-03
            1691            2306     60.2686E-03     63.3081E-03
            1693            2307     69.1306E-03     72.1930E-03
            1711            2307     69.1306E-03     72.1930E-03
            1710            2307     69.1306E-03     72.1930E-03
            1692            2307     69.1306E-03     72.1930E-03
            1711            2308     78.0324E-03     81.1413E-03
            1693            2308     78.0324E-03     81.1413E-03
            1694            2308     78.0324E-03     81.1413E-03
            1712            2308     78.0324E-03     81.1413E-03
            1712            2309     87.0101E-03     90.1823E-03
            1713            2309     87.0101E-03     90.1823E-03
            1694            2309     87.0101E-03     90.1823E-03
            1695            2309     87.0101E-03     90.1823E-03
            1713            2310     96.1140E-03     99.3833E-03
            1714            2310     96.1140E-03     99.3833E-03
            1696            2310     96.1140E-03     99.3833E-03
            1695            2310     96.1140E-03     99.3833E-03
            1696            2311     105.434E-03     108.806E-03
            1697            2311     105.434E-03     108.806E-03
            1715            2311     105.434E-03     108.806E-03
            1714            2311     105.434E-03     108.806E-03
            1715            2312     115.152E-03     118.629E-03
            1697            2312     115.152E-03     118.629E-03
            1698            2312     115.152E-03     118.629E-03
            1716            2312     115.152E-03     118.629E-03
            1717            2313     125.412E-03     128.928E-03
            1698            2313     125.412E-03     128.928E-03
            1699            2313     125.412E-03     128.928E-03
            1716            2313     125.412E-03     128.928E-03
            1718            2314     137.027E-03     140.153E-03
            1717            2314     137.027E-03     140.153E-03
            1700            2314     137.027E-03     140.153E-03
            1699            2314     137.027E-03     140.153E-03
            1718            2315     149.073E-03     151.740E-03
            1719            2315     149.073E-03     151.740E-03
            1701            2315     149.073E-03     151.740E-03
            1700            2315     149.073E-03     151.740E-03
            1701            2316     159.604E-03     162.402E-03
            1720            2316     159.604E-03     162.402E-03
            1702            2316     159.604E-03     162.402E-03
            1719            2316     159.604E-03     162.402E-03
            1722            2317     8.71855E-03     12.5478E-03
            1703            2317     8.71855E-03     12.5478E-03
            1721            2317     8.71855E-03     12.5478E-03
            1704            2317     8.71855E-03     12.5478E-03
            1723            2318     16.4421E-03     20.0207E-03
            1704            2318     16.4421E-03     20.0207E-03
            1705            2318     16.4421E-03     20.0207E-03
            1722            2318     16.4421E-03     20.0207E-03
            1723            2319     24.9762E-03     28.1629E-03
            1724            2319     24.9762E-03     28.1629E-03
            1706            2319     24.9762E-03     28.1629E-03
            1705            2319     24.9762E-03     28.1629E-03
            1724            2320     33.4735E-03     36.7156E-03
            1707            2320     33.4735E-03     36.7156E-03
            1706            2320     33.4735E-03     36.7156E-03
            1725            2320     33.4735E-03     36.7156E-03
            1708            2321     41.9976E-03     45.3209E-03
            1725            2321     41.9976E-03     45.3209E-03
            1726            2321     41.9976E-03     45.3209E-03
            1707            2321     41.9976E-03     45.3209E-03
            1726            2322     50.5554E-03     53.9294E-03
            1709            2322     50.5554E-03     53.9294E-03
            1727            2322     50.5554E-03     53.9294E-03
            1708            2322     50.5554E-03     53.9294E-03
            1727            2323     59.1324E-03     62.5406E-03
            1728            2323     59.1324E-03     62.5406E-03
            1709            2323     59.1324E-03     62.5406E-03
            1710            2323     59.1324E-03     62.5406E-03
            1728            2324     67.7287E-03     71.1438E-03
            1711            2324     67.7287E-03     71.1438E-03
            1729            2324     67.7287E-03     71.1438E-03
            1710            2324     67.7287E-03     71.1438E-03
            1711            2325     76.3634E-03     79.7694E-03
            1729            2325     76.3634E-03     79.7694E-03
            1730            2325     76.3634E-03     79.7694E-03
            1712            2325     76.3634E-03     79.7694E-03
            1730            2326     85.0438E-03     88.4364E-03
            1712            2326     85.0438E-03     88.4364E-03
            1731            2326     85.0438E-03     88.4364E-03
            1713            2326     85.0438E-03     88.4364E-03
            1732            2327     93.8558E-03     97.2169E-03
            1713            2327     93.8558E-03     97.2169E-03
            1731            2327     93.8558E-03     97.2169E-03
            1714            2327     93.8558E-03     97.2169E-03
            1715            2328     102.843E-03     106.203E-03
            1732            2328     102.843E-03     106.203E-03
            1714            2328     102.843E-03     106.203E-03
            1733            2328     102.843E-03     106.203E-03
            1716            2329     112.270E-03     115.579E-03
            1715            2329     112.270E-03     115.579E-03
            1733            2329     112.270E-03     115.579E-03
            1734            2329     112.270E-03     115.579E-03
            1735            2330     122.349E-03     125.681E-03
            1717            2330     122.349E-03     125.681E-03
            1716            2330     122.349E-03     125.681E-03
            1734            2330     122.349E-03     125.681E-03
            1735            2331     133.739E-03     136.925E-03
            1736            2331     133.739E-03     136.925E-03
            1717            2331     133.739E-03     136.925E-03
            1718            2331     133.739E-03     136.925E-03
            1719            2332     148.311E-03     150.575E-03
            1718            2332     148.311E-03     150.575E-03
            1736            2332     148.311E-03     150.575E-03
            1737            2332     148.311E-03     150.575E-03
            1737            2333     162.986E-03     163.742E-03
            1720            2333     162.986E-03     163.742E-03
            1738            2333     162.986E-03     163.742E-03
            1719            2333     162.986E-03     163.742E-03
            1721            2334     11.9820E-03     15.1811E-03
            1740            2334     11.9820E-03     15.1811E-03
            1739            2334     11.9820E-03     15.1811E-03
            1722            2334     11.9820E-03     15.1811E-03
            1740            2335     18.4820E-03     21.1778E-03
            1722            2335     18.4820E-03     21.1778E-03
            1741            2335     18.4820E-03     21.1778E-03
            1723            2335     18.4820E-03     21.1778E-03
            1741            2336     25.8924E-03     28.9737E-03
            1742            2336     25.8924E-03     28.9737E-03
            1724            2336     25.8924E-03     28.9737E-03
            1723            2336     25.8924E-03     28.9737E-03
            1724            2337     33.7188E-03     37.1452E-03
            1725            2337     33.7188E-03     37.1452E-03
            1743            2337     33.7188E-03     37.1452E-03
            1742            2337     33.7188E-03     37.1452E-03
            1726            2338     41.7479E-03     45.4045E-03
            1744            2338     41.7479E-03     45.4045E-03
            1725            2338     41.7479E-03     45.4045E-03
            1743            2338     41.7479E-03     45.4045E-03
            1726            2339     49.8888E-03     53.6766E-03
            1727            2339     49.8888E-03     53.6766E-03
            1745            2339     49.8888E-03     53.6766E-03
            1744            2339     49.8888E-03     53.6766E-03
            1746            2340     58.0874E-03     61.9177E-03
            1745            2340     58.0874E-03     61.9177E-03
            1728            2340     58.0874E-03     61.9177E-03
            1727            2340     58.0874E-03     61.9177E-03
            1728            2341     66.3249E-03     70.1398E-03
            1747            2341     66.3249E-03     70.1398E-03
            1746            2341     66.3249E-03     70.1398E-03
            1729            2341     66.3249E-03     70.1398E-03
            1730            2342     74.5816E-03     78.3227E-03
            1748            2342     74.5816E-03     78.3227E-03
            1729            2342     74.5816E-03     78.3227E-03
            1747            2342     74.5816E-03     78.3227E-03
            1730            2343     82.8996E-03     86.5175E-03
            1749            2343     82.8996E-03     86.5175E-03
            1731            2343     82.8996E-03     86.5175E-03
            1748            2343     82.8996E-03     86.5175E-03
            1732            2344     91.2814E-03     94.7274E-03
            1750            2344     91.2814E-03     94.7274E-03
            1749            2344     91.2814E-03     94.7274E-03
            1731            2344     91.2814E-03     94.7274E-03
            1733            2345     99.8891E-03     103.108E-03
            1751            2345     99.8891E-03     103.108E-03
            1732            2345     99.8891E-03     103.108E-03
            1750            2345     99.8891E-03     103.108E-03
            1752            2346     108.755E-03     111.744E-03
            1751            2346     108.755E-03     111.744E-03
            1734            2346     108.755E-03     111.744E-03
            1733            2346     108.755E-03     111.744E-03
            1752            2347     118.401E-03     121.131E-03
            1734            2347     118.401E-03     121.131E-03
            1753            2347     118.401E-03     121.131E-03
            1735            2347     118.401E-03     121.131E-03
            1753            2348     128.952E-03     131.611E-03
            1736            2348     128.952E-03     131.611E-03
            1754            2348     128.952E-03     131.611E-03
            1735            2348     128.952E-03     131.611E-03
            1737            2349     142.491E-03     145.241E-03
            1754            2349     142.491E-03     145.241E-03
            1755            2349     142.491E-03     145.241E-03
            1736            2349     142.491E-03     145.241E-03
            1756            2350     161.652E-03     163.432E-03
            1737            2350     161.652E-03     163.432E-03
            1738            2350     161.652E-03     163.432E-03
            1755            2350     161.652E-03     163.432E-03
            2271            2785     1.30253E-15     1.45619E-15
            2290            2785     1.30253E-15     1.45619E-15
            2289            2785     1.30253E-15     1.45619E-15
            2272            2785     1.30253E-15     1.45619E-15
            2291            2786     1.16895E-15     1.06707E-15
            2290            2786     1.16895E-15     1.06707E-15
            2272            2786     1.16895E-15     1.06707E-15
            2273            2786     1.16895E-15     1.06707E-15
            2273            2787     1.56874E-15     1.35780E-15
            2291            2787     1.56874E-15     1.35780E-15
            2292            2787     1.56874E-15     1.35780E-15
            2274            2787     1.56874E-15     1.35780E-15
            2275            2788     1.93367E-15     1.32667E-15
            2292            2788     1.93367E-15     1.32667E-15
            2274            2788     1.93367E-15     1.32667E-15
            2293            2788     1.93367E-15     1.32667E-15
            2275            2789     1.83989E-15     1.22259E-15
            2294            2789     1.83989E-15     1.22259E-15
            2293            2789     1.83989E-15     1.22259E-15
            2276            2789     1.83989E-15     1.22259E-15
            2294            2790     1.41020E-15     1.11488E-15
            2295            2790     1.41020E-15     1.11488E-15
            2276            2790     1.41020E-15     1.11488E-15
            2277            2790     1.41020E-15     1.11488E-15
            2295            2791     1.37707E-15     845.775E-18
            2278            2791     1.37707E-15     845.775E-18
            2296            2791     1.37707E-15     845.775E-18
            2277            2791     1.37707E-15     845.775E-18
            2297            2792     1.29583E-15     1.02426E-15
            2296            2792     1.29583E-15     1.02426E-15
            2278            2792     1.29583E-15     1.02426E-15
            2279            2792     1.29583E-15     1.02426E-15
            2279            2793     1.44140E-15     1.67261E-15
            2298            2793     1.44140E-15     1.67261E-15
            2280            2793     1.44140E-15     1.67261E-15
            2297            2793     1.44140E-15     1.67261E-15
            2280            2794     1.76053E-15     1.74627E-15
            2281            2794     1.76053E-15     1.74627E-15
            2298            2794     1.76053E-15     1.74627E-15
            2299            2794     1.76053E-15     1.74627E-15
            2299            2795     1.02277E-15     1.17012E-15
            2282            2795     1.02277E-15     1.17012E-15
            2281            2795     1.02277E-15     1.17012E-15
            2300            2795     1.02277E-15     1.17012E-15
            2282            2796     982.446E-18     1.16316E-15
            2283            2796     982.446E-18     1.16316E-15
            2300            2796     982.446E-18     1.16316E-15
            2301            2796     982.446E-18     1.16316E-15
            2283            2797     1.47037E-15     1.22085E-15
            2301            2797     1.47037E-15     1.22085E-15
            2302            2797     1.47037E-15     1.22085E-15
            2284            2797     1.47037E-15     1.22085E-15
            2284            2798     1.26999E-15     784.389E-18
            2285            2798     1.26999E-15     784.389E-18
            2303            2798     1.26999E-15     784.389E-18
            2302            2798     1.26999E-15     784.389E-18
            2285            2799     1.21176E-15     832.468E-18
            2303            2799     1.21176E-15     832.468E-18
            2304            2799     1.21176E-15     832.468E-18
            2286            2799     1.21176E-15     832.468E-18
            2287            2800     1.19550E-15     1.21391E-15
            2305            2800     1.19550E-15     1.21391E-15
            2286            2800     1.19550E-15     1.21391E-15
            2304            2800     1.19550E-15     1.21391E-15
            2288            2801     1.04546E-15     1.22230E-15
            2305            2801     1.04546E-15     1.22230E-15
            2287            2801     1.04546E-15     1.22230E-15
            2306            2801     1.04546E-15     1.22230E-15
            2290            2802     1.46077E-15     1.43040E-15
            2308            2802     1.46077E-15     1.43040E-15
            2289            2802     1.46077E-15     1.43040E-15
            2307            2802     1.46077E-15     1.43040E-15
            2309            2803     1.54886E-15     1.06096E-15
            2291            2803     1.54886E-15     1.06096E-15
            2308            2803     1.54886E-15     1.06096E-15
            2290            2803     1.54886E-15     1.06096E-15
            2309            2804     1.58653E-15     1.25125E-15
            2292            2804     1.58653E-15     1.25125E-15
            2291            2804     1.58653E-15     1.25125E-15
            2310            2804     1.58653E-15     1.25125E-15
            2310            2805     1.63672E-15     1.58690E-15
            2293            2805     1.63672E-15     1.58690E-15
            2311            2805     1.63672E-15     1.58690E-15
            2292            2805     1.63672E-15     1.58690E-15
            2311            2806     1.55411E-15     1.49751E-15
            2312            2806     1.55411E-15     1.49751E-15
            2294            2806     1.55411E-15     1.49751E-15
            2293            2806     1.55411E-15     1.49751E-15
            2313            2807     884.539E-18     1.17832E-15
            2294            2807     884.539E-18     1.17832E-15
            2312            2807     884.539E-18     1.17832E-15
            2295            2807     884.539E-18     1.17832E-15
            2296            2808     718.458E-18     717.803E-18
            2313            2808     718.458E-18     717.803E-18
            2295            2808     718.458E-18     717.803E-18
            2314            2808     718.458E-18     717.803E-18
            2296            2809     1.06165E-15     712.465E-18
            2315            2809     1.06165E-15     712.465E-18
            2314            2809     1.06165E-15     712.465E-18
            2297            2809     1.06165E-15     712.465E-18
            2298            2810     1.21664E-15     1.01614E-15
            2315            2810     1.21664E-15     1.01614E-15
            2297            2810     1.21664E-15     1.01614E-15
            2316            2810     1.21664E-15     1.01614E-15
            2298            2811     1.05084E-15     1.20476E-15
            2299            2811     1.05084E-15     1.20476E-15
            2317            2811     1.05084E-15     1.20476E-15
            2316            2811     1.05084E-15     1.20476E-15
            2318            2812     948.941E-18     1.31581E-15
            2317            2812     948.941E-18     1.31581E-15
            2300            2812     948.941E-18     1.31581E-15
            2299            2812     948.941E-18     1.31581E-15
            2319            2813     1.35723E-15     1.42576E-15
            2301            2813     1.35723E-15     1.42576E-15
            2318            2813     1.35723E-15     1.42576E-15
            2300            2813     1.35723E-15     1.42576E-15
            2319            2814     1.76022E-15     1.60399E-15
            2320            2814     1.76022E-15     1.60399E-15
            2301            2814     1.76022E-15     1.60399E-15
            2302            2814     1.76022E-15     1.60399E-15
            2302            2815     1.59942E-15     1.24055E-15
            2321            2815     1.59942E-15     1.24055E-15
            2320            2815     1.59942E-15     1.24055E-15
            2303            2815     1.59942E-15     1.24055E-15
            2303            2816     1.19871E-15     896.415E-18
            2322            2816     1.19871E-15     896.415E-18
            2321            2816     1.19871E-15     896.415E-18
            2304            2816     1.19871E-15     896.415E-18
            2322            2817     1.17266E-15     1.40256E-15
            2305            2817     1.17266E-15     1.40256E-15
            2323            2817     1.17266E-15     1.40256E-15
            2304            2817     1.17266E-15     1.40256E-15
            2323            2818     855.823E-18     1.24797E-15
            2305            2818     855.823E-18     1.24797E-15
            2324            2818     855.823E-18     1.24797E-15
            2306            2818     855.823E-18     1.24797E-15
            2326            2819     1.86144E-15     1.32402E-15
            2307            2819     1.86144E-15     1.32402E-15
            2325            2819     1.86144E-15     1.32402E-15
            2308            2819     1.86144E-15     1.32402E-15
            2327            2820     1.87142E-15     1.15493E-15
            2309            2820     1.87142E-15     1.15493E-15
            2326            2820     1.87142E-15     1.15493E-15
            2308            2820     1.87142E-15     1.15493E-15
            2328            2821     1.84915E-15     1.10787E-15
            2309            2821     1.84915E-15     1.10787E-15
            2327            2821     1.84915E-15     1.10787E-15
            2310            2821     1.84915E-15     1.10787E-15
            2328            2822     1.87025E-15     1.44931E-15
            2311            2822     1.87025E-15     1.44931E-15
            2310            2822     1.87025E-15     1.44931E-15
            2329            2822     1.87025E-15     1.44931E-15
            2311            2823     1.52944E-15     1.01010E-15
            2330            2823     1.52944E-15     1.01010E-15
            2312            2823     1.52944E-15     1.01010E-15
            2329            2823     1.52944E-15     1.01010E-15
            2330            2824     878.244E-18     832.930E-18
            2312            2824     878.244E-18     832.930E-18
            2331            2824     878.244E-18     832.930E-18
            2313            2824     878.244E-18     832.930E-18
            2313            2825     815.675E-18     750.241E-18
            2314            2825     815.675E-18     750.241E-18
            2332            2825     815.675E-18     750.241E-18
            2331            2825     815.675E-18     750.241E-18
            2314            2826     994.286E-18     962.779E-18
            2315            2826     994.286E-18     962.779E-18
            2332            2826     994.286E-18     962.779E-18
            2333            2826     994.286E-18     962.779E-18
            2334            2827     755.419E-18     1.17686E-15
            2316            2827     755.419E-18     1.17686E-15
            2315            2827     755.419E-18     1.17686E-15
            2333            2827     755.419E-18     1.17686E-15
            2316            2828     930.403E-18     1.11503E-15
            2335            2828     930.403E-18     1.11503E-15
            2317            2828     930.403E-18     1.11503E-15
            2334            2828     930.403E-18     1.11503E-15
            2335            2829     1.29262E-15     1.50885E-15
            2317            2829     1.29262E-15     1.50885E-15
            2318            2829     1.29262E-15     1.50885E-15
            2336            2829     1.29262E-15     1.50885E-15
            2319            2830     1.47985E-15     1.49261E-15
            2336            2830     1.47985E-15     1.49261E-15
            2318            2830     1.47985E-15     1.49261E-15
            2337            2830     1.47985E-15     1.49261E-15
            2338            2831     1.54414E-15     1.37255E-15
            2320            2831     1.54414E-15     1.37255E-15
            2319            2831     1.54414E-15     1.37255E-15
            2337            2831     1.54414E-15     1.37255E-15
            2339            2832     1.45366E-15     1.37919E-15
            2320            2832     1.45366E-15     1.37919E-15
            2321            2832     1.45366E-15     1.37919E-15
            2338            2832     1.45366E-15     1.37919E-15
            2322            2833     1.19829E-15     1.29951E-15
            2339            2833     1.19829E-15     1.29951E-15
            2321            2833     1.19829E-15     1.29951E-15
            2340            2833     1.19829E-15     1.29951E-15
            2340            2834     1.05829E-15     1.30614E-15
            2323            2834     1.05829E-15     1.30614E-15
            2322            2834     1.05829E-15     1.30614E-15
            2341            2834     1.05829E-15     1.30614E-15
            2341            2835     1.15978E-15     1.18239E-15
            2342            2835     1.15978E-15     1.18239E-15
            2323            2835     1.15978E-15     1.18239E-15
            2324            2835     1.15978E-15     1.18239E-15
            3393            3784     8.81519E-03     13.0049E-03
            3394            3784     8.81519E-03     13.0049E-03
            3411            3784     8.81519E-03     13.0049E-03
            3412            3784     8.81519E-03     13.0049E-03
            3412            3785     18.1187E-03     22.6874E-03
            3395            3785     18.1187E-03     22.6874E-03
            3394            3785     18.1187E-03     22.6874E-03
            3413            3785     18.1187E-03     22.6874E-03
            3395            3786     27.7378E-03     32.7980E-03
            3396            3786     27.7378E-03     32.7980E-03
            3413            3786     27.7378E-03     32.7980E-03
            3414            3786     27.7378E-03     32.7980E-03
            3397            3787     37.5475E-03     42.8381E-03
            3396            3787     37.5475E-03     42.8381E-03
            3415            3787     37.5475E-03     42.8381E-03
            3414            3787     37.5475E-03     42.8381E-03
            3397            3788     47.4643E-03     52.7719E-03
            3398            3788     47.4643E-03     52.7719E-03
            3416            3788     47.4643E-03     52.7719E-03
            3415            3788     47.4643E-03     52.7719E-03
            3417            3789     57.4056E-03     62.7140E-03
            3416            3789     57.4056E-03     62.7140E-03
            3398            3789     57.4056E-03     62.7140E-03
            3399            3789     57.4056E-03     62.7140E-03
            3399            3790     67.3339E-03     72.6293E-03
            3417            3790     67.3339E-03     72.6293E-03
            3418            3790     67.3339E-03     72.6293E-03
            3400            3790     67.3339E-03     72.6293E-03
            3401            3791     77.2450E-03     82.5348E-03
            3400            3791     77.2450E-03     82.5348E-03
            3419            3791     77.2450E-03     82.5348E-03
            3418            3791     77.2450E-03     82.5348E-03
            3401            3792     87.1158E-03     92.3946E-03
            3419            3792     87.1158E-03     92.3946E-03
            3420            3792     87.1158E-03     92.3946E-03
            3402            3792     87.1158E-03     92.3946E-03
            3421            3793     96.9422E-03     102.222E-03
            3403            3793     96.9422E-03     102.222E-03
            3420            3793     96.9422E-03     102.222E-03
            3402            3793     96.9422E-03     102.222E-03
            3403            3794     106.698E-03     111.956E-03
            3404            3794     106.698E-03     111.956E-03
            3422            3794     106.698E-03     111.956E-03
            3421            3794     106.698E-03     111.956E-03
            3404            3795     116.419E-03     121.645E-03
            3422            3795     116.419E-03     121.645E-03
            3405            3795     116.419E-03     121.645E-03
            3423            3795     116.419E-03     121.645E-03
            3424            3796     126.051E-03     131.209E-03
            3423            3796     126.051E-03     131.209E-03
            3406            3796     126.051E-03     131.209E-03
            3405            3796     126.051E-03     131.209E-03
            3425            3797     135.953E-03     140.947E-03
            3407            3797     135.953E-03     140.947E-03
            3424            3797     135.953E-03     140.947E-03
            3406            3797     135.953E-03     140.947E-03
            3408            3798     146.014E-03     150.974E-03
            3426            3798     146.014E-03     150.974E-03
            3407            3798     146.014E-03     150.974E-03
            3425            3798     146.014E-03     150.974E-03
            3408            3799     158.489E-03     163.319E-03
            3426            3799     158.489E-03     163.319E-03
            3409            3799     158.489E-03     163.319E-03
            3427            3799     158.489E-03     163.319E-03
            3409            3800     176.998E-03     180.342E-03
            3427            3800     176.998E-03     180.342E-03
            3410            3800     176.998E-03     180.342E-03
            3428            3800     176.998E-03     180.342E-03
            3411            3801     9.69072E-03     13.4535E-03
            3430            3801     9.69072E-03     13.4535E-03
            3429            3801     9.69072E-03     13.4535E-03
            3412            3801     9.69072E-03     13.4535E-03
            3430            3802     18.8591E-03     22.5203E-03
            3412            3802     18.8591E-03     22.5203E-03
            3413            3802     18.8591E-03     22.5203E-03
            3431            3802     18.8591E-03     22.5203E-03
            3413            3803     28.5636E-03     32.4296E-03
            3431            3803     28.5636E-03     32.4296E-03
            3414            3803     28.5636E-03     32.4296E-03
            3432            3803     28.5636E-03     32.4296E-03
            3414            3804     38.4637E-03     42.3083E-03
            3415            3804     38.4637E-03     42.3083E-03
            3432            3804     38.4637E-03     42.3083E-03
            3433            3804     38.4637E-03     42.3083E-03
            3434            3805     48.4197E-03     52.2683E-03
            3415            3805     48.4197E-03     52.2683E-03
            3433            3805     48.4197E-03     52.2683E-03
            3416            3805     48.4197E-03     52.2683E-03
            3417            3806     58.3949E-03     62.2741E-03
            3435            3806     58.3949E-03     62.2741E-03
            3416            3806     58.3949E-03     62.2741E-03
            3434            3806     58.3949E-03     62.2741E-03
            3418            3807     68.3885E-03     72.2883E-03
            3435            3807     68.3885E-03     72.2883E-03
            3436            3807     68.3885E-03     72.2883E-03
            3417            3807     68.3885E-03     72.2883E-03
            3418            3808     78.4045E-03     82.3098E-03
            3436            3808     78.4045E-03     82.3098E-03
            3437            3808     78.4045E-03     82.3098E-03
            3419            3808     78.4045E-03     82.3098E-03
            3420            3809     88.4377E-03     92.3479E-03
            3419            3809     88.4377E-03     92.3479E-03
            3437            3809     88.4377E-03     92.3479E-03
            3438            3809     88.4377E-03     92.3479E-03
            3421            3810     98.4894E-03     102.395E-03
            3438            3810     98.4894E-03     102.395E-03
            3439            3810     98.4894E-03     102.395E-03
            3420            3810     98.4894E-03     102.395E-03
            3439            3811     108.567E-03     112.479E-03
            3421            3811     108.567E-03     112.479E-03
            3440            3811     108.567E-03     112.479E-03
            3422            3811     108.567E-03     112.479E-03
            3422            3812     118.678E-03     122.622E-03
            3441            3812     118.678E-03     122.622E-03
            3440            3812     118.678E-03     122.622E-03
            3423            3812     118.678E-03     122.622E-03
            3424            3813     128.864E-03     132.888E-03
            3423            3813     128.864E-03     132.888E-03
            3442            3813     128.864E-03     132.888E-03
            3441            3813     128.864E-03     132.888E-03
            3442            3814     139.319E-03     143.515E-03
            3443            3814     139.319E-03     143.515E-03
            3424            3814     139.319E-03     143.515E-03
            3425            3814     139.319E-03     143.515E-03
            3426            3815     150.253E-03     154.681E-03
            3444            3815     150.253E-03     154.681E-03
            3443            3815     150.253E-03     154.681E-03
            3425            3815     150.253E-03     154.681E-03
            3445            3816     163.983E-03     167.748E-03
            3426            3816     163.983E-03     167.748E-03
            3444            3816     163.983E-03     167.748E-03
            3427            3816     163.983E-03     167.748E-03
            3446            3817     177.810E-03     179.039E-03
            3428            3817     177.810E-03     179.039E-03
            3445            3817     177.810E-03     179.039E-03
            3427            3817     177.810E-03     179.039E-03
            3448            3818     13.7805E-03     15.6388E-03
            3429            3818     13.7805E-03     15.6388E-03
            3430            3818     13.7805E-03     15.6388E-03
            3447            3818     13.7805E-03     15.6388E-03
            3431            3819     21.1744E-03     24.2429E-03
            3430            3819     21.1744E-03     24.2429E-03
            3448            3819     21.1744E-03     24.2429E-03
            3449            3819     21.1744E-03     24.2429E-03
            3431            3820     30.4415E-03     33.1017E-03
            3449            3820     30.4415E-03     33.1017E-03
            3450            3820     30.4415E-03     33.1017E-03
            3432            3820     30.4415E-03     33.1017E-03
            3451            3821     40.1527E-03     42.5643E-03
            3450            3821     40.1527E-03     42.5643E-03
            3433            3821     40.1527E-03     42.5643E-03
            3432            3821     40.1527E-03     42.5643E-03
            3434            3822     49.9332E-03     52.3654E-03
            3452            3822     49.9332E-03     52.3654E-03
            3451            3822     49.9332E-03     52.3654E-03
            3433            3822     49.9332E-03     52.3654E-03
            3434            3823     59.7815E-03     62.2545E-03
            3435            3823     59.7815E-03     62.2545E-03
            3452            3823     59.7815E-03     62.2545E-03
            3453            3823     59.7815E-03     62.2545E-03
            3436            3824     69.7027E-03     72.2075E-03
            3435            3824     69.7027E-03     72.2075E-03
            3453            3824     69.7027E-03     72.2075E-03
            3454            3824     69.7027E-03     72.2075E-03
            3455            3825     79.6675E-03     82.1985E-03
            3437            3825     79.6675E-03     82.1985E-03
            3454            3825     79.6675E-03     82.1985E-03
            3436            3825     79.6675E-03     82.1985E-03
            3437            3826     89.6917E-03     92.2258E-03
            3456            3826     89.6917E-03     92.2258E-03
            3438            3826     89.6917E-03     92.2258E-03
            3455            3826     89.6917E-03     92.2258E-03
            3456            3827     99.7629E-03     102.309E-03
            3438            3827     99.7629E-03     102.309E-03
            3457            3827     99.7629E-03     102.309E-03
            3439            3827     99.7629E-03     102.309E-03
            3458            3828     109.914E-03     112.473E-03
            3439            3828     109.914E-03     112.473E-03
            3457            3828     109.914E-03     112.473E-03
            3440            3828     109.914E-03     112.473E-03
            3458            3829     120.123E-03     122.748E-03
            3459            3829     120.123E-03     122.748E-03
            3441            3829     120.123E-03     122.748E-03
            3440            3829     120.123E-03     122.748E-03
            3441            3830     130.541E-03     133.287E-03
            3459            3830     130.541E-03     133.287E-03
            3442            3830     130.541E-03     133.287E-03
            3460            3830     130.541E-03     133.287E-03
            3443            3831     140.977E-03     144.077E-03
            3442            3831     140.977E-03     144.077E-03
            3461            3831     140.977E-03     144.077E-03
            3460            3831     140.977E-03     144.077E-03
            3444            3832     152.538E-03     155.612E-03
            3443            3832     152.538E-03     155.612E-03
            3461            3832     152.538E-03     155.612E-03
            3462            3832     152.538E-03     155.612E-03
            3462            3833     163.924E-03     166.961E-03
            3445            3833     163.924E-03     166.961E-03
            3444            3833     163.924E-03     166.961E-03
            3463            3833     163.924E-03     166.961E-03
            3464            3834     172.362E-03     176.308E-03
            3463            3834     172.362E-03     176.308E-03
            3446            3834     172.362E-03     176.308E-03
            3445            3834     172.362E-03     176.308E-03
            3465            3835     18.5064E-03     20.5182E-03
            3466            3835     18.5064E-03     20.5182E-03
            3448            3835     18.5064E-03     20.5182E-03
            3447            3835     18.5064E-03     20.5182E-03
            3467            3836     24.6765E-03     26.8564E-03
            3466            3836     24.6765E-03     26.8564E-03
            3448            3836     24.6765E-03     26.8564E-03
            3449            3836     24.6765E-03     26.8564E-03
            3450            3837     33.3274E-03     34.6290E-03
            3467            3837     33.3274E-03     34.6290E-03
            3468            3837     33.3274E-03     34.6290E-03
            3449            3837     33.3274E-03     34.6290E-03
            3468            3838     42.5184E-03     43.6038E-03
            3469            3838     42.5184E-03     43.6038E-03
            3450            3838     42.5184E-03     43.6038E-03
            3451            3838     42.5184E-03     43.6038E-03
            3452            3839     51.9365E-03     53.0284E-03
            3469            3839     51.9365E-03     53.0284E-03
            3451            3839     51.9365E-03     53.0284E-03
            3470            3839     51.9365E-03     53.0284E-03
            3470            3840     61.5297E-03     62.6518E-03
            3453            3840     61.5297E-03     62.6518E-03
            3471            3840     61.5297E-03     62.6518E-03
            3452            3840     61.5297E-03     62.6518E-03
            3471            3841     71.2199E-03     72.3801E-03
            3453            3841     71.2199E-03     72.3801E-03
            3472            3841     71.2199E-03     72.3801E-03
            3454            3841     71.2199E-03     72.3801E-03
            3455            3842     80.9958E-03     82.1666E-03
            3472            3842     80.9958E-03     82.1666E-03
            3454            3842     80.9958E-03     82.1666E-03
            3473            3842     80.9958E-03     82.1666E-03
            3473            3843     90.8148E-03     92.0021E-03
            3455            3843     90.8148E-03     92.0021E-03
            3456            3843     90.8148E-03     92.0021E-03
            3474            3843     90.8148E-03     92.0021E-03
            3474            3844     100.695E-03     101.875E-03
            3456            3844     100.695E-03     101.875E-03
            3457            3844     100.695E-03     101.875E-03
            3475            3844     100.695E-03     101.875E-03
            3475            3845     110.601E-03     111.803E-03
            3476            3845     110.601E-03     111.803E-03
            3458            3845     110.601E-03     111.803E-03
            3457            3845     110.601E-03     111.803E-03
            3458            3846     120.608E-03     121.817E-03
            3476            3846     120.608E-03     121.817E-03
            3477            3846     120.608E-03     121.817E-03
            3459            3846     120.608E-03     121.817E-03
            3477            3847     130.605E-03     131.916E-03
            3459            3847     130.605E-03     131.916E-03
            3460            3847     130.605E-03     131.916E-03
            3478            3847     130.605E-03     131.916E-03
            3460            3848     140.829E-03     142.214E-03
            3478            3848     140.829E-03     142.214E-03
            3461            3848     140.829E-03     142.214E-03
            3479            3848     140.829E-03     142.214E-03
            3461            3849     150.777E-03     152.496E-03
            3480            3849     150.777E-03     152.496E-03
            3479            3849     150.777E-03     152.496E-03
            3462            3849     150.777E-03     152.496E-03
            3480            3850     159.907E-03     162.121E-03
            3462            3850     159.907E-03     162.121E-03
            3463            3850     159.907E-03     162.121E-03
            3481            3850     159.907E-03     162.121E-03
            3463            3851     167.016E-03     168.062E-03
            3481            3851     167.016E-03     168.062E-03
            3464            3851     167.016E-03     168.062E-03
            3482            3851     167.016E-03     168.062E-03
            3465            3852     23.1240E-03     25.6956E-03
            3466            3852     23.1240E-03     25.6956E-03
            3483            3852     23.1240E-03     25.6956E-03
            3484            3852     23.1240E-03     25.6956E-03
            3485            3853     29.2865E-03     29.8392E-03
            3466            3853     29.2865E-03     29.8392E-03
            3484            3853     29.2865E-03     29.8392E-03
            3467            3853     29.2865E-03     29.8392E-03
            3486            3854     36.9872E-03     36.9875E-03
            3468            3854     36.9872E-03     36.9875E-03
            3467            3854     36.9872E-03     36.9875E-03
            3485            3854     36.9872E-03     36.9875E-03
            3486            3855     45.4711E-03     45.3860E-03
            3469            3855     45.4711E-03     45.3860E-03
            3468            3855     45.4711E-03     45.3860E-03
            3487            3855     45.4711E-03     45.3860E-03
            3488            3856     54.4107E-03     54.2944E-03
            3469            3856     54.4107E-03     54.2944E-03
            3470            3856     54.4107E-03     54.2944E-03
            3487            3856     54.4107E-03     54.2944E-03
            3488            3857     63.6298E-03     63.5031E-03
            3471            3857     63.6298E-03     63.5031E-03
            3470            3857     63.6298E-03     63.5031E-03
            3489            3857     63.6298E-03     63.5031E-03
            3489            3858     72.9976E-03     72.8576E-03
            3472            3858     72.9976E-03     72.8576E-03
            3490            3858     72.9976E-03     72.8576E-03
            3471            3858     72.9976E-03     72.8576E-03
            3490            3859     82.4394E-03     82.2993E-03
            3491            3859     82.4394E-03     82.2993E-03
            3473            3859     82.4394E-03     82.2993E-03
            3472            3859     82.4394E-03     82.2993E-03
            3473            3860     91.9186E-03     91.7671E-03
            3491            3860     91.9186E-03     91.7671E-03
            3474            3860     91.9186E-03     91.7671E-03
            3492            3860     91.9186E-03     91.7671E-03
            3474            3861     101.371E-03     101.229E-03
            3492            3861     101.371E-03     101.229E-03
            3475            3861     101.371E-03     101.229E-03
            3493            3861     101.371E-03     101.229E-03
            3476            3862     110.808E-03     110.629E-03
            3494            3862     110.808E-03     110.629E-03
            3475            3862     110.808E-03     110.629E-03
            3493            3862     110.808E-03     110.629E-03
            3477            3863     120.140E-03     119.954E-03
            3476            3863     120.140E-03     119.954E-03
            3494            3863     120.140E-03     119.954E-03
            3495            3863     120.140E-03     119.954E-03
            3496            3864     129.368E-03     129.069E-03
            3478            3864     129.368E-03     129.069E-03
            3477            3864     129.368E-03     129.069E-03
            3495            3864     129.368E-03     129.069E-03
            3497            3865     138.351E-03     137.920E-03
            3496            3865     138.351E-03     137.920E-03
            3479            3865     138.351E-03     137.920E-03
            3478            3865     138.351E-03     137.920E-03
            3479            3866     146.457E-03     146.028E-03
            3498            3866     146.457E-03     146.028E-03
            3497            3866     146.457E-03     146.028E-03
            3480            3866     146.457E-03     146.028E-03
            3499            3867     153.570E-03     153.067E-03
            3480            3867     153.570E-03     153.067E-03
            3498            3867     153.570E-03     153.067E-03
            3481            3867     153.570E-03     153.067E-03
            3482            3868     158.740E-03     157.834E-03
            3499            3868     158.740E-03     157.834E-03
            3481            3868     158.740E-03     157.834E-03
            3500            3868     158.740E-03     157.834E-03
            3977            4243     14.7496E-03     16.7286E-03
            3959            4243     14.7496E-03     16.7286E-03
            3960            4243     14.7496E-03     16.7286E-03
            3978            4243     14.7496E-03     16.7286E-03
            3979            4244     22.8563E-03     23.9011E-03
            3978            4244     22.8563E-03     23.9011E-03
            3960            4244     22.8563E-03     23.9011E-03
            3961            4244     22.8563E-03     23.9011E-03
            3961            4245     31.3991E-03     32.3951E-03
            3980            4245     31.3991E-03     32.3951E-03
            3962            4245     31.3991E-03     32.3951E-03
            3979            4245     31.3991E-03     32.3951E-03
            3981            4246     40.3869E-03     41.3733E-03
            3980            4246     40.3869E-03     41.3733E-03
            3963            4246     40.3869E-03     41.3733E-03
            3962            4246     40.3869E-03     41.3733E-03
            3982            4247     49.6150E-03     50.5675E-03
            3963            4247     49.6150E-03     50.5675E-03
            3964            4247     49.6150E-03     50.5675E-03
            3981            4247     49.6150E-03     50.5675E-03
            3982            4248     58.9521E-03     59.8797E-03
            3983            4248     58.9521E-03     59.8797E-03
            3965            4248     58.9521E-03     59.8797E-03
            3964            4248     58.9521E-03     59.8797E-03
            3984            4249     68.3565E-03     69.2777E-03
            3966            4249     68.3565E-03     69.2777E-03
            3965            4249     68.3565E-03     69.2777E-03
            3983            4249     68.3565E-03     69.2777E-03
            3985            4250     77.7792E-03     78.6926E-03
            3966            4250     77.7792E-03     78.6926E-03
            3967            4250     77.7792E-03     78.6926E-03
            3984            4250     77.7792E-03     78.6926E-03
            3967            4251     87.2215E-03     88.1388E-03
            3985            4251     87.2215E-03     88.1388E-03
            3986            4251     87.2215E-03     88.1388E-03
            3968            4251     87.2215E-03     88.1388E-03
            3968            4252     96.6220E-03     97.5382E-03
            3986            4252     96.6220E-03     97.5382E-03
            3969            4252     96.6220E-03     97.5382E-03
            3987            4252     96.6220E-03     97.5382E-03
            3970            4253     106.019E-03     106.932E-03
            3987            4253     106.019E-03     106.932E-03
            3969            4253     106.019E-03     106.932E-03
            3988            4253     106.019E-03     106.932E-03
            3971            4254     115.287E-03     116.211E-03
            3970            4254     115.287E-03     116.211E-03
            3989            4254     115.287E-03     116.211E-03
            3988            4254     115.287E-03     116.211E-03
            3990            4255     124.558E-03     125.387E-03
            3971            4255     124.558E-03     125.387E-03
            3989            4255     124.558E-03     125.387E-03
            3972            4255     124.558E-03     125.387E-03
            3972            4256     133.542E-03     134.378E-03
            3990            4256     133.542E-03     134.378E-03
            3973            4256     133.542E-03     134.378E-03
            3991            4256     133.542E-03     134.378E-03
            3991            4257     142.259E-03     142.914E-03
            3973            4257     142.259E-03     142.914E-03
            3992            4257     142.259E-03     142.914E-03
            3974            4257     142.259E-03     142.914E-03
            3974            4258     150.164E-03     150.663E-03
            3993            4258     150.164E-03     150.663E-03
            3975            4258     150.164E-03     150.663E-03
            3992            4258     150.164E-03     150.663E-03
            3994            4259     157.133E-03     158.740E-03
            3976            4259     157.133E-03     158.740E-03
            3975            4259     157.133E-03     158.740E-03
            3993            4259     157.133E-03     158.740E-03
            3995            4260     19.2623E-03     21.3640E-03
            3996            4260     19.2623E-03     21.3640E-03
            3978            4260     19.2623E-03     21.3640E-03
            3977            4260     19.2623E-03     21.3640E-03
            3996            4261     26.2805E-03     26.8835E-03
            3997            4261     26.2805E-03     26.8835E-03
            3978            4261     26.2805E-03     26.8835E-03
            3979            4261     26.2805E-03     26.8835E-03
            3998            4262     34.7756E-03     35.1076E-03
            3979            4262     34.7756E-03     35.1076E-03
            3980            4262     34.7756E-03     35.1076E-03
            3997            4262     34.7756E-03     35.1076E-03
            3980            4263     43.9718E-03     44.2359E-03
            3998            4263     43.9718E-03     44.2359E-03
            3999            4263     43.9718E-03     44.2359E-03
            3981            4263     43.9718E-03     44.2359E-03
            4000            4264     53.4790E-03     53.7440E-03
            3982            4264     53.4790E-03     53.7440E-03
            3981            4264     53.4790E-03     53.7440E-03
            3999            4264     53.4790E-03     53.7440E-03
            3982            4265     63.1837E-03     63.4513E-03
            4000            4265     63.1837E-03     63.4513E-03
            3983            4265     63.1837E-03     63.4513E-03
            4001            4265     63.1837E-03     63.4513E-03
            4002            4266     72.9893E-03     73.2523E-03
            4001            4266     72.9893E-03     73.2523E-03
            3983            4266     72.9893E-03     73.2523E-03
            3984            4266     72.9893E-03     73.2523E-03
            4003            4267     82.8569E-03     83.1203E-03
            4002            4267     82.8569E-03     83.1203E-03
            3985            4267     82.8569E-03     83.1203E-03
            3984            4267     82.8569E-03     83.1203E-03
            4004            4268     92.7292E-03     92.9981E-03
            3985            4268     92.7292E-03     92.9981E-03
            3986            4268     92.7292E-03     92.9981E-03
            4003            4268     92.7292E-03     92.9981E-03
            3986            4269     102.622E-03     102.882E-03
            4005            4269     102.622E-03     102.882E-03
            4004            4269     102.622E-03     102.882E-03
            3987            4269     102.622E-03     102.882E-03
            4006            4270     112.434E-03     112.717E-03
            3988            4270     112.434E-03     112.717E-03
            3987            4270     112.434E-03     112.717E-03
            4005            4270     112.434E-03     112.717E-03
            4006            4271     122.277E-03     122.502E-03
            3988            4271     122.277E-03     122.502E-03
            3989            4271     122.277E-03     122.502E-03
            4007            4271     122.277E-03     122.502E-03
            3990            4272     131.906E-03     132.193E-03
            4008            4272     131.906E-03     132.193E-03
            3989            4272     131.906E-03     132.193E-03
            4007            4272     131.906E-03     132.193E-03
            4009            4273     141.634E-03     141.746E-03
            3991            4273     141.634E-03     141.746E-03
            4008            4273     141.634E-03     141.746E-03
            3990            4273     141.634E-03     141.746E-03
            4010            4274     150.823E-03     150.897E-03
            3991            4274     150.823E-03     150.897E-03
            3992            4274     150.823E-03     150.897E-03
            4009            4274     150.823E-03     150.897E-03
            4011            4275     158.814E-03     159.445E-03
            3992            4275     158.814E-03     159.445E-03
            4010            4275     158.814E-03     159.445E-03
            3993            4275     158.814E-03     159.445E-03
            4012            4276     165.716E-03     165.248E-03
            3993            4276     165.716E-03     165.248E-03
            3994            4276     165.716E-03     165.248E-03
            4011            4276     165.716E-03     165.248E-03
            4013            4277     14.5873E-03     16.9464E-03
            3996            4277     14.5873E-03     16.9464E-03
            3995            4277     14.5873E-03     16.9464E-03
            4014            4277     14.5873E-03     16.9464E-03
            4015            4278     22.0969E-03     24.5402E-03
            3997            4278     22.0969E-03     24.5402E-03
            4014            4278     22.0969E-03     24.5402E-03
            3996            4278     22.0969E-03     24.5402E-03
            4015            4279     31.6539E-03     33.3208E-03
            3997            4279     31.6539E-03     33.3208E-03
            3998            4279     31.6539E-03     33.3208E-03
            4016            4279     31.6539E-03     33.3208E-03
            4017            4280     41.3734E-03     43.0392E-03
            3998            4280     41.3734E-03     43.0392E-03
            3999            4280     41.3734E-03     43.0392E-03
            4016            4280     41.3734E-03     43.0392E-03
            4017            4281     51.2270E-03     52.9664E-03
            3999            4281     51.2270E-03     52.9664E-03
            4000            4281     51.2270E-03     52.9664E-03
            4018            4281     51.2270E-03     52.9664E-03
            4000            4282     61.2004E-03     62.9764E-03
            4019            4282     61.2004E-03     62.9764E-03
            4001            4282     61.2004E-03     62.9764E-03
            4018            4282     61.2004E-03     62.9764E-03
            4020            4283     71.2311E-03     73.0354E-03
            4002            4283     71.2311E-03     73.0354E-03
            4001            4283     71.2311E-03     73.0354E-03
            4019            4283     71.2311E-03     73.0354E-03
            4003            4284     81.3091E-03     83.1215E-03
            4020            4284     81.3091E-03     83.1215E-03
            4002            4284     81.3091E-03     83.1215E-03
            4021            4284     81.3091E-03     83.1215E-03
            4022            4285     91.4228E-03     93.2342E-03
            4021            4285     91.4228E-03     93.2342E-03
            4003            4285     91.4228E-03     93.2342E-03
            4004            4285     91.4228E-03     93.2342E-03
            4023            4286     101.556E-03     103.372E-03
            4005            4286     101.556E-03     103.372E-03
            4004            4286     101.556E-03     103.372E-03
            4022            4286     101.556E-03     103.372E-03
            4024            4287     111.742E-03     113.545E-03
            4023            4287     111.742E-03     113.545E-03
            4006            4287     111.742E-03     113.545E-03
            4005            4287     111.742E-03     113.545E-03
            4025            4288     121.944E-03     123.781E-03
            4006            4288     121.944E-03     123.781E-03
            4007            4288     121.944E-03     123.781E-03
            4024            4288     121.944E-03     123.781E-03
            4026            4289     132.293E-03     134.137E-03
            4025            4289     132.293E-03     134.137E-03
            4008            4289     132.293E-03     134.137E-03
            4007            4289     132.293E-03     134.137E-03
            4008            4290     142.622E-03     144.659E-03
            4009            4290     142.622E-03     144.659E-03
            4026            4290     142.622E-03     144.659E-03
            4027            4290     142.622E-03     144.659E-03
            4028            4291     153.538E-03     155.648E-03
            4027            4291     153.538E-03     155.648E-03
            4010            4291     153.538E-03     155.648E-03
            4009            4291     153.538E-03     155.648E-03
            4029            4292     164.751E-03     166.688E-03
            4011            4292     164.751E-03     166.688E-03
            4028            4292     164.751E-03     166.688E-03
            4010            4292     164.751E-03     166.688E-03
            4011            4293     172.609E-03     174.688E-03
            4030            4293     172.609E-03     174.688E-03
            4012            4293     172.609E-03     174.688E-03
            4029            4293     172.609E-03     174.688E-03
            4032            4294     10.3339E-03     13.4993E-03
            4013            4294     10.3339E-03     13.4993E-03
            4014            4294     10.3339E-03     13.4993E-03
            4031            4294     10.3339E-03     13.4993E-03
            4033            4295     19.4700E-03     23.0169E-03
            4032            4295     19.4700E-03     23.0169E-03
            4015            4295     19.4700E-03     23.0169E-03
            4014            4295     19.4700E-03     23.0169E-03
            4033            4296     29.4173E-03     32.6992E-03
            4034            4296     29.4173E-03     32.6992E-03
            4016            4296     29.4173E-03     32.6992E-03
            4015            4296     29.4173E-03     32.6992E-03
            4017            4297     39.4734E-03     42.7332E-03
            4034            4297     39.4734E-03     42.7332E-03
            4035            4297     39.4734E-03     42.7332E-03
            4016            4297     39.4734E-03     42.7332E-03
            4035            4298     49.5640E-03     52.8805E-03
            4018            4298     49.5640E-03     52.8805E-03
            4036            4298     49.5640E-03     52.8805E-03
            4017            4298     49.5640E-03     52.8805E-03
            4019            4299     59.6825E-03     63.0357E-03
            4037            4299     59.6825E-03     63.0357E-03
            4036            4299     59.6825E-03     63.0357E-03
            4018            4299     59.6825E-03     63.0357E-03
            4038            4300     69.8350E-03     73.2096E-03
            4019            4300     69.8350E-03     73.2096E-03
            4020            4300     69.8350E-03     73.2096E-03
            4037            4300     69.8350E-03     73.2096E-03
            4021            4301     80.0063E-03     83.3818E-03
            4039            4301     80.0063E-03     83.3818E-03
            4020            4301     80.0063E-03     83.3818E-03
            4038            4301     80.0063E-03     83.3818E-03
            4022            4302     90.2011E-03     93.5778E-03
            4021            4302     90.2011E-03     93.5778E-03
            4039            4302     90.2011E-03     93.5778E-03
            4040            4302     90.2011E-03     93.5778E-03
            4022            4303     100.407E-03     103.781E-03
            4040            4303     100.407E-03     103.781E-03
            4041            4303     100.407E-03     103.781E-03
            4023            4303     100.407E-03     103.781E-03
            4042            4304     110.662E-03     114.027E-03
            4024            4304     110.662E-03     114.027E-03
            4023            4304     110.662E-03     114.027E-03
            4041            4304     110.662E-03     114.027E-03
            4042            4305     120.923E-03     124.319E-03
            4025            4305     120.923E-03     124.319E-03
            4043            4305     120.923E-03     124.319E-03
            4024            4305     120.923E-03     124.319E-03
            4025            4306     131.312E-03     134.704E-03
            4026            4306     131.312E-03     134.704E-03
            4043            4306     131.312E-03     134.704E-03
            4044            4306     131.312E-03     134.704E-03
            4026            4307     141.726E-03     145.339E-03
            4044            4307     141.726E-03     145.339E-03
            4027            4307     141.726E-03     145.339E-03
            4045            4307     141.726E-03     145.339E-03
            4028            4308     152.607E-03     156.389E-03
            4027            4308     152.607E-03     156.389E-03
            4046            4308     152.607E-03     156.389E-03
            4045            4308     152.607E-03     156.389E-03
            4046            4309     165.598E-03     168.783E-03
            4029            4309     165.598E-03     168.783E-03
            4028            4309     165.598E-03     168.783E-03
            4047            4309     165.598E-03     168.783E-03
            4029            4310     177.328E-03     179.166E-03
            4030            4310     177.328E-03     179.166E-03
            4048            4310     177.328E-03     179.166E-03
            4047            4310     177.328E-03     179.166E-03
            4031            4311     8.95533E-03     13.0782E-03
            4049            4311     8.95533E-03     13.0782E-03
            4032            4311     8.95533E-03     13.0782E-03
            4050            4311     8.95533E-03     13.0782E-03
            4032            4312     18.5215E-03     22.9257E-03
            4051            4312     18.5215E-03     22.9257E-03
            4050            4312     18.5215E-03     22.9257E-03
            4033            4312     18.5215E-03     22.9257E-03
            4033            4313     28.3031E-03     33.2471E-03
            4051            4313     28.3031E-03     33.2471E-03
            4052            4313     28.3031E-03     33.2471E-03
            4034            4313     28.3031E-03     33.2471E-03
            4035            4314     38.4013E-03     43.3435E-03
            4052            4314     38.4013E-03     43.3435E-03
            4053            4314     38.4013E-03     43.3435E-03
            4034            4314     38.4013E-03     43.3435E-03
            4053            4315     48.5338E-03     53.4796E-03
            4035            4315     48.5338E-03     53.4796E-03
            4054            4315     48.5338E-03     53.4796E-03
            4036            4315     48.5338E-03     53.4796E-03
            4037            4316     58.6736E-03     63.6232E-03
            4055            4316     58.6736E-03     63.6232E-03
            4036            4316     58.6736E-03     63.6232E-03
            4054            4316     58.6736E-03     63.6232E-03
            4056            4317     68.8168E-03     73.7526E-03
            4055            4317     68.8168E-03     73.7526E-03
            4038            4317     68.8168E-03     73.7526E-03
            4037            4317     68.8168E-03     73.7526E-03
            4038            4318     78.9510E-03     83.8902E-03
            4056            4318     78.9510E-03     83.8902E-03
            4057            4318     78.9510E-03     83.8902E-03
            4039            4318     78.9510E-03     83.8902E-03
            4058            4319     89.0550E-03     93.9933E-03
            4040            4319     89.0550E-03     93.9933E-03
            4057            4319     89.0550E-03     93.9933E-03
            4039            4319     89.0550E-03     93.9933E-03
            4041            4320     99.1547E-03     104.090E-03
            4059            4320     99.1547E-03     104.090E-03
            4040            4320     99.1547E-03     104.090E-03
            4058            4320     99.1547E-03     104.090E-03
            4042            4321     109.167E-03     114.116E-03
            4059            4321     109.167E-03     114.116E-03
            4041            4321     109.167E-03     114.116E-03
            4060            4321     109.167E-03     114.116E-03
            4060            4322     119.202E-03     124.104E-03
            4061            4322     119.202E-03     124.104E-03
            4043            4322     119.202E-03     124.104E-03
            4042            4322     119.202E-03     124.104E-03
            4044            4323     129.025E-03     133.974E-03
            4061            4323     129.025E-03     133.974E-03
            4062            4323     129.025E-03     133.974E-03
            4043            4323     129.025E-03     133.974E-03
            4062            4324     139.062E-03     143.860E-03
            4045            4324     139.062E-03     143.860E-03
            4044            4324     139.062E-03     143.860E-03
            4063            4324     139.062E-03     143.860E-03
            4045            4325     148.955E-03     153.741E-03
            4046            4325     148.955E-03     153.741E-03
            4064            4325     148.955E-03     153.741E-03
            4063            4325     148.955E-03     153.741E-03
            4064            4326     160.219E-03     165.292E-03
            4047            4326     160.219E-03     165.292E-03
            4046            4326     160.219E-03     165.292E-03
            4065            4326     160.219E-03     165.292E-03
            4048            4327     176.598E-03     179.813E-03
            4047            4327     176.598E-03     179.813E-03
            4066            4327     176.598E-03     179.813E-03
            4065            4327     176.598E-03     179.813E-03
            5085            5225     508.991E-18     476.898E-18
            5086            5225     508.991E-18     476.898E-18
            5067            5225     508.991E-18     476.898E-18
            5068            5225     508.991E-18     476.898E-18
            5069            5226     294.981E-18     386.021E-18
            5086            5226     294.981E-18     386.021E-18
            5087            5226     294.981E-18     386.021E-18
            5068            5226     294.981E-18     386.021E-18
            5069            5227     168.699E-18     290.072E-18
            5070            5227     168.699E-18     290.072E-18
            5087            5227     168.699E-18     290.072E-18
            5088            5227     168.699E-18     290.072E-18
            5070            5228     379.230E-18     437.708E-18
            5089            5228     379.230E-18     437.708E-18
            5071            5228     379.230E-18     437.708E-18
            5088            5228     379.230E-18     437.708E-18
            5090            5229     555.411E-18     674.941E-18
            5089            5229     555.411E-18     674.941E-18
            5071            5229     555.411E-18     674.941E-18
            5072            5229     555.411E-18     674.941E-18
            5072            5230     519.486E-18     644.994E-18
            5090            5230     519.486E-18     644.994E-18
            5091            5230     519.486E-18     644.994E-18
            5073            5230     519.486E-18     644.994E-18
            5091            5231     331.179E-18     581.590E-18
            5092            5231     331.179E-18     581.590E-18
            5073            5231     331.179E-18     581.590E-18
            5074            5231     331.179E-18     581.590E-18
            5075            5232     419.294E-18     494.282E-18
            5093            5232     419.294E-18     494.282E-18
            5074            5232     419.294E-18     494.282E-18
            5092            5232     419.294E-18     494.282E-18
            5093            5233     680.624E-18     625.965E-18
            5076            5233     680.624E-18     625.965E-18
            5075            5233     680.624E-18     625.965E-18
            5094            5233     680.624E-18     625.965E-18
            5077            5234     782.179E-18     860.762E-18
            5095            5234     782.179E-18     860.762E-18
            5094            5234     782.179E-18     860.762E-18
            5076            5234     782.179E-18     860.762E-18
            5077            5235     873.910E-18     844.764E-18
            5096            5235     873.910E-18     844.764E-18
            5095            5235     873.910E-18     844.764E-18
            5078            5235     873.910E-18     844.764E-18
            5097            5236     1.01952E-15     797.886E-18
            5079            5236     1.01952E-15     797.886E-18
            5078            5236     1.01952E-15     797.886E-18
            5096            5236     1.01952E-15     797.886E-18
            5080            5237     943.672E-18     745.558E-18
            5079            5237     943.672E-18     745.558E-18
            5097            5237     943.672E-18     745.558E-18
            5098            5237     943.672E-18     745.558E-18
            5080            5238     825.506E-18     822.798E-18
            5099            5238     825.506E-18     822.798E-18
            5081            5238     825.506E-18     822.798E-18
            5098            5238     825.506E-18     822.798E-18
            5081            5239     675.247E-18     680.275E-18
            5100            5239     675.247E-18     680.275E-18
            5082            5239     675.247E-18     680.275E-18
            5099            5239     675.247E-18     680.275E-18
            5101            5240     689.886E-18     683.961E-18
            5083            5240     689.886E-18     683.961E-18
            5100            5240     689.886E-18     683.961E-18
            5082            5240     689.886E-18     683.961E-18
            5101            5241     636.177E-18     621.451E-18
            5102            5241     636.177E-18     621.451E-18
            5083            5241     636.177E-18     621.451E-18
            5084            5241     636.177E-18     621.451E-18
            5086            5242     520.617E-18     495.517E-18
            5103            5242     520.617E-18     495.517E-18
            5085            5242     520.617E-18     495.517E-18
            5104            5242     520.617E-18     495.517E-18
            5104            5243     438.561E-18     372.192E-18
            5105            5243     438.561E-18     372.192E-18
            5086            5243     438.561E-18     372.192E-18
            5087            5243     438.561E-18     372.192E-18
            5106            5244     287.224E-18     270.299E-18
            5087            5244     287.224E-18     270.299E-18
            5088            5244     287.224E-18     270.299E-18
            5105            5244     287.224E-18     270.299E-18
            5088            5245     549.549E-18     497.839E-18
            5089            5245     549.549E-18     497.839E-18
            5106            5245     549.549E-18     497.839E-18
            5107            5245     549.549E-18     497.839E-18
            5107            5246     613.051E-18     622.713E-18
            5089            5246     613.051E-18     622.713E-18
            5108            5246     613.051E-18     622.713E-18
            5090            5246     613.051E-18     622.713E-18
            5091            5247     437.030E-18     560.172E-18
            5108            5247     437.030E-18     560.172E-18
            5090            5247     437.030E-18     560.172E-18
            5109            5247     437.030E-18     560.172E-18
            5091            5248     418.920E-18     554.136E-18
            5092            5248     418.920E-18     554.136E-18
            5110            5248     418.920E-18     554.136E-18
            5109            5248     418.920E-18     554.136E-18
            5111            5249     571.890E-18     682.933E-18
            5110            5249     571.890E-18     682.933E-18
            5093            5249     571.890E-18     682.933E-18
            5092            5249     571.890E-18     682.933E-18
            5094            5250     658.588E-18     641.139E-18
            5093            5250     658.588E-18     641.139E-18
            5112            5250     658.588E-18     641.139E-18
            5111            5250     658.588E-18     641.139E-18
            5112            5251     931.263E-18     951.750E-18
            5113            5251     931.263E-18     951.750E-18
            5095            5251     931.263E-18     951.750E-18
            5094            5251     931.263E-18     951.750E-18
            5113            5252     872.670E-18     1.03091E-15
            5096            5252     872.670E-18     1.03091E-15
            5114            5252     872.670E-18     1.03091E-15
            5095            5252     872.670E-18     1.03091E-15
            5114            5253     691.959E-18     656.891E-18
            5096            5253     691.959E-18     656.891E-18
            5115            5253     691.959E-18     656.891E-18
            5097            5253     691.959E-18     656.891E-18
            5115            5254     812.263E-18     670.858E-18
            5116            5254     812.263E-18     670.858E-18
            5098            5254     812.263E-18     670.858E-18
            5097            5254     812.263E-18     670.858E-18
            5117            5255     960.753E-18     890.014E-18
            5116            5255     960.753E-18     890.014E-18
            5099            5255     960.753E-18     890.014E-18
            5098            5255     960.753E-18     890.014E-18
            5099            5256     821.775E-18     664.681E-18
            5100            5256     821.775E-18     664.681E-18
            5118            5256     821.775E-18     664.681E-18
            5117            5256     821.775E-18     664.681E-18
            5100            5257     655.625E-18     601.310E-18
            5118            5257     655.625E-18     601.310E-18
            5101            5257     655.625E-18     601.310E-18
            5119            5257     655.625E-18     601.310E-18
            5102            5258     675.234E-18     666.706E-18
            5119            5258     675.234E-18     666.706E-18
            5101            5258     675.234E-18     666.706E-18
            5120            5258     675.234E-18     666.706E-18
            5103            5259     548.165E-18     526.540E-18
            5121            5259     548.165E-18     526.540E-18
            5104            5259     548.165E-18     526.540E-18
            5122            5259     548.165E-18     526.540E-18
            5104            5260     442.191E-18     436.795E-18
            5123            5260     442.191E-18     436.795E-18
            5105            5260     442.191E-18     436.795E-18
            5122            5260     442.191E-18     436.795E-18
            5123            5261     413.898E-18     512.319E-18
            5105            5261     413.898E-18     512.319E-18
            5106            5261     413.898E-18     512.319E-18
            5124            5261     413.898E-18     512.319E-18
            5125            5262     647.625E-18     677.827E-18
            5107            5262     647.625E-18     677.827E-18
            5106            5262     647.625E-18     677.827E-18
            5124            5262     647.625E-18     677.827E-18
            5108            5263     757.354E-18     636.144E-18
            5126            5263     757.354E-18     636.144E-18
            5107            5263     757.354E-18     636.144E-18
            5125            5263     757.354E-18     636.144E-18
            5108            5264     651.427E-18     672.229E-18
            5109            5264     651.427E-18     672.229E-18
            5127            5264     651.427E-18     672.229E-18
            5126            5264     651.427E-18     672.229E-18
            5128            5265     566.501E-18     623.345E-18
            5127            5265     566.501E-18     623.345E-18
            5110            5265     566.501E-18     623.345E-18
            5109            5265     566.501E-18     623.345E-18
            5110            5266     561.808E-18     593.381E-18
            5129            5266     561.808E-18     593.381E-18
            5111            5266     561.808E-18     593.381E-18
            5128            5266     561.808E-18     593.381E-18
            5111            5267     679.310E-18     803.201E-18
            5112            5267     679.310E-18     803.201E-18
            5130            5267     679.310E-18     803.201E-18
            5129            5267     679.310E-18     803.201E-18
            5112            5268     1.01098E-15     1.13407E-15
            5113            5268     1.01098E-15     1.13407E-15
            5131            5268     1.01098E-15     1.13407E-15
            5130            5268     1.01098E-15     1.13407E-15
            5113            5269     841.558E-18     959.921E-18
            5131            5269     841.558E-18     959.921E-18
            5114            5269     841.558E-18     959.921E-18
            5132            5269     841.558E-18     959.921E-18
            5133            5270     620.998E-18     607.524E-18
            5115            5270     620.998E-18     607.524E-18
            5132            5270     620.998E-18     607.524E-18
            5114            5270     620.998E-18     607.524E-18
            5115            5271     872.830E-18     696.240E-18
            5134            5271     872.830E-18     696.240E-18
            5116            5271     872.830E-18     696.240E-18
            5133            5271     872.830E-18     696.240E-18
            5135            5272     1.25333E-15     1.01724E-15
            5117            5272     1.25333E-15     1.01724E-15
            5134            5272     1.25333E-15     1.01724E-15
            5116            5272     1.25333E-15     1.01724E-15
            5118            5273     1.07639E-15     739.406E-18
            5136            5273     1.07639E-15     739.406E-18
            5135            5273     1.07639E-15     739.406E-18
            5117            5273     1.07639E-15     739.406E-18
            5136            5274     797.704E-18     614.491E-18
            5118            5274     797.704E-18     614.491E-18
            5137            5274     797.704E-18     614.491E-18
            5119            5274     797.704E-18     614.491E-18
            5119            5275     820.833E-18     690.867E-18
            5120            5275     820.833E-18     690.867E-18
            5137            5275     820.833E-18     690.867E-18
            5138            5275     820.833E-18     690.867E-18
            5139            5276     611.817E-18     560.979E-18
            5121            5276     611.817E-18     560.979E-18
            5122            5276     611.817E-18     560.979E-18
            5140            5276     611.817E-18     560.979E-18
            5122            5277     441.093E-18     446.106E-18
            5123            5277     441.093E-18     446.106E-18
            5140            5277     441.093E-18     446.106E-18
            5141            5277     441.093E-18     446.106E-18
            5142            5278     579.455E-18     572.646E-18
            5141            5278     579.455E-18     572.646E-18
            5124            5278     579.455E-18     572.646E-18
            5123            5278     579.455E-18     572.646E-18
            5125            5279     699.415E-18     666.133E-18
            5124            5279     699.415E-18     666.133E-18
            5143            5279     699.415E-18     666.133E-18
            5142            5279     699.415E-18     666.133E-18
            5144            5280     559.892E-18     548.204E-18
            5143            5280     559.892E-18     548.204E-18
            5126            5280     559.892E-18     548.204E-18
            5125            5280     559.892E-18     548.204E-18
            5127            5281     680.734E-18     712.808E-18
            5126            5281     680.734E-18     712.808E-18
            5145            5281     680.734E-18     712.808E-18
            5144            5281     680.734E-18     712.808E-18
            5146            5282     690.929E-18     664.192E-18
            5128            5282     690.929E-18     664.192E-18
            5145            5282     690.929E-18     664.192E-18
            5127            5282     690.929E-18     664.192E-18
            5147            5283     480.904E-18     451.198E-18
            5128            5283     480.904E-18     451.198E-18
            5146            5283     480.904E-18     451.198E-18
            5129            5283     480.904E-18     451.198E-18
            5129            5284     594.954E-18     878.981E-18
            5130            5284     594.954E-18     878.981E-18
            5147            5284     594.954E-18     878.981E-18
            5148            5284     594.954E-18     878.981E-18
            5130            5285     743.184E-18     949.272E-18
            5149            5285     743.184E-18     949.272E-18
            5131            5285     743.184E-18     949.272E-18
            5148            5285     743.184E-18     949.272E-18
            5150            5286     762.234E-18     702.374E-18
            5149            5286     762.234E-18     702.374E-18
            5131            5286     762.234E-18     702.374E-18
            5132            5286     762.234E-18     702.374E-18
            5151            5287     682.068E-18     662.132E-18
            5132            5287     682.068E-18     662.132E-18
            5133            5287     682.068E-18     662.132E-18
            5150            5287     682.068E-18     662.132E-18
            5151            5288     779.791E-18     803.366E-18
            5152            5288     779.791E-18     803.366E-18
            5134            5288     779.791E-18     803.366E-18
            5133            5288     779.791E-18     803.366E-18
            5135            5289     1.05863E-15     1.14747E-15
            5152            5289     1.05863E-15     1.14747E-15
            5134            5289     1.05863E-15     1.14747E-15
            5153            5289     1.05863E-15     1.14747E-15
            5135            5290     1.01928E-15     945.952E-18
            5136            5290     1.01928E-15     945.952E-18
            5154            5290     1.01928E-15     945.952E-18
            5153            5290     1.01928E-15     945.952E-18
            5137            5291     871.975E-18     688.640E-18
            5155            5291     871.975E-18     688.640E-18
            5154            5291     871.975E-18     688.640E-18
            5136            5291     871.975E-18     688.640E-18
            5155            5292     695.455E-18     599.053E-18
            5156            5292     695.455E-18     599.053E-18
            5138            5292     695.455E-18     599.053E-18
            5137            5292     695.455E-18     599.053E-18
            5157            5293     600.123E-18     642.173E-18
            5140            5293     600.123E-18     642.173E-18
            5158            5293     600.123E-18     642.173E-18
            5139            5293     600.123E-18     642.173E-18
            5141            5294     402.755E-18     340.569E-18
            5159            5294     402.755E-18     340.569E-18
            5140            5294     402.755E-18     340.569E-18
            5158            5294     402.755E-18     340.569E-18
            5159            5295     495.666E-18     440.816E-18
            5142            5295     495.666E-18     440.816E-18
            5141            5295     495.666E-18     440.816E-18
            5160            5295     495.666E-18     440.816E-18
            5142            5296     710.559E-18     606.305E-18
            5161            5296     710.559E-18     606.305E-18
            5160            5296     710.559E-18     606.305E-18
            5143            5296     710.559E-18     606.305E-18
            5143            5297     709.056E-18     696.072E-18
            5162            5297     709.056E-18     696.072E-18
            5161            5297     709.056E-18     696.072E-18
            5144            5297     709.056E-18     696.072E-18
            5144            5298     667.150E-18     784.429E-18
            5145            5298     667.150E-18     784.429E-18
            5162            5298     667.150E-18     784.429E-18
            5163            5298     667.150E-18     784.429E-18
            5145            5299     634.915E-18     649.722E-18
            5164            5299     634.915E-18     649.722E-18
            5146            5299     634.915E-18     649.722E-18
            5163            5299     634.915E-18     649.722E-18
            5164            5300     620.701E-18     577.564E-18
            5146            5300     620.701E-18     577.564E-18
            5165            5300     620.701E-18     577.564E-18
            5147            5300     620.701E-18     577.564E-18
            5166            5301     643.661E-18     786.920E-18
            5147            5301     643.661E-18     786.920E-18
            5148            5301     643.661E-18     786.920E-18
            5165            5301     643.661E-18     786.920E-18
            5149            5302     600.187E-18     741.226E-18
            5148            5302     600.187E-18     741.226E-18
            5167            5302     600.187E-18     741.226E-18
            5166            5302     600.187E-18     741.226E-18
            5168            5303     595.837E-18     561.313E-18
            5149            5303     595.837E-18     561.313E-18
            5150            5303     595.837E-18     561.313E-18
            5167            5303     595.837E-18     561.313E-18
            5151            5304     733.523E-18     690.709E-18
            5168            5304     733.523E-18     690.709E-18
            5150            5304     733.523E-18     690.709E-18
            5169            5304     733.523E-18     690.709E-18
            5170            5305     1.01466E-15     1.00527E-15
            5152            5305     1.01466E-15     1.00527E-15
            5151            5305     1.01466E-15     1.00527E-15
            5169            5305     1.01466E-15     1.00527E-15
            5152            5306     989.507E-18     1.03389E-15
            5171            5306     989.507E-18     1.03389E-15
            5170            5306     989.507E-18     1.03389E-15
            5153            5306     989.507E-18     1.03389E-15
            5172            5307     920.303E-18     920.830E-18
            5171            5307     920.303E-18     920.830E-18
            5153            5307     920.303E-18     920.830E-18
            5154            5307     920.303E-18     920.830E-18
            5154            5308     1.02622E-15     871.878E-18
            5173            5308     1.02622E-15     871.878E-18
            5172            5308     1.02622E-15     871.878E-18
            5155            5308     1.02622E-15     871.878E-18
            5156            5309     783.036E-18     713.673E-18
            5174            5309     783.036E-18     713.673E-18
            5173            5309     783.036E-18     713.673E-18
            5155            5309     783.036E-18     713.673E-18
            5865            5862     9.12459E-03     11.3112E-03
            5866            5862     9.12459E-03     11.3112E-03
            5848            5862     9.12459E-03     11.3112E-03
            5847            5862     9.12459E-03     11.3112E-03
            5848            5863     16.2943E-03     18.6635E-03
            5867            5863     16.2943E-03     18.6635E-03
            5866            5863     16.2943E-03     18.6635E-03
            5849            5863     16.2943E-03     18.6635E-03
            5849            5864     23.8613E-03     26.5943E-03
            5868            5864     23.8613E-03     26.5943E-03
            5850            5864     23.8613E-03     26.5943E-03
            5867            5864     23.8613E-03     26.5943E-03
            5868            5865     31.6607E-03     34.6284E-03
            5851            5865     31.6607E-03     34.6284E-03
            5850            5865     31.6607E-03     34.6284E-03
            5869            5865     31.6607E-03     34.6284E-03
            5870            5866     39.5753E-03     42.6812E-03
            5852            5866     39.5753E-03     42.6812E-03
            5851            5866     39.5753E-03     42.6812E-03
            5869            5866     39.5753E-03     42.6812E-03
            5870            5867     47.5424E-03     50.7193E-03
            5852            5867     47.5424E-03     50.7193E-03
            5853            5867     47.5424E-03     50.7193E-03
            5871            5867     47.5424E-03     50.7193E-03
            5853            5868     55.5500E-03     58.7442E-03
            5872            5868     55.5500E-03     58.7442E-03
            5871            5868     55.5500E-03     58.7442E-03
            5854            5868     55.5500E-03     58.7442E-03
            5854            5869     63.5735E-03     66.7525E-03
            5872            5869     63.5735E-03     66.7525E-03
            5855            5869     63.5735E-03     66.7525E-03
            5873            5869     63.5735E-03     66.7525E-03
            5874            5870     71.6352E-03     74.7496E-03
            5855            5870     71.6352E-03     74.7496E-03
            5873            5870     71.6352E-03     74.7496E-03
            5856            5870     71.6352E-03     74.7496E-03
            5874            5871     79.7221E-03     82.7594E-03
            5875            5871     79.7221E-03     82.7594E-03
            5857            5871     79.7221E-03     82.7594E-03
            5856            5871     79.7221E-03     82.7594E-03
            5876            5872     87.9053E-03     90.7988E-03
            5875            5872     87.9053E-03     90.7988E-03
            5857            5872     87.9053E-03     90.7988E-03
            5858            5872     87.9053E-03     90.7988E-03
            5858            5873     96.1765E-03     98.9464E-03
            5877            5873     96.1765E-03     98.9464E-03
            5876            5873     96.1765E-03     98.9464E-03
            5859            5873     96.1765E-03     98.9464E-03
            5878            5874     104.718E-03     107.278E-03
            5860            5874     104.718E-03     107.278E-03
            5877            5874     104.718E-03     107.278E-03
            5859            5874     104.718E-03     107.278E-03
            5861            5875     113.527E-03     116.001E-03
            5878            5875     113.527E-03     116.001E-03
            5879            5875     113.527E-03     116.001E-03
            5860            5875     113.527E-03     116.001E-03
            5879            5876     123.132E-03     125.504E-03
            5880            5876     123.132E-03     125.504E-03
            5861            5876     123.132E-03     125.504E-03
            5862            5876     123.132E-03     125.504E-03
            5880            5877     133.573E-03     136.309E-03
            5862            5877     133.573E-03     136.309E-03
            5863            5877     133.573E-03     136.309E-03
            5881            5877     133.573E-03     136.309E-03
            5863            5878     148.235E-03     152.971E-03
            5881            5878     148.235E-03     152.971E-03
            5864            5878     148.235E-03     152.971E-03
            5882            5878     148.235E-03     152.971E-03
            5865            5879     9.08157E-03     12.0629E-03
            5883            5879     9.08157E-03     12.0629E-03
            5866            5879     9.08157E-03     12.0629E-03
            5884            5879     9.08157E-03     12.0629E-03
            5884            5880     15.4673E-03     18.2244E-03
            5866            5880     15.4673E-03     18.2244E-03
            5867            5880     15.4673E-03     18.2244E-03
            5885            5880     15.4673E-03     18.2244E-03
            5868            5881     22.4100E-03     25.6210E-03
            5867            5881     22.4100E-03     25.6210E-03
            5885            5881     22.4100E-03     25.6210E-03
            5886            5881     22.4100E-03     25.6210E-03
            5868            5882     29.6447E-03     33.1912E-03
            5886            5882     29.6447E-03     33.1912E-03
            5869            5882     29.6447E-03     33.1912E-03
            5887            5882     29.6447E-03     33.1912E-03
            5888            5883     36.9985E-03     40.7675E-03
            5869            5883     36.9985E-03     40.7675E-03
            5887            5883     36.9985E-03     40.7675E-03
            5870            5883     36.9985E-03     40.7675E-03
            5888            5884     44.4393E-03     48.3243E-03
            5870            5884     44.4393E-03     48.3243E-03
            5871            5884     44.4393E-03     48.3243E-03
            5889            5884     44.4393E-03     48.3243E-03
            5872            5885     51.9172E-03     55.8456E-03
            5889            5885     51.9172E-03     55.8456E-03
            5890            5885     51.9172E-03     55.8456E-03
            5871            5885     51.9172E-03     55.8456E-03
            5891            5886     59.4448E-03     63.3479E-03
            5873            5886     59.4448E-03     63.3479E-03
            5872            5886     59.4448E-03     63.3479E-03
            5890            5886     59.4448E-03     63.3479E-03
            5873            5887     67.0096E-03     70.8380E-03
            5874            5887     67.0096E-03     70.8380E-03
            5891            5887     67.0096E-03     70.8380E-03
            5892            5887     67.0096E-03     70.8380E-03
            5893            5888     74.6756E-03     78.3746E-03
            5874            5888     74.6756E-03     78.3746E-03
            5875            5888     74.6756E-03     78.3746E-03
            5892            5888     74.6756E-03     78.3746E-03
            5876            5889     82.4646E-03     85.9956E-03
            5875            5889     82.4646E-03     85.9956E-03
            5894            5889     82.4646E-03     85.9956E-03
            5893            5889     82.4646E-03     85.9956E-03
            5895            5890     90.5612E-03     93.8811E-03
            5876            5890     90.5612E-03     93.8811E-03
            5894            5890     90.5612E-03     93.8811E-03
            5877            5890     90.5612E-03     93.8811E-03
            5878            5891     99.0442E-03     102.157E-03
            5877            5891     99.0442E-03     102.157E-03
            5896            5891     99.0442E-03     102.157E-03
            5895            5891     99.0442E-03     102.157E-03
            5879            5892     108.464E-03     111.382E-03
            5897            5892     108.464E-03     111.382E-03
            5878            5892     108.464E-03     111.382E-03
            5896            5892     108.464E-03     111.382E-03
            5879            5893     119.038E-03     121.938E-03
            5898            5893     119.038E-03     121.938E-03
            5897            5893     119.038E-03     121.938E-03
            5880            5893     119.038E-03     121.938E-03
            5881            5894     132.977E-03     136.076E-03
            5899            5894     132.977E-03     136.076E-03
            5880            5894     132.977E-03     136.076E-03
            5898            5894     132.977E-03     136.076E-03
            5900            5895     153.374E-03     155.562E-03
            5899            5895     153.374E-03     155.562E-03
            5882            5895     153.374E-03     155.562E-03
            5881            5895     153.374E-03     155.562E-03
            5902            5896     6.94160E-03     10.5116E-03
            5883            5896     6.94160E-03     10.5116E-03
            5901            5896     6.94160E-03     10.5116E-03
            5884            5896     6.94160E-03     10.5116E-03
            5903            5897     14.3787E-03     17.6359E-03
            5884            5897     14.3787E-03     17.6359E-03
            5902            5897     14.3787E-03     17.6359E-03
            5885            5897     14.3787E-03     17.6359E-03
            5903            5898     22.1659E-03     25.2704E-03
            5885            5898     22.1659E-03     25.2704E-03
            5904            5898     22.1659E-03     25.2704E-03
            5886            5898     22.1659E-03     25.2704E-03
            5886            5899     29.8703E-03     33.1271E-03
            5904            5899     29.8703E-03     33.1271E-03
            5905            5899     29.8703E-03     33.1271E-03
            5887            5899     29.8703E-03     33.1271E-03
            5905            5900     37.6088E-03     40.9696E-03
            5888            5900     37.6088E-03     40.9696E-03
            5887            5900     37.6088E-03     40.9696E-03
            5906            5900     37.6088E-03     40.9696E-03
            5888            5901     45.3598E-03     48.8032E-03
            5906            5901     45.3598E-03     48.8032E-03
            5889            5901     45.3598E-03     48.8032E-03
            5907            5901     45.3598E-03     48.8032E-03
            5907            5902     53.1405E-03     56.6187E-03
            5890            5902     53.1405E-03     56.6187E-03
            5908            5902     53.1405E-03     56.6187E-03
            5889            5902     53.1405E-03     56.6187E-03
            5908            5903     60.9419E-03     64.4348E-03
            5890            5903     60.9419E-03     64.4348E-03
            5891            5903     60.9419E-03     64.4348E-03
            5909            5903     60.9419E-03     64.4348E-03
            5909            5904     68.8050E-03     72.2797E-03
            5892            5904     68.8050E-03     72.2797E-03
            5910            5904     68.8050E-03     72.2797E-03
            5891            5904     68.8050E-03     72.2797E-03
            5893            5905     76.7398E-03     80.1966E-03
            5910            5905     76.7398E-03     80.1966E-03
            5911            5905     76.7398E-03     80.1966E-03
            5892            5905     76.7398E-03     80.1966E-03
            5911            5906     84.8638E-03     88.2694E-03
            5893            5906     84.8638E-03     88.2694E-03
            5912            5906     84.8638E-03     88.2694E-03
            5894            5906     84.8638E-03     88.2694E-03
            5912            5907     93.2418E-03     96.6266E-03
            5913            5907     93.2418E-03     96.6266E-03
            5894            5907     93.2418E-03     96.6266E-03
            5895            5907     93.2418E-03     96.6266E-03
            5913            5908     102.179E-03     105.490E-03
            5896            5908     102.179E-03     105.490E-03
            5895            5908     102.179E-03     105.490E-03
            5914            5908     102.179E-03     105.490E-03
            5914            5909     111.967E-03     115.252E-03
            5915            5909     111.967E-03     115.252E-03
            5897            5909     111.967E-03     115.252E-03
            5896            5909     111.967E-03     115.252E-03
            5898            5910     123.295E-03     126.430E-03
            5897            5910     123.295E-03     126.430E-03
            5915            5910     123.295E-03     126.430E-03
            5916            5910     123.295E-03     126.430E-03
            5917            5911     138.325E-03     140.454E-03
            5916            5911     138.325E-03     140.454E-03
            5898            5911     138.325E-03     140.454E-03
            5899            5911     138.325E-03     140.454E-03
            5918            5912     153.915E-03     154.536E-03
            5917            5912     153.915E-03     154.536E-03
            5900            5912     153.915E-03     154.536E-03
            5899            5912     153.915E-03     154.536E-03
            5901            5913     7.34301E-03     10.0185E-03
            5919            5913     7.34301E-03     10.0185E-03
            5920            5913     7.34301E-03     10.0185E-03
            5902            5913     7.34301E-03     10.0185E-03
            5902            5914     14.7071E-03     17.8804E-03
            5903            5914     14.7071E-03     17.8804E-03
            5920            5914     14.7071E-03     17.8804E-03
            5921            5914     14.7071E-03     17.8804E-03
            5904            5915     22.6214E-03     25.6498E-03
            5903            5915     22.6214E-03     25.6498E-03
            5921            5915     22.6214E-03     25.6498E-03
            5922            5915     22.6214E-03     25.6498E-03
            5923            5916     30.5735E-03     33.5603E-03
            5922            5916     30.5735E-03     33.5603E-03
            5904            5916     30.5735E-03     33.5603E-03
            5905            5916     30.5735E-03     33.5603E-03
            5906            5917     38.5075E-03     41.5466E-03
            5905            5917     38.5075E-03     41.5466E-03
            5923            5917     38.5075E-03     41.5466E-03
            5924            5917     38.5075E-03     41.5466E-03
            5907            5918     46.4732E-03     49.5331E-03
            5906            5918     46.4732E-03     49.5331E-03
            5924            5918     46.4732E-03     49.5331E-03
            5925            5918     46.4732E-03     49.5331E-03
            5926            5919     54.4559E-03     57.5526E-03
            5925            5919     54.4559E-03     57.5526E-03
            5907            5919     54.4559E-03     57.5526E-03
            5908            5919     54.4559E-03     57.5526E-03
            5927            5920     62.4809E-03     65.6034E-03
            5908            5920     62.4809E-03     65.6034E-03
            5926            5920     62.4809E-03     65.6034E-03
            5909            5920     62.4809E-03     65.6034E-03
            5909            5921     70.5549E-03     73.7238E-03
            5927            5921     70.5549E-03     73.7238E-03
            5928            5921     70.5549E-03     73.7238E-03
            5910            5921     70.5549E-03     73.7238E-03
            5911            5922     78.7392E-03     81.9471E-03
            5910            5922     78.7392E-03     81.9471E-03
            5928            5922     78.7392E-03     81.9471E-03
            5929            5922     78.7392E-03     81.9471E-03
            5912            5923     87.0795E-03     90.3613E-03
            5930            5923     87.0795E-03     90.3613E-03
            5929            5923     87.0795E-03     90.3613E-03
            5911            5923     87.0795E-03     90.3613E-03
            5912            5924     95.7176E-03     99.0449E-03
            5930            5924     95.7176E-03     99.0449E-03
            5931            5924     95.7176E-03     99.0449E-03
            5913            5924     95.7176E-03     99.0449E-03
            5914            5925     104.863E-03     108.227E-03
            5932            5925     104.863E-03     108.227E-03
            5913            5925     104.863E-03     108.227E-03
            5931            5925     104.863E-03     108.227E-03
            5914            5926     114.714E-03     118.051E-03
            5932            5926     114.714E-03     118.051E-03
            5933            5926     114.714E-03     118.051E-03
            5915            5926     114.714E-03     118.051E-03
            5934            5927     126.239E-03     129.072E-03
            5916            5927     126.239E-03     129.072E-03
            5933            5927     126.239E-03     129.072E-03
            5915            5927     126.239E-03     129.072E-03
            5917            5928     138.509E-03     140.897E-03
            5934            5928     138.509E-03     140.897E-03
            5935            5928     138.509E-03     140.897E-03
            5916            5928     138.509E-03     140.897E-03
            5936            5929     149.582E-03     152.181E-03
            5918            5929     149.582E-03     152.181E-03
            5917            5929     149.582E-03     152.181E-03
            5935            5929     149.582E-03     152.181E-03
            5938            5930     9.64736E-03     11.4382E-03
            5920            5930     9.64736E-03     11.4382E-03
            5937            5930     9.64736E-03     11.4382E-03
            5919            5930     9.64736E-03     11.4382E-03
            5939            5931     16.0869E-03     18.7217E-03
            5921            5931     16.0869E-03     18.7217E-03
            5938            5931     16.0869E-03     18.7217E-03
            5920            5931     16.0869E-03     18.7217E-03
            5921            5932     23.6669E-03     26.4726E-03
            5940            5932     23.6669E-03     26.4726E-03
            5922            5932     23.6669E-03     26.4726E-03
            5939            5932     23.6669E-03     26.4726E-03
            5940            5933     31.5574E-03     34.3330E-03
            5922            5933     31.5574E-03     34.3330E-03
            5923            5933     31.5574E-03     34.3330E-03
            5941            5933     31.5574E-03     34.3330E-03
            5923            5934     39.5619E-03     42.2888E-03
            5941            5934     39.5619E-03     42.2888E-03
            5924            5934     39.5619E-03     42.2888E-03
            5942            5934     39.5619E-03     42.2888E-03
            5942            5935     47.6132E-03     50.3368E-03
            5925            5935     47.6132E-03     50.3368E-03
            5943            5935     47.6132E-03     50.3368E-03
            5924            5935     47.6132E-03     50.3368E-03
            5944            5936     55.7164E-03     58.4418E-03
            5926            5936     55.7164E-03     58.4418E-03
            5943            5936     55.7164E-03     58.4418E-03
            5925            5936     55.7164E-03     58.4418E-03
            5927            5937     63.8666E-03     66.6338E-03
            5944            5937     63.8666E-03     66.6338E-03
            5945            5937     63.8666E-03     66.6338E-03
            5926            5937     63.8666E-03     66.6338E-03
            5927            5938     72.0868E-03     74.9173E-03
            5945            5938     72.0868E-03     74.9173E-03
            5928            5938     72.0868E-03     74.9173E-03
            5946            5938     72.0868E-03     74.9173E-03
            5947            5939     80.4035E-03     83.3400E-03
            5929            5939     80.4035E-03     83.3400E-03
            5946            5939     80.4035E-03     83.3400E-03
            5928            5939     80.4035E-03     83.3400E-03
            5947            5940     88.8692E-03     91.9222E-03
            5929            5940     88.8692E-03     91.9222E-03
            5930            5940     88.8692E-03     91.9222E-03
            5948            5940     88.8692E-03     91.9222E-03
            5948            5941     97.5915E-03     100.767E-03
            5931            5941     97.5915E-03     100.767E-03
            5949            5941     97.5915E-03     100.767E-03
            5930            5941     97.5915E-03     100.767E-03
            5950            5942     106.607E-03     109.890E-03
            5932            5942     106.607E-03     109.890E-03
            5949            5942     106.607E-03     109.890E-03
            5931            5942     106.607E-03     109.890E-03
            5951            5943     116.298E-03     119.442E-03
            5933            5943     116.298E-03     119.442E-03
            5950            5943     116.298E-03     119.442E-03
            5932            5943     116.298E-03     119.442E-03
            5951            5944     126.326E-03     129.326E-03
            5933            5944     126.326E-03     129.326E-03
            5952            5944     126.326E-03     129.326E-03
            5934            5944     126.326E-03     129.326E-03
            5935            5945     136.205E-03     138.960E-03
            5952            5945     136.205E-03     138.960E-03
            5934            5945     136.205E-03     138.960E-03
            5953            5945     136.205E-03     138.960E-03
            5936            5946     145.714E-03     147.477E-03
            5935            5946     145.714E-03     147.477E-03
            5953            5946     145.714E-03     147.477E-03
            5954            5946     145.714E-03     147.477E-03
            5956            5947     12.4897E-03     13.7854E-03
            5938            5947     12.4897E-03     13.7854E-03
            5937            5947     12.4897E-03     13.7854E-03
            5955            5947     12.4897E-03     13.7854E-03
            5939            5948     17.9948E-03     20.2340E-03
            5957            5948     17.9948E-03     20.2340E-03
            5938            5948     17.9948E-03     20.2340E-03
            5956            5948     17.9948E-03     20.2340E-03
            5957            5949     25.0839E-03     27.6029E-03
            5958            5949     25.0839E-03     27.6029E-03
            5939            5949     25.0839E-03     27.6029E-03
            5940            5949     25.0839E-03     27.6029E-03
            5958            5950     32.7431E-03     35.2516E-03
            5959            5950     32.7431E-03     35.2516E-03
            5940            5950     32.7431E-03     35.2516E-03
            5941            5950     32.7431E-03     35.2516E-03
            5960            5951     40.6516E-03     43.0854E-03
            5959            5951     40.6516E-03     43.0854E-03
            5941            5951     40.6516E-03     43.0854E-03
            5942            5951     40.6516E-03     43.0854E-03
            5960            5952     48.6831E-03     51.0457E-03
            5961            5952     48.6831E-03     51.0457E-03
            5943            5952     48.6831E-03     51.0457E-03
            5942            5952     48.6831E-03     51.0457E-03
            5962            5953     56.7949E-03     59.1352E-03
            5943            5953     56.7949E-03     59.1352E-03
            5961            5953     56.7949E-03     59.1352E-03
            5944            5953     56.7949E-03     59.1352E-03
            5962            5954     64.9715E-03     67.3404E-03
            5945            5954     64.9715E-03     67.3404E-03
            5963            5954     64.9715E-03     67.3404E-03
            5944            5954     64.9715E-03     67.3404E-03
            5963            5955     73.2227E-03     75.6722E-03
            5946            5955     73.2227E-03     75.6722E-03
            5964            5955     73.2227E-03     75.6722E-03
            5945            5955     73.2227E-03     75.6722E-03
            5964            5956     81.5560E-03     84.1281E-03
            5946            5956     81.5560E-03     84.1281E-03
            5947            5956     81.5560E-03     84.1281E-03
            5965            5956     81.5560E-03     84.1281E-03
            5947            5957     90.0132E-03     92.7420E-03
            5948            5957     90.0132E-03     92.7420E-03
            5966            5957     90.0132E-03     92.7420E-03
            5965            5957     90.0132E-03     92.7420E-03
            5949            5958     98.5770E-03     101.490E-03
            5966            5958     98.5770E-03     101.490E-03
            5967            5958     98.5770E-03     101.490E-03
            5948            5958     98.5770E-03     101.490E-03
            5968            5959     107.357E-03     110.378E-03
            5949            5959     107.357E-03     110.378E-03
            5950            5959     107.357E-03     110.378E-03
            5967            5959     107.357E-03     110.378E-03
            5969            5960     116.185E-03     119.287E-03
            5951            5960     116.185E-03     119.287E-03
            5968            5960     116.185E-03     119.287E-03
            5950            5960     116.185E-03     119.287E-03
            5969            5961     124.914E-03     127.885E-03
            5970            5961     124.914E-03     127.885E-03
            5952            5961     124.914E-03     127.885E-03
            5951            5961     124.914E-03     127.885E-03
            5971            5962     133.355E-03     135.808E-03
            5952            5962     133.355E-03     135.808E-03
            5953            5962     133.355E-03     135.808E-03
            5970            5962     133.355E-03     135.808E-03
            5953            5963     141.115E-03     143.068E-03
            5972            5963     141.115E-03     143.068E-03
            5971            5963     141.115E-03     143.068E-03
            5954            5963     141.115E-03     143.068E-03
            5973            5964     15.6035E-03     16.5113E-03
            5955            5964     15.6035E-03     16.5113E-03
            5974            5964     15.6035E-03     16.5113E-03
            5956            5964     15.6035E-03     16.5113E-03
            5974            5965     20.2335E-03     22.2524E-03
            5956            5965     20.2335E-03     22.2524E-03
            5975            5965     20.2335E-03     22.2524E-03
            5957            5965     20.2335E-03     22.2524E-03
            5957            5966     26.7344E-03     28.9883E-03
            5975            5966     26.7344E-03     28.9883E-03
            5958            5966     26.7344E-03     28.9883E-03
            5976            5966     26.7344E-03     28.9883E-03
            5977            5967     34.0505E-03     36.2818E-03
            5959            5967     34.0505E-03     36.2818E-03
            5958            5967     34.0505E-03     36.2818E-03
            5976            5967     34.0505E-03     36.2818E-03
            5959            5968     41.7369E-03     43.8228E-03
            5960            5968     41.7369E-03     43.8228E-03
            5977            5968     41.7369E-03     43.8228E-03
            5978            5968     41.7369E-03     43.8228E-03
            5979            5969     49.6302E-03     51.5797E-03
            5960            5969     49.6302E-03     51.5797E-03
            5978            5969     49.6302E-03     51.5797E-03
            5961            5969     49.6302E-03     51.5797E-03
            5961            5970     57.6244E-03     59.5270E-03
            5980            5970     57.6244E-03     59.5270E-03
            5979            5970     57.6244E-03     59.5270E-03
            5962            5970     57.6244E-03     59.5270E-03
            5962            5971     65.7059E-03     67.6213E-03
            5980            5971     65.7059E-03     67.6213E-03
            5981            5971     65.7059E-03     67.6213E-03
            5963            5971     65.7059E-03     67.6213E-03
            5981            5972     73.8556E-03     75.8465E-03
            5982            5972     73.8556E-03     75.8465E-03
            5964            5972     73.8556E-03     75.8465E-03
            5963            5972     73.8556E-03     75.8465E-03
            5964            5973     82.0830E-03     84.1946E-03
            5982            5973     82.0830E-03     84.1946E-03
            5983            5973     82.0830E-03     84.1946E-03
            5965            5973     82.0830E-03     84.1946E-03
            5965            5974     90.3503E-03     92.6404E-03
            5966            5974     90.3503E-03     92.6404E-03
            5984            5974     90.3503E-03     92.6404E-03
            5983            5974     90.3503E-03     92.6404E-03
            5967            5975     98.6662E-03     101.149E-03
            5985            5975     98.6662E-03     101.149E-03
            5966            5975     98.6662E-03     101.149E-03
            5984            5975     98.6662E-03     101.149E-03
            5967            5976     106.916E-03     109.618E-03
            5986            5976     106.916E-03     109.618E-03
            5985            5976     106.916E-03     109.618E-03
            5968            5976     106.916E-03     109.618E-03
            5986            5977     114.957E-03     117.819E-03
            5968            5977     114.957E-03     117.819E-03
            5969            5977     114.957E-03     117.819E-03
            5987            5977     114.957E-03     117.819E-03
            5987            5978     122.647E-03     125.434E-03
            5988            5978     122.647E-03     125.434E-03
            5969            5978     122.647E-03     125.434E-03
            5970            5978     122.647E-03     125.434E-03
            5989            5979     129.746E-03     132.208E-03
            5988            5979     129.746E-03     132.208E-03
            5971            5979     129.746E-03     132.208E-03
            5970            5979     129.746E-03     132.208E-03
            5972            5980     136.480E-03     138.190E-03
            5990            5980     136.480E-03     138.190E-03
            5989            5980     136.480E-03     138.190E-03
            5971            5980     136.480E-03     138.190E-03
            5974            5981     18.7384E-03     19.7712E-03
            5973            5981     18.7384E-03     19.7712E-03
            5992            5981     18.7384E-03     19.7712E-03
            5991            5981     18.7384E-03     19.7712E-03
            5993            5982     22.7293E-03     24.5364E-03
            5975            5982     22.7293E-03     24.5364E-03
            5974            5982     22.7293E-03     24.5364E-03
            5992            5982     22.7293E-03     24.5364E-03
            5993            5983     28.6001E-03     30.7133E-03
            5994            5983     28.6001E-03     30.7133E-03
            5976            5983     28.6001E-03     30.7133E-03
            5975            5983     28.6001E-03     30.7133E-03
            5977            5984     35.4607E-03     37.3847E-03
            5994            5984     35.4607E-03     37.3847E-03
            5995            5984     35.4607E-03     37.3847E-03
            5976            5984     35.4607E-03     37.3847E-03
            5977            5985     42.8510E-03     44.4752E-03
            5978            5985     42.8510E-03     44.4752E-03
            5995            5985     42.8510E-03     44.4752E-03
            5996            5985     42.8510E-03     44.4752E-03
            5978            5986     50.4520E-03     51.9285E-03
            5996            5986     50.4520E-03     51.9285E-03
            5997            5986     50.4520E-03     51.9285E-03
            5979            5986     50.4520E-03     51.9285E-03
            5979            5987     58.1967E-03     59.5995E-03
            5980            5987     58.1967E-03     59.5995E-03
            5998            5987     58.1967E-03     59.5995E-03
            5997            5987     58.1967E-03     59.5995E-03
            5998            5988     66.0367E-03     67.4434E-03
            5981            5988     66.0367E-03     67.4434E-03
            5999            5988     66.0367E-03     67.4434E-03
            5980            5988     66.0367E-03     67.4434E-03
            6000            5989     73.9568E-03     75.4117E-03
            5999            5989     73.9568E-03     75.4117E-03
            5981            5989     73.9568E-03     75.4117E-03
            5982            5989     73.9568E-03     75.4117E-03
            5983            5990     81.9129E-03     83.4753E-03
            5982            5990     81.9129E-03     83.4753E-03
            6001            5990     81.9129E-03     83.4753E-03
            6000            5990     81.9129E-03     83.4753E-03
            6001            5991     89.8881E-03     91.5895E-03
            5983            5991     89.8881E-03     91.5895E-03
            6002            5991     89.8881E-03     91.5895E-03
            5984            5991     89.8881E-03     91.5895E-03
            5985            5992     97.7844E-03     99.6943E-03
            5984            5992     97.7844E-03     99.6943E-03
            6002            5992     97.7844E-03     99.6943E-03
            6003            5992     97.7844E-03     99.6943E-03
            6003            5993     105.482E-03     107.644E-03
            5985            5993     105.482E-03     107.644E-03
            5986            5993     105.482E-03     107.644E-03
            6004            5993     105.482E-03     107.644E-03
            5987            5994     112.850E-03     115.224E-03
            6004            5994     112.850E-03     115.224E-03
            5986            5994     112.850E-03     115.224E-03
            6005            5994     112.850E-03     115.224E-03
            6005            5995     119.559E-03     122.128E-03
            5988            5995     119.559E-03     122.128E-03
            6006            5995     119.559E-03     122.128E-03
            5987            5995     119.559E-03     122.128E-03
            6006            5996     125.691E-03     128.029E-03
            5988            5996     125.691E-03     128.029E-03
            5989            5996     125.691E-03     128.029E-03
            6007            5996     125.691E-03     128.029E-03
            6008            5997     131.400E-03     132.919E-03
            6007            5997     131.400E-03     132.919E-03
            5989            5997     131.400E-03     132.919E-03
            5990            5997     131.400E-03     132.919E-03
            6010            5998     22.1166E-03     23.0902E-03
            5991            5998     22.1166E-03     23.0902E-03
            5992            5998     22.1166E-03     23.0902E-03
            6009            5998     22.1166E-03     23.0902E-03
            6011            5999     25.4440E-03     27.5138E-03
            6010            5999     25.4440E-03     27.5138E-03
            5992            5999     25.4440E-03     27.5138E-03
            5993            5999     25.4440E-03     27.5138E-03
            6012            6000     30.6677E-03     32.6710E-03
            6011            6000     30.6677E-03     32.6710E-03
            5993            6000     30.6677E-03     32.6710E-03
            5994            6000     30.6677E-03     32.6710E-03
            6013            6001     37.1294E-03     38.5325E-03
            6012            6001     37.1294E-03     38.5325E-03
            5994            6001     37.1294E-03     38.5325E-03
            5995            6001     37.1294E-03     38.5325E-03
            5995            6002     44.0459E-03     45.1403E-03
            6014            6002     44.0459E-03     45.1403E-03
            5996            6002     44.0459E-03     45.1403E-03
            6013            6002     44.0459E-03     45.1403E-03
            5996            6003     51.2157E-03     52.1540E-03
            6014            6003     51.2157E-03     52.1540E-03
            6015            6003     51.2157E-03     52.1540E-03
            5997            6003     51.2157E-03     52.1540E-03
            5998            6004     58.5574E-03     59.4345E-03
            6016            6004     58.5574E-03     59.4345E-03
            5997            6004     58.5574E-03     59.4345E-03
            6015            6004     58.5574E-03     59.4345E-03
            6017            6005     66.0172E-03     66.8776E-03
            6016            6005     66.0172E-03     66.8776E-03
            5998            6005     66.0172E-03     66.8776E-03
            5999            6005     66.0172E-03     66.8776E-03
            6017            6006     73.5440E-03     74.4276E-03
            5999            6006     73.5440E-03     74.4276E-03
            6000            6006     73.5440E-03     74.4276E-03
            6018            6006     73.5440E-03     74.4276E-03
            6019            6007     81.1085E-03     82.0287E-03
            6000            6007     81.1085E-03     82.0287E-03
            6018            6007     81.1085E-03     82.0287E-03
            6001            6007     81.1085E-03     82.0287E-03
            6020            6008     88.6252E-03     89.6372E-03
            6019            6008     88.6252E-03     89.6372E-03
            6002            6008     88.6252E-03     89.6372E-03
            6001            6008     88.6252E-03     89.6372E-03
            6020            6009     96.0234E-03     97.1575E-03
            6002            6009     96.0234E-03     97.1575E-03
            6021            6009     96.0234E-03     97.1575E-03
            6003            6009     96.0234E-03     97.1575E-03
            6021            6010     103.161E-03     104.494E-03
            6022            6010     103.161E-03     104.494E-03
            6003            6010     103.161E-03     104.494E-03
            6004            6010     103.161E-03     104.494E-03
            6004            6011     109.807E-03     111.445E-03
            6022            6011     109.807E-03     111.445E-03
            6023            6011     109.807E-03     111.445E-03
            6005            6011     109.807E-03     111.445E-03
            6024            6012     115.876E-03     117.728E-03
            6023            6012     115.876E-03     117.728E-03
            6006            6012     115.876E-03     117.728E-03
            6005            6012     115.876E-03     117.728E-03
            6024            6013     120.995E-03     122.992E-03
            6025            6013     120.995E-03     122.992E-03
            6006            6013     120.995E-03     122.992E-03
            6007            6013     120.995E-03     122.992E-03
            6025            6014     125.677E-03     127.267E-03
            6008            6014     125.677E-03     127.267E-03
            6026            6014     125.677E-03     127.267E-03
            6007            6014     125.677E-03     127.267E-03
            6009            6015     25.5904E-03     27.7935E-03
            6027            6015     25.5904E-03     27.7935E-03
            6028            6015     25.5904E-03     27.7935E-03
            6010            6015     25.5904E-03     27.7935E-03
            6010            6016     28.2503E-03     30.8246E-03
            6029            6016     28.2503E-03     30.8246E-03
            6028            6016     28.2503E-03     30.8246E-03
            6011            6016     28.2503E-03     30.8246E-03
            6029            6017     33.2875E-03     34.6507E-03
            6030            6017     33.2875E-03     34.6507E-03
            6012            6017     33.2875E-03     34.6507E-03
            6011            6017     33.2875E-03     34.6507E-03
            6012            6018     39.1625E-03     39.8913E-03
            6030            6018     39.1625E-03     39.8913E-03
            6031            6018     39.1625E-03     39.8913E-03
            6013            6018     39.1625E-03     39.8913E-03
            6032            6019     45.4419E-03     45.9483E-03
            6031            6019     45.4419E-03     45.9483E-03
            6014            6019     45.4419E-03     45.9483E-03
            6013            6019     45.4419E-03     45.9483E-03
            6014            6020     52.0353E-03     52.4458E-03
            6032            6020     52.0353E-03     52.4458E-03
            6033            6020     52.0353E-03     52.4458E-03
            6015            6020     52.0353E-03     52.4458E-03
            6015            6021     58.8346E-03     59.2051E-03
            6033            6021     58.8346E-03     59.2051E-03
            6034            6021     58.8346E-03     59.2051E-03
            6016            6021     58.8346E-03     59.2051E-03
            6017            6022     65.7624E-03     66.1069E-03
            6016            6022     65.7624E-03     66.1069E-03
            6035            6022     65.7624E-03     66.1069E-03
            6034            6022     65.7624E-03     66.1069E-03
            6035            6023     72.7678E-03     73.0723E-03
            6036            6023     72.7678E-03     73.0723E-03
            6017            6023     72.7678E-03     73.0723E-03
            6018            6023     72.7678E-03     73.0723E-03
            6019            6024     79.7684E-03     80.0425E-03
            6018            6024     79.7684E-03     80.0425E-03
            6037            6024     79.7684E-03     80.0425E-03
            6036            6024     79.7684E-03     80.0425E-03
            6020            6025     86.7145E-03     86.9401E-03
            6019            6025     86.7145E-03     86.9401E-03
            6037            6025     86.7145E-03     86.9401E-03
            6038            6025     86.7145E-03     86.9401E-03
            6021            6026     93.4862E-03     93.7021E-03
            6020            6026     93.4862E-03     93.7021E-03
            6039            6026     93.4862E-03     93.7021E-03
            6038            6026     93.4862E-03     93.7021E-03
            6040            6027     99.9753E-03     100.210E-03
            6021            6027     99.9753E-03     100.210E-03
            6022            6027     99.9753E-03     100.210E-03
            6039            6027     99.9753E-03     100.210E-03
            6041            6028     105.998E-03     106.352E-03
            6040            6028     105.998E-03     106.352E-03
            6023            6028     105.998E-03     106.352E-03
            6022            6028     105.998E-03     106.352E-03
            6041            6029     111.296E-03     111.932E-03
            6024            6029     111.296E-03     111.932E-03
            6023            6029     111.296E-03     111.932E-03
            6042            6029     111.296E-03     111.932E-03
            6043            6030     115.769E-03     116.594E-03
            6042            6030     115.769E-03     116.594E-03
            6024            6030     115.769E-03     116.594E-03
            6025            6030     115.769E-03     116.594E-03
            6026            6031     119.366E-03     119.856E-03
            6025            6031     119.366E-03     119.856E-03
            6044            6031     119.366E-03     119.856E-03
            6043            6031     119.366E-03     119.856E-03
            6046            6032     28.7320E-03     32.3568E-03
            6045            6032     28.7320E-03     32.3568E-03
            6028            6032     28.7320E-03     32.3568E-03
            6027            6032     28.7320E-03     32.3568E-03
            6047            6033     32.1466E-03     33.4924E-03
            6028            6033     32.1466E-03     33.4924E-03
            6029            6033     32.1466E-03     33.4924E-03
            6046            6033     32.1466E-03     33.4924E-03
            6047            6034     36.6178E-03     36.8458E-03
            6048            6034     36.6178E-03     36.8458E-03
            6030            6034     36.6178E-03     36.8458E-03
            6029            6034     36.6178E-03     36.8458E-03
            6048            6035     41.6518E-03     41.6530E-03
            6049            6035     41.6518E-03     41.6530E-03
            6031            6035     41.6518E-03     41.6530E-03
            6030            6035     41.6518E-03     41.6530E-03
            6050            6036     47.1698E-03     47.1459E-03
            6049            6036     47.1698E-03     47.1459E-03
            6032            6036     47.1698E-03     47.1459E-03
            6031            6036     47.1698E-03     47.1459E-03
            6033            6037     53.0808E-03     53.0546E-03
            6051            6037     53.0808E-03     53.0546E-03
            6050            6037     53.0808E-03     53.0546E-03
            6032            6037     53.0808E-03     53.0546E-03
            6051            6038     59.2196E-03     59.1864E-03
            6033            6038     59.2196E-03     59.1864E-03
            6034            6038     59.2196E-03     59.1864E-03
            6052            6038     59.2196E-03     59.1864E-03
            6053            6039     65.5134E-03     65.4202E-03
            6052            6039     65.5134E-03     65.4202E-03
            6034            6039     65.5134E-03     65.4202E-03
            6035            6039     65.5134E-03     65.4202E-03
            6053            6040     71.8490E-03     71.6685E-03
            6036            6040     71.8490E-03     71.6685E-03
            6054            6040     71.8490E-03     71.6685E-03
            6035            6040     71.8490E-03     71.6685E-03
            6054            6041     78.1716E-03     77.8412E-03
            6036            6041     78.1716E-03     77.8412E-03
            6055            6041     78.1716E-03     77.8412E-03
            6037            6041     78.1716E-03     77.8412E-03
            6055            6042     84.3796E-03     83.8646E-03
            6056            6042     84.3796E-03     83.8646E-03
            6037            6042     84.3796E-03     83.8646E-03
            6038            6042     84.3796E-03     83.8646E-03
            6039            6043     90.4050E-03     89.6462E-03
            6057            6043     90.4050E-03     89.6462E-03
            6056            6043     90.4050E-03     89.6462E-03
            6038            6043     90.4050E-03     89.6462E-03
            6057            6044     96.1201E-03     95.0834E-03
            6058            6044     96.1201E-03     95.0834E-03
            6039            6044     96.1201E-03     95.0834E-03
            6040            6044     96.1201E-03     95.0834E-03
            6059            6045     101.418E-03     100.098E-03
            6040            6045     101.418E-03     100.098E-03
            6058            6045     101.418E-03     100.098E-03
            6041            6045     101.418E-03     100.098E-03
            6059            6046     106.052E-03     104.496E-03
            6042            6046     106.052E-03     104.496E-03
            6060            6046     106.052E-03     104.496E-03
            6041            6046     106.052E-03     104.496E-03
            6060            6047     109.812E-03     108.265E-03
            6061            6047     109.812E-03     108.265E-03
            6043            6047     109.812E-03     108.265E-03
            6042            6047     109.812E-03     108.265E-03
            6061            6048     112.260E-03     110.354E-03
            6062            6048     112.260E-03     110.354E-03
            6044            6048     112.260E-03     110.354E-03
            6043            6048     112.260E-03     110.354E-03
            6063            6049     17.3728E-03     20.0677E-03
            6045            6049     17.3728E-03     20.0677E-03
            6046            6049     17.3728E-03     20.0677E-03
            6064            6049     17.3728E-03     20.0677E-03
            6065            6050     21.7445E-03     23.0460E-03
            6046            6050     21.7445E-03     23.0460E-03
            6064            6050     21.7445E-03     23.0460E-03
            6047            6050     21.7445E-03     23.0460E-03
            6065            6051     26.0341E-03     27.2695E-03
            6066            6051     26.0341E-03     27.2695E-03
            6047            6051     26.0341E-03     27.2695E-03
            6048            6051     26.0341E-03     27.2695E-03
            6049            6052     30.7197E-03     32.1169E-03
            6067            6052     30.7197E-03     32.1169E-03
            6066            6052     30.7197E-03     32.1169E-03
            6048            6052     30.7197E-03     32.1169E-03
            6068            6053     35.7184E-03     37.2207E-03
            6067            6053     35.7184E-03     37.2207E-03
            6049            6053     35.7184E-03     37.2207E-03
            6050            6053     35.7184E-03     37.2207E-03
            6068            6054     40.9327E-03     42.5034E-03
            6051            6054     40.9327E-03     42.5034E-03
            6050            6054     40.9327E-03     42.5034E-03
            6069            6054     40.9327E-03     42.5034E-03
            6051            6055     46.3047E-03     47.8740E-03
            6069            6055     46.3047E-03     47.8740E-03
            6070            6055     46.3047E-03     47.8740E-03
            6052            6055     46.3047E-03     47.8740E-03
            6070            6056     51.7583E-03     53.2833E-03
            6071            6056     51.7583E-03     53.2833E-03
            6052            6056     51.7583E-03     53.2833E-03
            6053            6056     51.7583E-03     53.2833E-03
            6071            6057     57.2829E-03     58.6915E-03
            6054            6057     57.2829E-03     58.6915E-03
            6072            6057     57.2829E-03     58.6915E-03
            6053            6057     57.2829E-03     58.6915E-03
            6055            6058     62.8218E-03     64.0878E-03
            6073            6058     62.8218E-03     64.0878E-03
            6054            6058     62.8218E-03     64.0878E-03
            6072            6058     62.8218E-03     64.0878E-03
            6056            6059     68.4148E-03     69.4402E-03
            6055            6059     68.4148E-03     69.4402E-03
            6073            6059     68.4148E-03     69.4402E-03
            6074            6059     68.4148E-03     69.4402E-03
            6074            6060     74.0099E-03     74.7984E-03
            6056            6060     74.0099E-03     74.7984E-03
            6075            6060     74.0099E-03     74.7984E-03
            6057            6060     74.0099E-03     74.7984E-03
            6075            6061     79.7409E-03     80.1645E-03
            6076            6061     79.7409E-03     80.1645E-03
            6057            6061     79.7409E-03     80.1645E-03
            6058            6061     79.7409E-03     80.1645E-03
            6058            6062     85.5424E-03     85.7005E-03
            6077            6062     85.5424E-03     85.7005E-03
            6059            6062     85.5424E-03     85.7005E-03
            6076            6062     85.5424E-03     85.7005E-03
            6060            6063     91.8322E-03     91.6713E-03
            6077            6063     91.8322E-03     91.6713E-03
            6059            6063     91.8322E-03     91.6713E-03
            6078            6063     91.8322E-03     91.6713E-03
            6079            6064     98.4861E-03     98.4600E-03
            6061            6064     98.4861E-03     98.4600E-03
            6078            6064     98.4861E-03     98.4600E-03
            6060            6064     98.4861E-03     98.4600E-03
            6061            6065     107.975E-03     109.943E-03
            6079            6065     107.975E-03     109.943E-03
            6080            6065     107.975E-03     109.943E-03
            6062            6065     107.975E-03     109.943E-03
            6081            6066     4.37385E-03     6.38457E-03
            6082            6066     4.37385E-03     6.38457E-03
            6064            6066     4.37385E-03     6.38457E-03
            6063            6066     4.37385E-03     6.38457E-03
            6082            6067     9.04346E-03     11.3844E-03
            6064            6067     9.04346E-03     11.3844E-03
            6083            6067     9.04346E-03     11.3844E-03
            6065            6067     9.04346E-03     11.3844E-03
            6083            6068     13.8461E-03     16.5530E-03
            6065            6068     13.8461E-03     16.5530E-03
            6084            6068     13.8461E-03     16.5530E-03
            6066            6068     13.8461E-03     16.5530E-03
            6084            6069     18.7459E-03     21.6609E-03
            6066            6069     18.7459E-03     21.6609E-03
            6067            6069     18.7459E-03     21.6609E-03
            6085            6069     18.7459E-03     21.6609E-03
            6086            6070     23.6844E-03     26.7321E-03
            6067            6070     23.6844E-03     26.7321E-03
            6068            6070     23.6844E-03     26.7321E-03
            6085            6070     23.6844E-03     26.7321E-03
            6086            6071     28.6545E-03     31.7749E-03
            6087            6071     28.6545E-03     31.7749E-03
            6068            6071     28.6545E-03     31.7749E-03
            6069            6071     28.6545E-03     31.7749E-03
            6088            6072     33.6537E-03     36.7955E-03
            6069            6072     33.6537E-03     36.7955E-03
            6070            6072     33.6537E-03     36.7955E-03
            6087            6072     33.6537E-03     36.7955E-03
            6089            6073     38.7002E-03     41.8242E-03
            6088            6073     38.7002E-03     41.8242E-03
            6071            6073     38.7002E-03     41.8242E-03
            6070            6073     38.7002E-03     41.8242E-03
            6071            6074     43.8066E-03     46.8752E-03
            6072            6074     43.8066E-03     46.8752E-03
            6089            6074     43.8066E-03     46.8752E-03
            6090            6074     43.8066E-03     46.8752E-03
            6091            6075     49.0386E-03     52.0208E-03
            6072            6075     49.0386E-03     52.0208E-03
            6073            6075     49.0386E-03     52.0208E-03
            6090            6075     49.0386E-03     52.0208E-03
            6092            6076     54.4347E-03     57.3076E-03
            6073            6076     54.4347E-03     57.3076E-03
            6074            6076     54.4347E-03     57.3076E-03
            6091            6076     54.4347E-03     57.3076E-03
            6093            6077     60.1703E-03     62.9142E-03
            6075            6077     60.1703E-03     62.9142E-03
            6092            6077     60.1703E-03     62.9142E-03
            6074            6077     60.1703E-03     62.9142E-03
            6076            6078     66.3368E-03     68.9730E-03
            6075            6078     66.3368E-03     68.9730E-03
            6093            6078     66.3368E-03     68.9730E-03
            6094            6078     66.3368E-03     68.9730E-03
            6095            6079     73.4255E-03     75.9752E-03
            6077            6079     73.4255E-03     75.9752E-03
            6076            6079     73.4255E-03     75.9752E-03
            6094            6079     73.4255E-03     75.9752E-03
            6077            6080     81.6665E-03     84.2877E-03
            6096            6080     81.6665E-03     84.2877E-03
            6078            6080     81.6665E-03     84.2877E-03
            6095            6080     81.6665E-03     84.2877E-03
            6096            6081     92.9581E-03     95.8015E-03
            6097            6081     92.9581E-03     95.8015E-03
            6078            6081     92.9581E-03     95.8015E-03
            6079            6081     92.9581E-03     95.8015E-03
            6079            6082     110.156E-03     112.336E-03
            6097            6082     110.156E-03     112.336E-03
            6080            6082     110.156E-03     112.336E-03
            6098            6082     110.156E-03     112.336E-03
            6081            6083     5.16800E-03     6.84497E-03
            6082            6083     5.16800E-03     6.84497E-03
            6100            6083     5.16800E-03     6.84497E-03
            6099            6083     5.16800E-03     6.84497E-03
            6083            6084     9.67036E-03     11.7163E-03
            6100            6084     9.67036E-03     11.7163E-03
            6101            6084     9.67036E-03     11.7163E-03
            6082            6084     9.67036E-03     11.7163E-03
            6102            6085     14.5551E-03     16.8541E-03
            6083            6085     14.5551E-03     16.8541E-03
            6084            6085     14.5551E-03     16.8541E-03
            6101            6085     14.5551E-03     16.8541E-03
            6085            6086     19.5376E-03     22.0414E-03
            6102            6086     19.5376E-03     22.0414E-03
            6103            6086     19.5376E-03     22.0414E-03
            6084            6086     19.5376E-03     22.0414E-03
            6104            6087     24.5811E-03     27.2107E-03
            6086            6087     24.5811E-03     27.2107E-03
            6103            6087     24.5811E-03     27.2107E-03
            6085            6087     24.5811E-03     27.2107E-03
            6105            6088     29.6610E-03     32.3686E-03
            6087            6088     29.6610E-03     32.3686E-03
            6086            6088     29.6610E-03     32.3686E-03
            6104            6088     29.6610E-03     32.3686E-03
            6105            6089     34.7789E-03     37.5292E-03
            6087            6089     34.7789E-03     37.5292E-03
            6088            6089     34.7789E-03     37.5292E-03
            6106            6089     34.7789E-03     37.5292E-03
            6088            6090     39.9372E-03     42.7034E-03
            6089            6090     39.9372E-03     42.7034E-03
            6107            6090     39.9372E-03     42.7034E-03
            6106            6090     39.9372E-03     42.7034E-03
            6089            6091     45.1743E-03     47.9329E-03
            6108            6091     45.1743E-03     47.9329E-03
            6090            6091     45.1743E-03     47.9329E-03
            6107            6091     45.1743E-03     47.9329E-03
            6091            6092     50.5141E-03     53.2584E-03
            6108            6092     50.5141E-03     53.2584E-03
            6109            6092     50.5141E-03     53.2584E-03
            6090            6092     50.5141E-03     53.2584E-03
            6092            6093     56.0697E-03     58.7739E-03
            6091            6093     56.0697E-03     58.7739E-03
            6110            6093     56.0697E-03     58.7739E-03
            6109            6093     56.0697E-03     58.7739E-03
            6110            6094     61.9198E-03     64.6024E-03
            6093            6094     61.9198E-03     64.6024E-03
            6111            6094     61.9198E-03     64.6024E-03
            6092            6094     61.9198E-03     64.6024E-03
            6111            6095     68.3505E-03     70.9620E-03
            6094            6095     68.3505E-03     70.9620E-03
            6093            6095     68.3505E-03     70.9620E-03
            6112            6095     68.3505E-03     70.9620E-03
            6094            6096     75.6316E-03     78.2116E-03
            6112            6096     75.6316E-03     78.2116E-03
            6113            6096     75.6316E-03     78.2116E-03
            6095            6096     75.6316E-03     78.2116E-03
            6113            6097     84.4054E-03     86.8278E-03
            6096            6097     84.4054E-03     86.8278E-03
            6095            6097     84.4054E-03     86.8278E-03
            6114            6097     84.4054E-03     86.8278E-03
            6096            6098     96.5276E-03     98.1171E-03
            6115            6098     96.5276E-03     98.1171E-03
            6097            6098     96.5276E-03     98.1171E-03
            6114            6098     96.5276E-03     98.1171E-03
            6115            6099     109.586E-03     109.978E-03
            6098            6099     109.586E-03     109.978E-03
            6116            6099     109.586E-03     109.978E-03
            6097            6099     109.586E-03     109.978E-03
            6099            6100     7.15707E-03     8.02649E-03
            6117            6100     7.15707E-03     8.02649E-03
            6118            6100     7.15707E-03     8.02649E-03
            6100            6100     7.15707E-03     8.02649E-03
            6119            6101     10.9161E-03     12.6115E-03
            6118            6101     10.9161E-03     12.6115E-03
            6100            6101     10.9161E-03     12.6115E-03
            6101            6101     10.9161E-03     12.6115E-03
            6102            6102     15.6199E-03     17.5805E-03
            6119            6102     15.6199E-03     17.5805E-03
            6120            6102     15.6199E-03     17.5805E-03
            6101            6102     15.6199E-03     17.5805E-03
            6102            6103     20.5724E-03     22.7182E-03
            6120            6103     20.5724E-03     22.7182E-03
            6121            6103     20.5724E-03     22.7182E-03
            6103            6103     20.5724E-03     22.7182E-03
            6103            6104     25.6413E-03     27.9110E-03
            6122            6104     25.6413E-03     27.9110E-03
            6121            6104     25.6413E-03     27.9110E-03
            6104            6104     25.6413E-03     27.9110E-03
            6123            6105     30.7845E-03     33.1342E-03
            6104            6105     30.7845E-03     33.1342E-03
            6105            6105     30.7845E-03     33.1342E-03
            6122            6105     30.7845E-03     33.1342E-03
            6106            6106     35.9795E-03     38.3836E-03
            6123            6106     35.9795E-03     38.3836E-03
            6105            6106     35.9795E-03     38.3836E-03
            6124            6106     35.9795E-03     38.3836E-03
            6106            6107     41.2371E-03     43.6782E-03
            6124            6107     41.2371E-03     43.6782E-03
            6107            6107     41.2371E-03     43.6782E-03
            6125            6107     41.2371E-03     43.6782E-03
            6108            6108     46.5651E-03     49.0422E-03
            6125            6108     46.5651E-03     49.0422E-03
            6107            6108     46.5651E-03     49.0422E-03
            6126            6108     46.5651E-03     49.0422E-03
            6108            6109     52.0207E-03     54.5195E-03
            6126            6109     52.0207E-03     54.5195E-03
            6109            6109     52.0207E-03     54.5195E-03
            6127            6109     52.0207E-03     54.5195E-03
            6109            6110     57.6590E-03     60.1903E-03
            6127            6110     57.6590E-03     60.1903E-03
            6110            6110     57.6590E-03     60.1903E-03
            6128            6110     57.6590E-03     60.1903E-03
            6110            6111     63.6183E-03     66.1466E-03
            6128            6111     63.6183E-03     66.1466E-03
            6111            6111     63.6183E-03     66.1466E-03
            6129            6111     63.6183E-03     66.1466E-03
            6111            6112     70.1000E-03     72.6072E-03
            6112            6112     70.1000E-03     72.6072E-03
            6129            6112     70.1000E-03     72.6072E-03
            6130            6112     70.1000E-03     72.6072E-03
            6130            6113     77.3241E-03     79.7379E-03
            6131            6113     77.3241E-03     79.7379E-03
            6112            6113     77.3241E-03     79.7379E-03
            6113            6113     77.3241E-03     79.7379E-03
            6113            6114     86.1225E-03     88.0908E-03
            6132            6114     86.1225E-03     88.0908E-03
            6131            6114     86.1225E-03     88.0908E-03
            6114            6114     86.1225E-03     88.0908E-03
            6114            6115     95.8556E-03     97.4506E-03
            6133            6115     95.8556E-03     97.4506E-03
            6115            6115     95.8556E-03     97.4506E-03
            6132            6115     95.8556E-03     97.4506E-03
            6134            6116     105.005E-03     106.887E-03
            6133            6116     105.005E-03     106.887E-03
            6115            6116     105.005E-03     106.887E-03
            6116            6116     105.005E-03     106.887E-03
            6118            6117     9.23682E-03     9.67712E-03
            6117            6117     9.23682E-03     9.67712E-03
            6136            6117     9.23682E-03     9.67712E-03
            6135            6117     9.23682E-03     9.67712E-03
            6136            6118     12.5078E-03     13.7795E-03
            6118            6118     12.5078E-03     13.7795E-03
            6119            6118     12.5078E-03     13.7795E-03
            6137            6118     12.5078E-03     13.7795E-03
            6120            6119     16.8772E-03     18.5565E-03
            6119            6119     16.8772E-03     18.5565E-03
            6138            6119     16.8772E-03     18.5565E-03
            6137            6119     16.8772E-03     18.5565E-03
            6139            6120     21.7162E-03     23.5659E-03
            6138            6120     21.7162E-03     23.5659E-03
            6120            6120     21.7162E-03     23.5659E-03
            6121            6120     21.7162E-03     23.5659E-03
            6140            6121     26.7557E-03     28.7189E-03
            6121            6121     26.7557E-03     28.7189E-03
            6122            6121     26.7557E-03     28.7189E-03
            6139            6121     26.7557E-03     28.7189E-03
            6122            6122     31.9121E-03     33.9428E-03
            6141            6122     31.9121E-03     33.9428E-03
            6140            6122     31.9121E-03     33.9428E-03
            6123            6122     31.9121E-03     33.9428E-03
            6141            6123     37.1541E-03     39.2348E-03
            6123            6123     37.1541E-03     39.2348E-03
            6142            6123     37.1541E-03     39.2348E-03
            6124            6123     37.1541E-03     39.2348E-03
            6125            6124     42.4649E-03     44.5959E-03
            6142            6124     42.4649E-03     44.5959E-03
            6124            6124     42.4649E-03     44.5959E-03
            6143            6124     42.4649E-03     44.5959E-03
            6144            6125     47.8592E-03     50.0401E-03
            6126            6125     47.8592E-03     50.0401E-03
            6143            6125     47.8592E-03     50.0401E-03
            6125            6125     47.8592E-03     50.0401E-03
            6145            6126     53.3627E-03     55.6061E-03
            6127            6126     53.3627E-03     55.6061E-03
            6126            6126     53.3627E-03     55.6061E-03
            6144            6126     53.3627E-03     55.6061E-03
            6127            6127     59.0223E-03     61.3225E-03
            6145            6127     59.0223E-03     61.3225E-03
            6128            6127     59.0223E-03     61.3225E-03
            6146            6127     59.0223E-03     61.3225E-03
            6128            6128     64.9531E-03     67.2889E-03
            6146            6128     64.9531E-03     67.2889E-03
            6129            6128     64.9531E-03     67.2889E-03
            6147            6128     64.9531E-03     67.2889E-03
            6148            6129     71.2111E-03     73.5559E-03
            6130            6129     71.2111E-03     73.5559E-03
            6129            6129     71.2111E-03     73.5559E-03
            6147            6129     71.2111E-03     73.5559E-03
            6148            6130     78.1576E-03     80.3171E-03
            6130            6130     78.1576E-03     80.3171E-03
            6131            6130     78.1576E-03     80.3171E-03
            6149            6130     78.1576E-03     80.3171E-03
            6149            6131     85.5969E-03     87.5814E-03
            6150            6131     85.5969E-03     87.5814E-03
            6131            6131     85.5969E-03     87.5814E-03
            6132            6131     85.5969E-03     87.5814E-03
            6133            6132     93.1918E-03     95.0367E-03
            6132            6132     93.1918E-03     95.0367E-03
            6150            6132     93.1918E-03     95.0367E-03
            6151            6132     93.1918E-03     95.0367E-03
            6151            6133     100.926E-03     102.106E-03
            6152            6133     100.926E-03     102.106E-03
            6134            6133     100.926E-03     102.106E-03
            6133            6133     100.926E-03     102.106E-03
            6136            6134     11.3005E-03     11.5156E-03
            6153            6134     11.3005E-03     11.5156E-03
            6135            6134     11.3005E-03     11.5156E-03
            6154            6134     11.3005E-03     11.5156E-03
            6136            6135     14.1528E-03     15.1694E-03
            6154            6135     14.1528E-03     15.1694E-03
            6137            6135     14.1528E-03     15.1694E-03
            6155            6135     14.1528E-03     15.1694E-03
            6138            6136     18.2323E-03     19.6370E-03
            6156            6136     18.2323E-03     19.6370E-03
            6155            6136     18.2323E-03     19.6370E-03
            6137            6136     18.2323E-03     19.6370E-03
            6139            6137     22.8814E-03     24.4956E-03
            6157            6137     22.8814E-03     24.4956E-03
            6138            6137     22.8814E-03     24.4956E-03
            6156            6137     22.8814E-03     24.4956E-03
            6140            6138     27.8385E-03     29.5249E-03
            6158            6138     27.8385E-03     29.5249E-03
            6157            6138     27.8385E-03     29.5249E-03
            6139            6138     27.8385E-03     29.5249E-03
            6140            6139     32.9658E-03     34.6948E-03
            6158            6139     32.9658E-03     34.6948E-03
            6159            6139     32.9658E-03     34.6948E-03
            6141            6139     32.9658E-03     34.6948E-03
            6159            6140     38.2011E-03     39.9631E-03
            6160            6140     38.2011E-03     39.9631E-03
            6141            6140     38.2011E-03     39.9631E-03
            6142            6140     38.2011E-03     39.9631E-03
            6160            6141     43.5220E-03     45.3243E-03
            6142            6141     43.5220E-03     45.3243E-03
            6161            6141     43.5220E-03     45.3243E-03
            6143            6141     43.5220E-03     45.3243E-03
            6143            6142     48.9223E-03     50.7859E-03
            6144            6142     48.9223E-03     50.7859E-03
            6162            6142     48.9223E-03     50.7859E-03
            6161            6142     48.9223E-03     50.7859E-03
            6145            6143     54.4002E-03     56.3423E-03
            6144            6143     54.4002E-03     56.3423E-03
            6162            6143     54.4002E-03     56.3423E-03
            6163            6143     54.4002E-03     56.3423E-03
            6145            6144     60.0017E-03     62.0232E-03
            6146            6144     60.0017E-03     62.0232E-03
            6163            6144     60.0017E-03     62.0232E-03
            6164            6144     60.0017E-03     62.0232E-03
            6165            6145     65.7066E-03     67.8188E-03
            6164            6145     65.7066E-03     67.8188E-03
            6147            6145     65.7066E-03     67.8188E-03
            6146            6145     65.7066E-03     67.8188E-03
            6147            6146     71.6559E-03     73.7622E-03
            6165            6146     71.6559E-03     73.7622E-03
            6148            6146     71.6559E-03     73.7622E-03
            6166            6146     71.6559E-03     73.7622E-03
            6148            6147     77.7435E-03     79.8270E-03
            6167            6147     77.7435E-03     79.8270E-03
            6149            6147     77.7435E-03     79.8270E-03
            6166            6147     77.7435E-03     79.8270E-03
            6149            6148     83.9419E-03     85.8812E-03
            6167            6148     83.9419E-03     85.8812E-03
            6150            6148     83.9419E-03     85.8812E-03
            6168            6148     83.9419E-03     85.8812E-03
            6151            6149     90.2426E-03     91.7709E-03
            6150            6149     90.2426E-03     91.7709E-03
            6168            6149     90.2426E-03     91.7709E-03
            6169            6149     90.2426E-03     91.7709E-03
            6169            6150     96.3487E-03     97.6744E-03
            6170            6150     96.3487E-03     97.6744E-03
            6151            6150     96.3487E-03     97.6744E-03
            6152            6150     96.3487E-03     97.6744E-03
            6171            6151     13.3027E-03     13.4185E-03
            6153            6151     13.3027E-03     13.4185E-03
            6154            6151     13.3027E-03     13.4185E-03
            6172            6151     13.3027E-03     13.4185E-03
            6154            6152     15.8411E-03     16.6608E-03
            6172            6152     15.8411E-03     16.6608E-03
            6155            6152     15.8411E-03     16.6608E-03
            6173            6152     15.8411E-03     16.6608E-03
            6174            6153     19.5826E-03     20.8302E-03
            6155            6153     19.5826E-03     20.8302E-03
            6156            6153     19.5826E-03     20.8302E-03
            6173            6153     19.5826E-03     20.8302E-03
            6175            6154     24.0267E-03     25.4121E-03
            6174            6154     24.0267E-03     25.4121E-03
            6157            6154     24.0267E-03     25.4121E-03
            6156            6154     24.0267E-03     25.4121E-03
            6158            6155     28.8470E-03     30.2767E-03
            6175            6155     28.8470E-03     30.2767E-03
            6157            6155     28.8470E-03     30.2767E-03
            6176            6155     28.8470E-03     30.2767E-03
            6159            6156     33.8852E-03     35.3063E-03
            6158            6156     33.8852E-03     35.3063E-03
            6177            6156     33.8852E-03     35.3063E-03
            6176            6156     33.8852E-03     35.3063E-03
            6159            6157     39.0603E-03     40.4778E-03
            6160            6157     39.0603E-03     40.4778E-03
            6177            6157     39.0603E-03     40.4778E-03
            6178            6157     39.0603E-03     40.4778E-03
            6178            6158     44.3273E-03     45.7714E-03
            6161            6158     44.3273E-03     45.7714E-03
            6179            6158     44.3273E-03     45.7714E-03
            6160            6158     44.3273E-03     45.7714E-03
            6161            6159     49.6565E-03     51.1585E-03
            6179            6159     49.6565E-03     51.1585E-03
            6180            6159     49.6565E-03     51.1585E-03
            6162            6159     49.6565E-03     51.1585E-03
            6162            6160     55.0514E-03     56.6332E-03
            6180            6160     55.0514E-03     56.6332E-03
            6181            6160     55.0514E-03     56.6332E-03
            6163            6160     55.0514E-03     56.6332E-03
            6163            6161     60.4603E-03     62.1600E-03
            6182            6161     60.4603E-03     62.1600E-03
            6181            6161     60.4603E-03     62.1600E-03
            6164            6161     60.4603E-03     62.1600E-03
            6164            6162     65.9130E-03     67.7065E-03
            6182            6162     65.9130E-03     67.7065E-03
            6183            6162     65.9130E-03     67.7065E-03
            6165            6162     65.9130E-03     67.7065E-03
            6166            6163     71.2937E-03     73.2027E-03
            6183            6163     71.2937E-03     73.2027E-03
            6184            6163     71.2937E-03     73.2027E-03
            6165            6163     71.2937E-03     73.2027E-03
            6185            6164     76.5913E-03     78.5154E-03
            6166            6164     76.5913E-03     78.5154E-03
            6184            6164     76.5913E-03     78.5154E-03
            6167            6164     76.5913E-03     78.5154E-03
            6185            6165     81.7607E-03     83.5320E-03
            6186            6165     81.7607E-03     83.5320E-03
            6167            6165     81.7607E-03     83.5320E-03
            6168            6165     81.7607E-03     83.5320E-03
            6169            6166     86.7411E-03     88.3012E-03
            6187            6166     86.7411E-03     88.3012E-03
            6168            6166     86.7411E-03     88.3012E-03
            6186            6166     86.7411E-03     88.3012E-03
            6169            6167     91.9305E-03     92.9589E-03
            6188            6167     91.9305E-03     92.9589E-03
            6187            6167     91.9305E-03     92.9589E-03
            6170            6167     91.9305E-03     92.9589E-03
            6189            6168     15.3153E-03     15.3787E-03
            6172            6168     15.3153E-03     15.3787E-03
            6171            6168     15.3153E-03     15.3787E-03
            6190            6168     15.3153E-03     15.3787E-03
            6173            6169     17.5092E-03     18.3111E-03
            6190            6169     17.5092E-03     18.3111E-03
            6191            6169     17.5092E-03     18.3111E-03
            6172            6169     17.5092E-03     18.3111E-03
            6174            6170     20.9442E-03     22.0528E-03
            6173            6170     20.9442E-03     22.0528E-03
            6191            6170     20.9442E-03     22.0528E-03
            6192            6170     20.9442E-03     22.0528E-03
            6193            6171     25.1354E-03     26.3451E-03
            6174            6171     25.1354E-03     26.3451E-03
            6192            6171     25.1354E-03     26.3451E-03
            6175            6171     25.1354E-03     26.3451E-03
            6194            6172     29.7669E-03     30.9225E-03
            6176            6172     29.7669E-03     30.9225E-03
            6193            6172     29.7669E-03     30.9225E-03
            6175            6172     29.7669E-03     30.9225E-03
            6194            6173     34.6600E-03     35.7346E-03
            6177            6173     34.6600E-03     35.7346E-03
            6195            6173     34.6600E-03     35.7346E-03
            6176            6173     34.6600E-03     35.7346E-03
            6178            6174     39.6999E-03     40.7375E-03
            6195            6174     39.6999E-03     40.7375E-03
            6196            6174     39.6999E-03     40.7375E-03
            6177            6174     39.6999E-03     40.7375E-03
            6196            6175     44.8293E-03     45.8718E-03
            6179            6175     44.8293E-03     45.8718E-03
            6178            6175     44.8293E-03     45.8718E-03
            6197            6175     44.8293E-03     45.8718E-03
            6179            6176     50.0252E-03     51.1085E-03
            6180            6176     50.0252E-03     51.1085E-03
            6198            6176     50.0252E-03     51.1085E-03
            6197            6176     50.0252E-03     51.1085E-03
            6180            6177     55.2285E-03     56.3994E-03
            6181            6177     55.2285E-03     56.3994E-03
            6198            6177     55.2285E-03     56.3994E-03
            6199            6177     55.2285E-03     56.3994E-03
            6181            6178     60.4226E-03     61.6978E-03
            6200            6178     60.4226E-03     61.6978E-03
            6199            6178     60.4226E-03     61.6978E-03
            6182            6178     60.4226E-03     61.6978E-03
            6183            6179     65.4926E-03     66.9261E-03
            6200            6179     65.4926E-03     66.9261E-03
            6201            6179     65.4926E-03     66.9261E-03
            6182            6179     65.4926E-03     66.9261E-03
            6202            6180     70.3688E-03     71.9469E-03
            6183            6180     70.3688E-03     71.9469E-03
            6201            6180     70.3688E-03     71.9469E-03
            6184            6180     70.3688E-03     71.9469E-03
            6185            6181     74.9130E-03     76.6095E-03
            6203            6181     74.9130E-03     76.6095E-03
            6202            6181     74.9130E-03     76.6095E-03
            6184            6181     74.9130E-03     76.6095E-03
            6203            6182     79.0789E-03     80.7825E-03
            6204            6182     79.0789E-03     80.7825E-03
            6186            6182     79.0789E-03     80.7825E-03
            6185            6182     79.0789E-03     80.7825E-03
            6186            6183     83.0786E-03     84.4617E-03
            6205            6183     83.0786E-03     84.4617E-03
            6204            6183     83.0786E-03     84.4617E-03
            6187            6183     83.0786E-03     84.4617E-03
            6187            6184     87.1220E-03     88.1177E-03
            6206            6184     87.1220E-03     88.1177E-03
            6205            6184     87.1220E-03     88.1177E-03
            6188            6184     87.1220E-03     88.1177E-03
            6190            6185     17.2855E-03     17.5670E-03
            6208            6185     17.2855E-03     17.5670E-03
            6189            6185     17.2855E-03     17.5670E-03
            6207            6185     17.2855E-03     17.5670E-03
            6209            6186     19.2218E-03     20.0220E-03
            6191            6186     19.2218E-03     20.0220E-03
            6190            6186     19.2218E-03     20.0220E-03
            6208            6186     19.2218E-03     20.0220E-03
            6192            6187     22.3314E-03     23.4336E-03
            6191            6187     22.3314E-03     23.4336E-03
            6209            6187     22.3314E-03     23.4336E-03
            6210            6187     22.3314E-03     23.4336E-03
            6193            6188     26.2340E-03     27.2656E-03
            6192            6188     26.2340E-03     27.2656E-03
            6210            6188     26.2340E-03     27.2656E-03
            6211            6188     26.2340E-03     27.2656E-03
            6212            6189     30.6466E-03     31.4624E-03
            6211            6189     30.6466E-03     31.4624E-03
            6193            6189     30.6466E-03     31.4624E-03
            6194            6189     30.6466E-03     31.4624E-03
            6194            6190     35.3102E-03     35.9938E-03
            6195            6190     35.3102E-03     35.9938E-03
            6212            6190     35.3102E-03     35.9938E-03
            6213            6190     35.3102E-03     35.9938E-03
            6196            6191     40.1213E-03     40.7373E-03
            6213            6191     40.1213E-03     40.7373E-03
            6214            6191     40.1213E-03     40.7373E-03
            6195            6191     40.1213E-03     40.7373E-03
            6197            6192     45.0364E-03     45.6328E-03
            6214            6192     45.0364E-03     45.6328E-03
            6196            6192     45.0364E-03     45.6328E-03
            6215            6192     45.0364E-03     45.6328E-03
            6215            6193     49.9911E-03     50.6161E-03
            6216            6193     49.9911E-03     50.6161E-03
            6197            6193     49.9911E-03     50.6161E-03
            6198            6193     49.9911E-03     50.6161E-03
            6217            6194     54.9550E-03     55.6345E-03
            6199            6194     54.9550E-03     55.6345E-03
            6198            6194     54.9550E-03     55.6345E-03
            6216            6194     54.9550E-03     55.6345E-03
            6200            6195     59.8329E-03     60.6195E-03
            6217            6195     59.8329E-03     60.6195E-03
            6218            6195     59.8329E-03     60.6195E-03
            6199            6195     59.8329E-03     60.6195E-03
            6201            6196     64.5444E-03     65.4676E-03
            6218            6196     64.5444E-03     65.4676E-03
            6200            6196     64.5444E-03     65.4676E-03
            6219            6196     64.5444E-03     65.4676E-03
            6202            6197     68.9300E-03     70.0482E-03
            6220            6197     68.9300E-03     70.0482E-03
            6201            6197     68.9300E-03     70.0482E-03
            6219            6197     68.9300E-03     70.0482E-03
            6221            6198     72.8141E-03     74.1497E-03
            6220            6198     72.8141E-03     74.1497E-03
            6203            6198     72.8141E-03     74.1497E-03
            6202            6198     72.8141E-03     74.1497E-03
            6222            6199     76.1130E-03     77.5800E-03
            6221            6199     76.1130E-03     77.5800E-03
            6203            6199     76.1130E-03     77.5800E-03
            6204            6199     76.1130E-03     77.5800E-03
            6222            6200     79.0117E-03     80.3876E-03
            6204            6200     79.0117E-03     80.3876E-03
            6205            6200     79.0117E-03     80.3876E-03
            6223            6200     79.0117E-03     80.3876E-03
            6224            6201     82.1565E-03     82.9420E-03
            6206            6201     82.1565E-03     82.9420E-03
            6223            6201     82.1565E-03     82.9420E-03
            6205            6201     82.1565E-03     82.9420E-03
            6207            6202     19.3857E-03     19.7322E-03
            6208            6202     19.3857E-03     19.7322E-03
            6226            6202     19.3857E-03     19.7322E-03
            6225            6202     19.3857E-03     19.7322E-03
            6226            6203     21.0077E-03     22.1489E-03
            6208            6203     21.0077E-03     22.1489E-03
            6227            6203     21.0077E-03     22.1489E-03
            6209            6203     21.0077E-03     22.1489E-03
            6209            6204     23.7608E-03     24.9369E-03
            6227            6204     23.7608E-03     24.9369E-03
            6228            6204     23.7608E-03     24.9369E-03
            6210            6204     23.7608E-03     24.9369E-03
            6228            6205     27.4558E-03     28.1584E-03
            6210            6205     27.4558E-03     28.1584E-03
            6211            6205     27.4558E-03     28.1584E-03
            6229            6205     27.4558E-03     28.1584E-03
            6211            6206     31.5604E-03     31.9680E-03
            6212            6206     31.5604E-03     31.9680E-03
            6230            6206     31.5604E-03     31.9680E-03
            6229            6206     31.5604E-03     31.9680E-03
            6212            6207     35.8884E-03     36.1413E-03
            6231            6207     35.8884E-03     36.1413E-03
            6213            6207     35.8884E-03     36.1413E-03
            6230            6207     35.8884E-03     36.1413E-03
            6213            6208     40.3856E-03     40.5531E-03
            6231            6208     40.3856E-03     40.5531E-03
            6214            6208     40.3856E-03     40.5531E-03
            6232            6208     40.3856E-03     40.5531E-03
            6215            6209     44.9715E-03     45.1101E-03
            6232            6209     44.9715E-03     45.1101E-03
            6233            6209     44.9715E-03     45.1101E-03
            6214            6209     44.9715E-03     45.1101E-03
            6234            6210     49.6108E-03     49.7399E-03
            6233            6210     49.6108E-03     49.7399E-03
            6215            6210     49.6108E-03     49.7399E-03
            6216            6210     49.6108E-03     49.7399E-03
            6216            6211     54.2257E-03     54.3787E-03
            6235            6211     54.2257E-03     54.3787E-03
            6217            6211     54.2257E-03     54.3787E-03
            6234            6211     54.2257E-03     54.3787E-03
            6218            6212     58.7487E-03     58.9476E-03
            6217            6212     58.7487E-03     58.9476E-03
            6235            6212     58.7487E-03     58.9476E-03
            6236            6212     58.7487E-03     58.9476E-03
            6219            6213     63.0599E-03     63.3520E-03
            6236            6213     63.0599E-03     63.3520E-03
            6218            6213     63.0599E-03     63.3520E-03
            6237            6213     63.0599E-03     63.3520E-03
            6219            6214     66.9983E-03     67.4483E-03
            6237            6214     66.9983E-03     67.4483E-03
            6220            6214     66.9983E-03     67.4483E-03
            6238            6214     66.9983E-03     67.4483E-03
            6238            6215     70.3739E-03     71.0546E-03
            6220            6215     70.3739E-03     71.0546E-03
            6221            6215     70.3739E-03     71.0546E-03
            6239            6215     70.3739E-03     71.0546E-03
            6221            6216     72.9027E-03     73.8868E-03
            6239            6216     72.9027E-03     73.8868E-03
            6240            6216     72.9027E-03     73.8868E-03
            6222            6216     72.9027E-03     73.8868E-03
            6241            6217     74.6793E-03     75.8040E-03
            6222            6217     74.6793E-03     75.8040E-03
            6240            6217     74.6793E-03     75.8040E-03
            6223            6217     74.6793E-03     75.8040E-03
            6242            6218     76.7344E-03     77.5010E-03
            6223            6218     76.7344E-03     77.5010E-03
            6224            6218     76.7344E-03     77.5010E-03
            6241            6218     76.7344E-03     77.5010E-03
            6244            6219     21.5179E-03     22.9516E-03
            6226            6219     21.5179E-03     22.9516E-03
            6243            6219     21.5179E-03     22.9516E-03
            6225            6219     21.5179E-03     22.9516E-03
            6227            6220     22.7345E-03     24.5256E-03
            6226            6220     22.7345E-03     24.5256E-03
            6244            6220     22.7345E-03     24.5256E-03
            6245            6220     22.7345E-03     24.5256E-03
            6245            6221     25.5415E-03     26.3604E-03
            6228            6221     25.5415E-03     26.3604E-03
            6227            6221     25.5415E-03     26.3604E-03
            6246            6221     25.5415E-03     26.3604E-03
            6229            6222     28.9308E-03     29.1385E-03
            6247            6222     28.9308E-03     29.1385E-03
            6228            6222     28.9308E-03     29.1385E-03
            6246            6222     28.9308E-03     29.1385E-03
            6248            6223     32.5942E-03     32.5489E-03
            6229            6223     32.5942E-03     32.5489E-03
            6247            6223     32.5942E-03     32.5489E-03
            6230            6223     32.5942E-03     32.5489E-03
            6249            6224     36.5075E-03     36.3210E-03
            6230            6224     36.5075E-03     36.3210E-03
            6231            6224     36.5075E-03     36.3210E-03
            6248            6224     36.5075E-03     36.3210E-03
            6231            6225     40.5756E-03     40.3240E-03
            6232            6225     40.5756E-03     40.3240E-03
            6250            6225     40.5756E-03     40.3240E-03
            6249            6225     40.5756E-03     40.3240E-03
            6250            6226     44.7507E-03     44.4455E-03
            6251            6226     44.7507E-03     44.4455E-03
            6232            6226     44.7507E-03     44.4455E-03
            6233            6226     44.7507E-03     44.4455E-03
            6251            6227     48.9606E-03     48.6147E-03
            6252            6227     48.9606E-03     48.6147E-03
            6233            6227     48.9606E-03     48.6147E-03
            6234            6227     48.9606E-03     48.6147E-03
            6234            6228     53.1446E-03     52.7534E-03
            6235            6228     53.1446E-03     52.7534E-03
            6253            6228     53.1446E-03     52.7534E-03
            6252            6228     53.1446E-03     52.7534E-03
            6253            6229     57.2186E-03     56.7898E-03
            6236            6229     57.2186E-03     56.7898E-03
            6235            6229     57.2186E-03     56.7898E-03
            6254            6229     57.2186E-03     56.7898E-03
            6237            6230     61.0720E-03     60.6251E-03
            6254            6230     61.0720E-03     60.6251E-03
            6255            6230     61.0720E-03     60.6251E-03
            6236            6230     61.0720E-03     60.6251E-03
            6255            6231     64.5732E-03     64.1382E-03
            6237            6231     64.5732E-03     64.1382E-03
            6238            6231     64.5732E-03     64.1382E-03
            6256            6231     64.5732E-03     64.1382E-03
            6238            6232     67.4877E-03     67.1667E-03
            6256            6232     67.4877E-03     67.1667E-03
            6239            6232     67.4877E-03     67.1667E-03
            6257            6232     67.4877E-03     67.1667E-03
            6257            6233     69.5626E-03     69.4660E-03
            6258            6233     69.5626E-03     69.4660E-03
            6240            6233     69.5626E-03     69.4660E-03
            6239            6233     69.5626E-03     69.4660E-03
            6258            6234     70.3259E-03     70.5967E-03
            6241            6234     70.3259E-03     70.5967E-03
            6259            6234     70.3259E-03     70.5967E-03
            6240            6234     70.3259E-03     70.5967E-03
            6242            6235     70.7872E-03     70.9817E-03
            6260            6235     70.7872E-03     70.9817E-03
            6241            6235     70.7872E-03     70.9817E-03
            6259            6235     70.7872E-03     70.9817E-03
            6261            6236     23.2901E-03     26.1259E-03
            6262            6236     23.2901E-03     26.1259E-03
            6244            6236     23.2901E-03     26.1259E-03
            6243            6236     23.2901E-03     26.1259E-03
            6244            6237     25.2847E-03     26.2950E-03
            6245            6237     25.2847E-03     26.2950E-03
            6262            6237     25.2847E-03     26.2950E-03
            6263            6237     25.2847E-03     26.2950E-03
            6245            6238     27.8687E-03     27.8248E-03
            6246            6238     27.8687E-03     27.8248E-03
            6263            6238     27.8687E-03     27.8248E-03
            6264            6238     27.8687E-03     27.8248E-03
            6247            6239     30.7208E-03     30.3598E-03
            6246            6239     30.7208E-03     30.3598E-03
            6264            6239     30.7208E-03     30.3598E-03
            6265            6239     30.7208E-03     30.3598E-03
            6265            6240     33.8698E-03     33.3876E-03
            6266            6240     33.8698E-03     33.3876E-03
            6247            6240     33.8698E-03     33.3876E-03
            6248            6240     33.8698E-03     33.3876E-03
            6266            6241     37.2818E-03     36.7345E-03
            6249            6241     37.2818E-03     36.7345E-03
            6267            6241     37.2818E-03     36.7345E-03
            6248            6241     37.2818E-03     36.7345E-03
            6250            6242     40.8577E-03     40.2590E-03
            6267            6242     40.8577E-03     40.2590E-03
            6249            6242     40.8577E-03     40.2590E-03
            6268            6242     40.8577E-03     40.2590E-03
            6251            6243     44.5346E-03     43.8677E-03
            6268            6243     44.5346E-03     43.8677E-03
            6250            6243     44.5346E-03     43.8677E-03
            6269            6243     44.5346E-03     43.8677E-03
            6252            6244     48.2319E-03     47.4735E-03
            6251            6244     48.2319E-03     47.4735E-03
            6270            6244     48.2319E-03     47.4735E-03
            6269            6244     48.2319E-03     47.4735E-03
            6271            6245     51.8833E-03     51.0062E-03
            6253            6245     51.8833E-03     51.0062E-03
            6270            6245     51.8833E-03     51.0062E-03
            6252            6245     51.8833E-03     51.0062E-03
            6272            6246     55.4027E-03     54.3754E-03
            6254            6246     55.4027E-03     54.3754E-03
            6271            6246     55.4027E-03     54.3754E-03
            6253            6246     55.4027E-03     54.3754E-03
            6273            6247     58.7089E-03     57.4976E-03
            6255            6247     58.7089E-03     57.4976E-03
            6254            6247     58.7089E-03     57.4976E-03
            6272            6247     58.7089E-03     57.4976E-03
            6256            6248     61.6694E-03     60.2550E-03
            6274            6248     61.6694E-03     60.2550E-03
            6273            6248     61.6694E-03     60.2550E-03
            6255            6248     61.6694E-03     60.2550E-03
            6256            6249     64.1425E-03     62.5033E-03
            6275            6249     64.1425E-03     62.5033E-03
            6257            6249     64.1425E-03     62.5033E-03
            6274            6249     64.1425E-03     62.5033E-03
            6276            6250     65.8666E-03     64.0532E-03
            6275            6250     65.8666E-03     64.0532E-03
            6258            6250     65.8666E-03     64.0532E-03
            6257            6250     65.8666E-03     64.0532E-03
            6277            6251     66.3382E-03     64.4956E-03
            6258            6251     66.3382E-03     64.4956E-03
            6259            6251     66.3382E-03     64.4956E-03
            6276            6251     66.3382E-03     64.4956E-03
            6259            6252     65.0294E-03     63.0872E-03
            6260            6252     65.0294E-03     63.0872E-03
            6278            6252     65.0294E-03     63.0872E-03
            6277            6252     65.0294E-03     63.0872E-03
            6279            6253     14.5378E-03     16.8274E-03
            6261            6253     14.5378E-03     16.8274E-03
            6262            6253     14.5378E-03     16.8274E-03
            6280            6253     14.5378E-03     16.8274E-03
            6281            6254     16.5690E-03     17.5535E-03
            6262            6254     16.5690E-03     17.5535E-03
            6280            6254     16.5690E-03     17.5535E-03
            6263            6254     16.5690E-03     17.5535E-03
            6264            6255     18.4993E-03     19.3140E-03
            6282            6255     18.4993E-03     19.3140E-03
            6263            6255     18.4993E-03     19.3140E-03
            6281            6255     18.4993E-03     19.3140E-03
            6264            6256     20.7615E-03     21.6460E-03
            6283            6256     20.7615E-03     21.6460E-03
            6265            6256     20.7615E-03     21.6460E-03
            6282            6256     20.7615E-03     21.6460E-03
            6283            6257     23.2647E-03     24.1836E-03
            6284            6257     23.2647E-03     24.1836E-03
            6265            6257     23.2647E-03     24.1836E-03
            6266            6257     23.2647E-03     24.1836E-03
            6285            6258     25.9462E-03     26.9056E-03
            6284            6258     25.9462E-03     26.9056E-03
            6266            6258     25.9462E-03     26.9056E-03
            6267            6258     25.9462E-03     26.9056E-03
            6286            6259     28.7457E-03     29.7000E-03
            6285            6259     28.7457E-03     29.7000E-03
            6267            6259     28.7457E-03     29.7000E-03
            6268            6259     28.7457E-03     29.7000E-03
            6286            6260     31.6166E-03     32.5427E-03
            6268            6260     31.6166E-03     32.5427E-03
            6269            6260     31.6166E-03     32.5427E-03
            6287            6260     31.6166E-03     32.5427E-03
            6269            6261     34.5290E-03     35.3863E-03
            6287            6261     34.5290E-03     35.3863E-03
            6270            6261     34.5290E-03     35.3863E-03
            6288            6261     34.5290E-03     35.3863E-03
            6270            6262     37.4472E-03     38.2134E-03
            6289            6262     37.4472E-03     38.2134E-03
            6271            6262     37.4472E-03     38.2134E-03
            6288            6262     37.4472E-03     38.2134E-03
            6272            6263     40.3852E-03     41.0080E-03
            6271            6263     40.3852E-03     41.0080E-03
            6290            6263     40.3852E-03     41.0080E-03
            6289            6263     40.3852E-03     41.0080E-03
            6272            6264     43.3080E-03     43.7803E-03
            6290            6264     43.3080E-03     43.7803E-03
            6273            6264     43.3080E-03     43.7803E-03
            6291            6264     43.3080E-03     43.7803E-03
            6273            6265     46.3102E-03     46.5584E-03
            6291            6265     46.3102E-03     46.5584E-03
            6292            6265     46.3102E-03     46.5584E-03
            6274            6265     46.3102E-03     46.5584E-03
            6274            6266     49.3507E-03     49.4342E-03
            6292            6266     49.3507E-03     49.4342E-03
            6275            6266     49.3507E-03     49.4342E-03
            6293            6266     49.3507E-03     49.4342E-03
            6276            6267     52.7231E-03     52.6038E-03
            6275            6267     52.7231E-03     52.6038E-03
            6293            6267     52.7231E-03     52.6038E-03
            6294            6267     52.7231E-03     52.6038E-03
            6295            6268     56.3437E-03     56.3347E-03
            6277            6268     56.3437E-03     56.3347E-03
            6276            6268     56.3437E-03     56.3347E-03
            6294            6268     56.3437E-03     56.3347E-03
            6277            6269     61.9233E-03     63.1396E-03
            6278            6269     61.9233E-03     63.1396E-03
            6296            6269     61.9233E-03     63.1396E-03
            6295            6269     61.9233E-03     63.1396E-03
            6298            6270     5.93245E-03     6.97951E-03
            6279            6270     5.93245E-03     6.97951E-03
            6297            6270     5.93245E-03     6.97951E-03
            6280            6270     5.93245E-03     6.97951E-03
            6280            6271     6.89137E-03     8.51850E-03
            6281            6271     6.89137E-03     8.51850E-03
            6298            6271     6.89137E-03     8.51850E-03
            6299            6271     6.89137E-03     8.51850E-03
            6281            6272     8.49825E-03     10.3992E-03
            6299            6272     8.49825E-03     10.3992E-03
            6300            6272     8.49825E-03     10.3992E-03
            6282            6272     8.49825E-03     10.3992E-03
            6300            6273     10.4109E-03     12.5261E-03
            6283            6273     10.4109E-03     12.5261E-03
            6282            6273     10.4109E-03     12.5261E-03
            6301            6273     10.4109E-03     12.5261E-03
            6301            6274     12.4942E-03     14.7567E-03
            6283            6274     12.4942E-03     14.7567E-03
            6284            6274     12.4942E-03     14.7567E-03
            6302            6274     12.4942E-03     14.7567E-03
            6284            6275     14.6889E-03     17.0448E-03
            6285            6275     14.6889E-03     17.0448E-03
            6303            6275     14.6889E-03     17.0448E-03
            6302            6275     14.6889E-03     17.0448E-03
            6303            6276     16.9508E-03     19.3643E-03
            6304            6276     16.9508E-03     19.3643E-03
            6286            6276     16.9508E-03     19.3643E-03
            6285            6276     16.9508E-03     19.3643E-03
            6305            6277     19.2764E-03     21.7172E-03
            6304            6277     19.2764E-03     21.7172E-03
            6287            6277     19.2764E-03     21.7172E-03
            6286            6277     19.2764E-03     21.7172E-03
            6287            6278     21.6615E-03     24.1041E-03
            6288            6278     21.6615E-03     24.1041E-03
            6305            6278     21.6615E-03     24.1041E-03
            6306            6278     21.6615E-03     24.1041E-03
            6307            6279     24.1467E-03     26.5739E-03
            6289            6279     24.1467E-03     26.5739E-03
            6288            6279     24.1467E-03     26.5739E-03
            6306            6279     24.1467E-03     26.5739E-03
            6290            6280     26.7655E-03     29.1598E-03
            6289            6280     26.7655E-03     29.1598E-03
            6308            6280     26.7655E-03     29.1598E-03
            6307            6280     26.7655E-03     29.1598E-03
            6290            6281     29.6560E-03     32.0077E-03
            6291            6281     29.6560E-03     32.0077E-03
            6308            6281     29.6560E-03     32.0077E-03
            6309            6281     29.6560E-03     32.0077E-03
            6309            6282     32.9177E-03     35.2359E-03
            6310            6282     32.9177E-03     35.2359E-03
            6291            6282     32.9177E-03     35.2359E-03
            6292            6282     32.9177E-03     35.2359E-03
            6311            6283     36.9586E-03     39.2577E-03
            6292            6283     36.9586E-03     39.2577E-03
            6293            6283     36.9586E-03     39.2577E-03
            6310            6283     36.9586E-03     39.2577E-03
            6294            6284     42.0348E-03     44.4205E-03
            6293            6284     42.0348E-03     44.4205E-03
            6312            6284     42.0348E-03     44.4205E-03
            6311            6284     42.0348E-03     44.4205E-03
            6313            6285     49.7080E-03     52.2700E-03
            6294            6285     49.7080E-03     52.2700E-03
            6295            6285     49.7080E-03     52.2700E-03
            6312            6285     49.7080E-03     52.2700E-03
            6314            6286     62.6315E-03     64.7515E-03
            6295            6286     62.6315E-03     64.7515E-03
            6313            6286     62.6315E-03     64.7515E-03
            6296            6286     62.6315E-03     64.7515E-03
            6297            6287     7.72440E-03     7.73284E-03
            6316            6287     7.72440E-03     7.73284E-03
            6315            6287     7.72440E-03     7.73284E-03
            6298            6287     7.72440E-03     7.73284E-03
            6298            6288     8.42765E-03     9.27641E-03
            6316            6288     8.42765E-03     9.27641E-03
            6299            6288     8.42765E-03     9.27641E-03
            6317            6288     8.42765E-03     9.27641E-03
            6317            6289     9.80736E-03     11.1185E-03
            6299            6289     9.80736E-03     11.1185E-03
            6318            6289     9.80736E-03     11.1185E-03
            6300            6289     9.80736E-03     11.1185E-03
            6318            6290     11.5908E-03     13.1599E-03
            6319            6290     11.5908E-03     13.1599E-03
            6301            6290     11.5908E-03     13.1599E-03
            6300            6290     11.5908E-03     13.1599E-03
            6301            6291     13.5930E-03     15.3462E-03
            6319            6291     13.5930E-03     15.3462E-03
            6320            6291     13.5930E-03     15.3462E-03
            6302            6291     13.5930E-03     15.3462E-03
            6303            6292     15.7357E-03     17.6075E-03
            6302            6292     15.7357E-03     17.6075E-03
            6320            6292     15.7357E-03     17.6075E-03
            6321            6292     15.7357E-03     17.6075E-03
            6322            6293     17.9758E-03     19.9234E-03
            6321            6293     17.9758E-03     19.9234E-03
            6303            6293     17.9758E-03     19.9234E-03
            6304            6293     17.9758E-03     19.9234E-03
            6322            6294     20.2842E-03     22.2811E-03
            6304            6294     20.2842E-03     22.2811E-03
            6323            6294     20.2842E-03     22.2811E-03
            6305            6294     20.2842E-03     22.2811E-03
            6323            6295     22.6700E-03     24.6951E-03
            6324            6295     22.6700E-03     24.6951E-03
            6306            6295     22.6700E-03     24.6951E-03
            6305            6295     22.6700E-03     24.6951E-03
            6325            6296     25.1377E-03     27.1818E-03
            6307            6296     25.1377E-03     27.1818E-03
            6306            6296     25.1377E-03     27.1818E-03
            6324            6296     25.1377E-03     27.1818E-03
            6308            6297     27.7646E-03     29.8086E-03
            6326            6297     27.7646E-03     29.8086E-03
            6325            6297     27.7646E-03     29.8086E-03
            6307            6297     27.7646E-03     29.8086E-03
            6327            6298     30.6106E-03     32.6581E-03
            6308            6298     30.6106E-03     32.6581E-03
            6326            6298     30.6106E-03     32.6581E-03
            6309            6298     30.6106E-03     32.6581E-03
            6327            6299     33.9109E-03     35.9146E-03
            6310            6299     33.9109E-03     35.9146E-03
            6328            6299     33.9109E-03     35.9146E-03
            6309            6299     33.9109E-03     35.9146E-03
            6310            6300     37.8976E-03     39.8627E-03
            6328            6300     37.8976E-03     39.8627E-03
            6311            6300     37.8976E-03     39.8627E-03
            6329            6300     37.8976E-03     39.8627E-03
            6312            6301     43.1542E-03     44.9446E-03
            6311            6301     43.1542E-03     44.9446E-03
            6330            6301     43.1542E-03     44.9446E-03
            6329            6301     43.1542E-03     44.9446E-03
            6331            6302     51.2373E-03     52.3250E-03
            6330            6302     51.2373E-03     52.3250E-03
            6312            6302     51.2373E-03     52.3250E-03
            6313            6302     51.2373E-03     52.3250E-03
            6331            6303     60.7363E-03     60.8901E-03
            6313            6303     60.7363E-03     60.8901E-03
            6314            6303     60.7363E-03     60.8901E-03
            6332            6303     60.7363E-03     60.8901E-03
            6316            6304     9.12099E-03     8.72570E-03
            6334            6304     9.12099E-03     8.72570E-03
            6315            6304     9.12099E-03     8.72570E-03
            6333            6304     9.12099E-03     8.72570E-03
            6316            6305     9.87238E-03     10.0690E-03
            6334            6305     9.87238E-03     10.0690E-03
            6317            6305     9.87238E-03     10.0690E-03
            6335            6305     9.87238E-03     10.0690E-03
            6317            6306     11.0921E-03     11.8574E-03
            6318            6306     11.0921E-03     11.8574E-03
            6335            6306     11.0921E-03     11.8574E-03
            6336            6306     11.0921E-03     11.8574E-03
            6337            6307     12.7450E-03     13.8440E-03
            6318            6307     12.7450E-03     13.8440E-03
            6319            6307     12.7450E-03     13.8440E-03
            6336            6307     12.7450E-03     13.8440E-03
            6319            6308     14.6735E-03     15.9774E-03
            6338            6308     14.6735E-03     15.9774E-03
            6320            6308     14.6735E-03     15.9774E-03
            6337            6308     14.6735E-03     15.9774E-03
            6321            6309     16.7743E-03     18.2111E-03
            6339            6309     16.7743E-03     18.2111E-03
            6338            6309     16.7743E-03     18.2111E-03
            6320            6309     16.7743E-03     18.2111E-03
            6322            6310     18.9944E-03     20.5166E-03
            6340            6310     18.9944E-03     20.5166E-03
            6339            6310     18.9944E-03     20.5166E-03
            6321            6310     18.9944E-03     20.5166E-03
            6341            6311     21.3052E-03     22.8856E-03
            6340            6311     21.3052E-03     22.8856E-03
            6323            6311     21.3052E-03     22.8856E-03
            6322            6311     21.3052E-03     22.8856E-03
            6342            6312     23.6891E-03     25.3179E-03
            6341            6312     23.6891E-03     25.3179E-03
            6323            6312     23.6891E-03     25.3179E-03
            6324            6312     23.6891E-03     25.3179E-03
            6324            6313     26.1693E-03     27.8317E-03
            6325            6313     26.1693E-03     27.8317E-03
            6343            6313     26.1693E-03     27.8317E-03
            6342            6313     26.1693E-03     27.8317E-03
            6325            6314     28.7657E-03     30.4666E-03
            6326            6314     28.7657E-03     30.4666E-03
            6343            6314     28.7657E-03     30.4666E-03
            6344            6314     28.7657E-03     30.4666E-03
            6345            6315     31.5802E-03     33.2847E-03
            6326            6315     31.5802E-03     33.2847E-03
            6327            6315     31.5802E-03     33.2847E-03
            6344            6315     31.5802E-03     33.2847E-03
            6345            6316     34.7501E-03     36.4404E-03
            6346            6316     34.7501E-03     36.4404E-03
            6328            6316     34.7501E-03     36.4404E-03
            6327            6316     34.7501E-03     36.4404E-03
            6329            6317     38.4948E-03     40.0841E-03
            6328            6317     38.4948E-03     40.0841E-03
            6347            6317     38.4948E-03     40.0841E-03
            6346            6317     38.4948E-03     40.0841E-03
            6348            6318     43.5121E-03     44.7256E-03
            6347            6318     43.5121E-03     44.7256E-03
            6329            6318     43.5121E-03     44.7256E-03
            6330            6318     43.5121E-03     44.7256E-03
            6331            6319     49.5480E-03     50.4256E-03
            6348            6319     49.5480E-03     50.4256E-03
            6349            6319     49.5480E-03     50.4256E-03
            6330            6319     49.5480E-03     50.4256E-03
            6350            6320     55.8410E-03     56.9218E-03
            6349            6320     55.8410E-03     56.9218E-03
            6332            6320     55.8410E-03     56.9218E-03
            6331            6320     55.8410E-03     56.9218E-03
            6351            6321     10.3786E-03     9.85298E-03
            6333            6321     10.3786E-03     9.85298E-03
            6334            6321     10.3786E-03     9.85298E-03
            6352            6321     10.3786E-03     9.85298E-03
            6352            6322     11.0766E-03     11.0216E-03
            6353            6322     11.0766E-03     11.0216E-03
            6334            6322     11.0766E-03     11.0216E-03
            6335            6322     11.0766E-03     11.0216E-03
            6335            6323     12.2714E-03     12.6388E-03
            6353            6323     12.2714E-03     12.6388E-03
            6336            6323     12.2714E-03     12.6388E-03
            6354            6323     12.2714E-03     12.6388E-03
            6336            6324     13.8316E-03     14.5526E-03
            6355            6324     13.8316E-03     14.5526E-03
            6354            6324     13.8316E-03     14.5526E-03
            6337            6324     13.8316E-03     14.5526E-03
            6356            6325     15.6894E-03     16.6149E-03
            6355            6325     15.6894E-03     16.6149E-03
            6338            6325     15.6894E-03     16.6149E-03
            6337            6325     15.6894E-03     16.6149E-03
            6356            6326     17.7532E-03     18.8013E-03
            6338            6326     17.7532E-03     18.8013E-03
            6339            6326     17.7532E-03     18.8013E-03
            6357            6326     17.7532E-03     18.8013E-03
            6339            6327     19.9543E-03     21.0812E-03
            6340            6327     19.9543E-03     21.0812E-03
            6358            6327     19.9543E-03     21.0812E-03
            6357            6327     19.9543E-03     21.0812E-03
            6358            6328     22.2574E-03     23.4414E-03
            6340            6328     22.2574E-03     23.4414E-03
            6359            6328     22.2574E-03     23.4414E-03
            6341            6328     22.2574E-03     23.4414E-03
            6341            6329     24.6422E-03     25.8751E-03
            6342            6329     24.6422E-03     25.8751E-03
            6360            6329     24.6422E-03     25.8751E-03
            6359            6329     24.6422E-03     25.8751E-03
            6361            6330     27.1017E-03     28.3882E-03
            6342            6330     27.1017E-03     28.3882E-03
            6343            6330     27.1017E-03     28.3882E-03
            6360            6330     27.1017E-03     28.3882E-03
            6362            6331     29.6482E-03     30.9815E-03
            6344            6331     29.6482E-03     30.9815E-03
            6361            6331     29.6482E-03     30.9815E-03
            6343            6331     29.6482E-03     30.9815E-03
            6345            6332     32.3301E-03     33.7024E-03
            6363            6332     32.3301E-03     33.7024E-03
            6362            6332     32.3301E-03     33.7024E-03
            6344            6332     32.3301E-03     33.7024E-03
            6363            6333     35.1876E-03     36.5724E-03
            6364            6333     35.1876E-03     36.5724E-03
            6346            6333     35.1876E-03     36.5724E-03
            6345            6333     35.1876E-03     36.5724E-03
            6346            6334     38.4974E-03     39.7565E-03
            6365            6334     38.4974E-03     39.7565E-03
            6364            6334     38.4974E-03     39.7565E-03
            6347            6334     38.4974E-03     39.7565E-03
            6347            6335     42.2309E-03     43.3550E-03
            6365            6335     42.2309E-03     43.3550E-03
            6348            6335     42.2309E-03     43.3550E-03
            6366            6335     42.2309E-03     43.3550E-03
            6348            6336     46.4242E-03     47.4197E-03
            6349            6336     46.4242E-03     47.4197E-03
            6367            6336     46.4242E-03     47.4197E-03
            6366            6336     46.4242E-03     47.4197E-03
            6367            6337     51.4619E-03     52.0208E-03
            6349            6337     51.4619E-03     52.0208E-03
            6350            6337     51.4619E-03     52.0208E-03
            6368            6337     51.4619E-03     52.0208E-03
            6370            6338     11.5394E-03     10.9447E-03
            6351            6338     11.5394E-03     10.9447E-03
            6369            6338     11.5394E-03     10.9447E-03
            6352            6338     11.5394E-03     10.9447E-03
            6353            6339     12.2050E-03     12.0044E-03
            6370            6339     12.2050E-03     12.0044E-03
            6352            6339     12.2050E-03     12.0044E-03
            6371            6339     12.2050E-03     12.0044E-03
            6371            6340     13.3121E-03     13.5038E-03
            6353            6340     13.3121E-03     13.5038E-03
            6354            6340     13.3121E-03     13.5038E-03
            6372            6340     13.3121E-03     13.5038E-03
            6355            6341     14.8165E-03     15.2631E-03
            6372            6341     14.8165E-03     15.2631E-03
            6373            6341     14.8165E-03     15.2631E-03
            6354            6341     14.8165E-03     15.2631E-03
            6355            6342     16.6161E-03     17.2311E-03
            6374            6342     16.6161E-03     17.2311E-03
            6373            6342     16.6161E-03     17.2311E-03
            6356            6342     16.6161E-03     17.2311E-03
            6374            6343     18.6306E-03     19.3329E-03
            6375            6343     18.6306E-03     19.3329E-03
            6356            6343     18.6306E-03     19.3329E-03
            6357            6343     18.6306E-03     19.3329E-03
            6375            6344     20.8023E-03     21.5524E-03
            6357            6344     20.8023E-03     21.5524E-03
            6376            6344     20.8023E-03     21.5524E-03
            6358            6344     20.8023E-03     21.5524E-03
            6377            6345     23.0786E-03     23.8703E-03
            6358            6345     23.0786E-03     23.8703E-03
            6359            6345     23.0786E-03     23.8703E-03
            6376            6345     23.0786E-03     23.8703E-03
            6377            6346     25.4348E-03     26.2715E-03
            6378            6346     25.4348E-03     26.2715E-03
            6360            6346     25.4348E-03     26.2715E-03
            6359            6346     25.4348E-03     26.2715E-03
            6379            6347     27.8405E-03     28.7309E-03
            6360            6347     27.8405E-03     28.7309E-03
            6378            6347     27.8405E-03     28.7309E-03
            6361            6347     27.8405E-03     28.7309E-03
            6362            6348     30.2916E-03     31.2432E-03
            6380            6348     30.2916E-03     31.2432E-03
            6379            6348     30.2916E-03     31.2432E-03
            6361            6348     30.2916E-03     31.2432E-03
            6363            6349     32.7335E-03     33.7630E-03
            6380            6349     32.7335E-03     33.7630E-03
            6362            6349     32.7335E-03     33.7630E-03
            6381            6349     32.7335E-03     33.7630E-03
            6381            6350     35.2193E-03     36.2838E-03
            6364            6350     35.2193E-03     36.2838E-03
            6382            6350     35.2193E-03     36.2838E-03
            6363            6350     35.2193E-03     36.2838E-03
            6382            6351     37.6808E-03     38.7797E-03
            6383            6351     37.6808E-03     38.7797E-03
            6364            6351     37.6808E-03     38.7797E-03
            6365            6351     37.6808E-03     38.7797E-03
            6366            6352     40.2210E-03     41.2559E-03
            6384            6352     40.2210E-03     41.2559E-03
            6365            6352     40.2210E-03     41.2559E-03
            6383            6352     40.2210E-03     41.2559E-03
            6367            6353     43.1754E-03     43.9286E-03
            6384            6353     43.1754E-03     43.9286E-03
            6366            6353     43.1754E-03     43.9286E-03
            6385            6353     43.1754E-03     43.9286E-03
            6367            6354     46.8144E-03     47.4278E-03
            6386            6354     46.8144E-03     47.4278E-03
            6368            6354     46.8144E-03     47.4278E-03
            6385            6354     46.8144E-03     47.4278E-03
            6369            6355     12.6505E-03     12.0562E-03
            6387            6355     12.6505E-03     12.0562E-03
            6388            6355     12.6505E-03     12.0562E-03
            6370            6355     12.6505E-03     12.0562E-03
            6371            6356     13.2343E-03     13.0492E-03
            6389            6356     13.2343E-03     13.0492E-03
            6370            6356     13.2343E-03     13.0492E-03
            6388            6356     13.2343E-03     13.0492E-03
            6372            6357     14.2737E-03     14.3743E-03
            6390            6357     14.2737E-03     14.3743E-03
            6389            6357     14.2737E-03     14.3743E-03
            6371            6357     14.2737E-03     14.3743E-03
            6390            6358     15.7050E-03     15.9950E-03
            6372            6358     15.7050E-03     15.9950E-03
            6391            6358     15.7050E-03     15.9950E-03
            6373            6358     15.7050E-03     15.9950E-03
            6391            6359     17.4366E-03     17.8000E-03
            6373            6359     17.4366E-03     17.8000E-03
            6392            6359     17.4366E-03     17.8000E-03
            6374            6359     17.4366E-03     17.8000E-03
            6393            6360     19.3962E-03     19.7703E-03
            6392            6360     19.3962E-03     19.7703E-03
            6374            6360     19.3962E-03     19.7703E-03
            6375            6360     19.3962E-03     19.7703E-03
            6393            6361     21.5044E-03     21.8867E-03
            6375            6361     21.5044E-03     21.8867E-03
            6376            6361     21.5044E-03     21.8867E-03
            6394            6361     21.5044E-03     21.8867E-03
            6377            6362     23.7208E-03     24.1174E-03
            6394            6362     23.7208E-03     24.1174E-03
            6395            6362     23.7208E-03     24.1174E-03
            6376            6362     23.7208E-03     24.1174E-03
            6395            6363     26.0014E-03     26.4280E-03
            6377            6363     26.0014E-03     26.4280E-03
            6396            6363     26.0014E-03     26.4280E-03
            6378            6363     26.0014E-03     26.4280E-03
            6396            6364     28.3216E-03     28.7915E-03
            6397            6364     28.3216E-03     28.7915E-03
            6378            6364     28.3216E-03     28.7915E-03
            6379            6364     28.3216E-03     28.7915E-03
            6379            6365     30.6036E-03     31.1479E-03
            6380            6365     30.6036E-03     31.1479E-03
            6398            6365     30.6036E-03     31.1479E-03
            6397            6365     30.6036E-03     31.1479E-03
            6399            6366     32.8168E-03     33.4392E-03
            6380            6366     32.8168E-03     33.4392E-03
            6398            6366     32.8168E-03     33.4392E-03
            6381            6366     32.8168E-03     33.4392E-03
            6382            6367     34.7937E-03     35.5520E-03
            6381            6367     34.7937E-03     35.5520E-03
            6400            6367     34.7937E-03     35.5520E-03
            6399            6367     34.7937E-03     35.5520E-03
            6383            6368     36.4782E-03     37.3437E-03
            6401            6368     36.4782E-03     37.3437E-03
            6400            6368     36.4782E-03     37.3437E-03
            6382            6368     36.4782E-03     37.3437E-03
            6383            6369     37.9676E-03     38.8230E-03
            6401            6369     37.9676E-03     38.8230E-03
            6384            6369     37.9676E-03     38.8230E-03
            6402            6369     37.9676E-03     38.8230E-03
            6384            6370     39.5820E-03     40.3401E-03
            6403            6370     39.5820E-03     40.3401E-03
            6385            6370     39.5820E-03     40.3401E-03
            6402            6370     39.5820E-03     40.3401E-03
            6385            6371     42.2945E-03     42.6622E-03
            6403            6371     42.2945E-03     42.6622E-03
            6404            6371     42.2945E-03     42.6622E-03
            6386            6371     42.2945E-03     42.6622E-03
            6405            6372     13.6798E-03     13.2870E-03
            6406            6372     13.6798E-03     13.2870E-03
            6388            6372     13.6798E-03     13.2870E-03
            6387            6372     13.6798E-03     13.2870E-03
            6388            6373     14.2120E-03     14.1028E-03
            6389            6373     14.2120E-03     14.1028E-03
            6407            6373     14.2120E-03     14.1028E-03
            6406            6373     14.2120E-03     14.1028E-03
            6389            6374     15.1761E-03     15.3230E-03
            6407            6374     15.1761E-03     15.3230E-03
            6408            6374     15.1761E-03     15.3230E-03
            6390            6374     15.1761E-03     15.3230E-03
            6409            6375     16.5169E-03     16.7233E-03
            6391            6375     16.5169E-03     16.7233E-03
            6390            6375     16.5169E-03     16.7233E-03
            6408            6375     16.5169E-03     16.7233E-03
            6409            6376     18.1877E-03     18.3062E-03
            6392            6376     18.1877E-03     18.3062E-03
            6410            6376     18.1877E-03     18.3062E-03
            6391            6376     18.1877E-03     18.3062E-03
            6410            6377     20.0555E-03     20.1066E-03
            6393            6377     20.0555E-03     20.1066E-03
            6392            6377     20.0555E-03     20.1066E-03
            6411            6377     20.0555E-03     20.1066E-03
            6411            6378     22.0590E-03     22.0706E-03
            6394            6378     22.0590E-03     22.0706E-03
            6412            6378     22.0590E-03     22.0706E-03
            6393            6378     22.0590E-03     22.0706E-03
            6412            6379     24.1589E-03     24.1544E-03
            6394            6379     24.1589E-03     24.1544E-03
            6395            6379     24.1589E-03     24.1544E-03
            6413            6379     24.1589E-03     24.1544E-03
            6396            6380     26.3206E-03     26.3201E-03
            6413            6380     26.3206E-03     26.3201E-03
            6395            6380     26.3206E-03     26.3201E-03
            6414            6380     26.3206E-03     26.3201E-03
            6397            6381     28.4816E-03     28.5110E-03
            6415            6381     28.4816E-03     28.5110E-03
            6414            6381     28.4816E-03     28.5110E-03
            6396            6381     28.4816E-03     28.5110E-03
            6416            6382     30.5941E-03     30.6692E-03
            6415            6382     30.5941E-03     30.6692E-03
            6398            6382     30.5941E-03     30.6692E-03
            6397            6382     30.5941E-03     30.6692E-03
            6399            6383     32.5083E-03     32.6843E-03
            6398            6383     32.5083E-03     32.6843E-03
            6417            6383     32.5083E-03     32.6843E-03
            6416            6383     32.5083E-03     32.6843E-03
            6417            6384     34.1025E-03     34.4097E-03
            6418            6384     34.1025E-03     34.4097E-03
            6400            6384     34.1025E-03     34.4097E-03
            6399            6384     34.1025E-03     34.4097E-03
            6419            6385     35.1226E-03     35.6334E-03
            6401            6385     35.1226E-03     35.6334E-03
            6418            6385     35.1226E-03     35.6334E-03
            6400            6385     35.1226E-03     35.6334E-03
            6420            6386     35.5138E-03     36.2164E-03
            6402            6386     35.5138E-03     36.2164E-03
            6401            6386     35.5138E-03     36.2164E-03
            6419            6386     35.5138E-03     36.2164E-03
            6402            6387     35.9463E-03     36.5237E-03
            6421            6387     35.9463E-03     36.5237E-03
            6420            6387     35.9463E-03     36.5237E-03
            6403            6387     35.9463E-03     36.5237E-03
            6403            6388     37.5081E-03     37.7956E-03
            6421            6388     37.5081E-03     37.7956E-03
            6404            6388     37.5081E-03     37.7956E-03
            6422            6388     37.5081E-03     37.7956E-03
            6406            6389     14.7353E-03     14.4529E-03
            6424            6389     14.7353E-03     14.4529E-03
            6423            6389     14.7353E-03     14.4529E-03
            6405            6389     14.7353E-03     14.4529E-03
            6425            6390     15.1674E-03     15.3880E-03
            6407            6390     15.1674E-03     15.3880E-03
            6424            6390     15.1674E-03     15.3880E-03
            6406            6390     15.1674E-03     15.3880E-03
            6408            6391     16.0057E-03     16.3480E-03
            6426            6391     16.0057E-03     16.3480E-03
            6407            6391     16.0057E-03     16.3480E-03
            6425            6391     16.0057E-03     16.3480E-03
            6408            6392     17.3446E-03     17.4056E-03
            6409            6392     17.3446E-03     17.4056E-03
            6427            6392     17.3446E-03     17.4056E-03
            6426            6392     17.3446E-03     17.4056E-03
            6427            6393     18.9237E-03     18.7703E-03
            6428            6393     18.9237E-03     18.7703E-03
            6409            6393     18.9237E-03     18.7703E-03
            6410            6393     18.9237E-03     18.7703E-03
            6428            6394     20.6458E-03     20.3666E-03
            6429            6394     20.6458E-03     20.3666E-03
            6411            6394     20.6458E-03     20.3666E-03
            6410            6394     20.6458E-03     20.3666E-03
            6411            6395     22.4907E-03     22.1292E-03
            6430            6395     22.4907E-03     22.1292E-03
            6429            6395     22.4907E-03     22.1292E-03
            6412            6395     22.4907E-03     22.1292E-03
            6430            6396     24.4167E-03     24.0103E-03
            6412            6396     24.4167E-03     24.0103E-03
            6413            6396     24.4167E-03     24.0103E-03
            6431            6396     24.4167E-03     24.0103E-03
            6414            6397     26.3826E-03     25.9527E-03
            6432            6397     26.3826E-03     25.9527E-03
            6431            6397     26.3826E-03     25.9527E-03
            6413            6397     26.3826E-03     25.9527E-03
            6415            6398     28.3445E-03     27.9043E-03
            6414            6398     28.3445E-03     27.9043E-03
            6432            6398     28.3445E-03     27.9043E-03
            6433            6398     28.3445E-03     27.9043E-03
            6416            6399     30.2057E-03     29.7851E-03
            6433            6399     30.2057E-03     29.7851E-03
            6415            6399     30.2057E-03     29.7851E-03
            6434            6399     30.2057E-03     29.7851E-03
            6417            6400     31.8652E-03     31.4879E-03
            6434            6400     31.8652E-03     31.4879E-03
            6435            6400     31.8652E-03     31.4879E-03
            6416            6400     31.8652E-03     31.4879E-03
            6435            6401     33.1059E-03     32.8401E-03
            6418            6401     33.1059E-03     32.8401E-03
            6436            6401     33.1059E-03     32.8401E-03
            6417            6401     33.1059E-03     32.8401E-03
            6436            6402     33.6995E-03     33.6270E-03
            6419            6402     33.6995E-03     33.6270E-03
            6437            6402     33.6995E-03     33.6270E-03
            6418            6402     33.6995E-03     33.6270E-03
            6438            6403     33.2471E-03     33.4917E-03
            6420            6403     33.2471E-03     33.4917E-03
            6437            6403     33.2471E-03     33.4917E-03
            6419            6403     33.2471E-03     33.4917E-03
            6439            6404     32.1027E-03     32.5811E-03
            6420            6404     32.1027E-03     32.5811E-03
            6438            6404     32.1027E-03     32.5811E-03
            6421            6404     32.1027E-03     32.5811E-03
            6440            6405     32.5377E-03     32.5823E-03
            6439            6405     32.5377E-03     32.5823E-03
            6421            6405     32.5377E-03     32.5823E-03
            6422            6405     32.5377E-03     32.5823E-03
            6442            6406     15.7248E-03     16.3049E-03
            6423            6406     15.7248E-03     16.3049E-03
            6424            6406     15.7248E-03     16.3049E-03
            6441            6406     15.7248E-03     16.3049E-03
            6442            6407     15.9458E-03     16.8499E-03
            6443            6407     15.9458E-03     16.8499E-03
            6425            6407     15.9458E-03     16.8499E-03
            6424            6407     15.9458E-03     16.8499E-03
            6425            6408     16.9839E-03     17.2569E-03
            6426            6408     16.9839E-03     17.2569E-03
            6444            6408     16.9839E-03     17.2569E-03
            6443            6408     16.9839E-03     17.2569E-03
            6445            6409     18.2912E-03     18.0790E-03
            6426            6409     18.2912E-03     18.0790E-03
            6444            6409     18.2912E-03     18.0790E-03
            6427            6409     18.2912E-03     18.0790E-03
            6445            6410     19.6995E-03     19.2450E-03
            6428            6410     19.6995E-03     19.2450E-03
            6427            6410     19.6995E-03     19.2450E-03
            6446            6410     19.6995E-03     19.2450E-03
            6429            6411     21.2355E-03     20.6190E-03
            6428            6411     21.2355E-03     20.6190E-03
            6446            6411     21.2355E-03     20.6190E-03
            6447            6411     21.2355E-03     20.6190E-03
            6430            6412     22.8613E-03     22.1471E-03
            6429            6412     22.8613E-03     22.1471E-03
            6447            6412     22.8613E-03     22.1471E-03
            6448            6412     22.8613E-03     22.1471E-03
            6448            6413     24.5486E-03     23.7617E-03
            6431            6413     24.5486E-03     23.7617E-03
            6449            6413     24.5486E-03     23.7617E-03
            6430            6413     24.5486E-03     23.7617E-03
            6431            6414     26.2594E-03     25.4113E-03
            6449            6414     26.2594E-03     25.4113E-03
            6450            6414     26.2594E-03     25.4113E-03
            6432            6414     26.2594E-03     25.4113E-03
            6433            6415     27.9330E-03     27.0348E-03
            6450            6415     27.9330E-03     27.0348E-03
            6451            6415     27.9330E-03     27.0348E-03
            6432            6415     27.9330E-03     27.0348E-03
            6433            6416     29.4980E-03     28.5526E-03
            6451            6416     29.4980E-03     28.5526E-03
            6452            6416     29.4980E-03     28.5526E-03
            6434            6416     29.4980E-03     28.5526E-03
            6434            6417     30.8367E-03     29.8604E-03
            6435            6417     30.8367E-03     29.8604E-03
            6453            6417     30.8367E-03     29.8604E-03
            6452            6417     30.8367E-03     29.8604E-03
            6453            6418     31.7756E-03     30.8030E-03
            6436            6418     31.7756E-03     30.8030E-03
            6454            6418     31.7756E-03     30.8030E-03
            6435            6418     31.7756E-03     30.8030E-03
            6454            6419     32.0537E-03     31.1424E-03
            6436            6419     32.0537E-03     31.1424E-03
            6455            6419     32.0537E-03     31.1424E-03
            6437            6419     32.0537E-03     31.1424E-03
            6437            6420     31.2849E-03     30.5900E-03
            6438            6420     31.2849E-03     30.5900E-03
            6456            6420     31.2849E-03     30.5900E-03
            6455            6420     31.2849E-03     30.5900E-03
            6457            6421     28.7624E-03     28.5379E-03
            6439            6421     28.7624E-03     28.5379E-03
            6456            6421     28.7624E-03     28.5379E-03
            6438            6421     28.7624E-03     28.5379E-03
            6457            6422     27.1523E-03     27.0376E-03
            6458            6422     27.1523E-03     27.0376E-03
            6439            6422     27.1523E-03     27.0376E-03
            6440            6422     27.1523E-03     27.0376E-03
            6460            6423     16.3253E-03     18.1646E-03
            6459            6423     16.3253E-03     18.1646E-03
            6442            6423     16.3253E-03     18.1646E-03
            6441            6423     16.3253E-03     18.1646E-03
            6460            6424     17.1977E-03     17.8178E-03
            6442            6424     17.1977E-03     17.8178E-03
            6461            6424     17.1977E-03     17.8178E-03
            6443            6424     17.1977E-03     17.8178E-03
            6461            6425     18.2846E-03     18.0627E-03
            6443            6425     18.2846E-03     18.0627E-03
            6444            6425     18.2846E-03     18.0627E-03
            6462            6425     18.2846E-03     18.0627E-03
            6445            6426     19.3901E-03     18.8225E-03
            6463            6426     19.3901E-03     18.8225E-03
            6462            6426     19.3901E-03     18.8225E-03
            6444            6426     19.3901E-03     18.8225E-03
            6445            6427     20.5879E-03     19.8180E-03
            6446            6427     20.5879E-03     19.8180E-03
            6463            6427     20.5879E-03     19.8180E-03
            6464            6427     20.5879E-03     19.8180E-03
            6465            6428     21.8951E-03     20.9826E-03
            6464            6428     21.8951E-03     20.9826E-03
            6446            6428     21.8951E-03     20.9826E-03
            6447            6428     21.8951E-03     20.9826E-03
            6466            6429     23.2660E-03     22.2487E-03
            6465            6429     23.2660E-03     22.2487E-03
            6448            6429     23.2660E-03     22.2487E-03
            6447            6429     23.2660E-03     22.2487E-03
            6448            6430     24.6760E-03     23.5569E-03
            6466            6430     24.6760E-03     23.5569E-03
            6467            6430     24.6760E-03     23.5569E-03
            6449            6430     24.6760E-03     23.5569E-03
            6468            6431     26.0679E-03     24.8556E-03
            6449            6431     26.0679E-03     24.8556E-03
            6450            6431     26.0679E-03     24.8556E-03
            6467            6431     26.0679E-03     24.8556E-03
            6451            6432     27.3900E-03     26.0715E-03
            6468            6432     27.3900E-03     26.0715E-03
            6450            6432     27.3900E-03     26.0715E-03
            6469            6432     27.3900E-03     26.0715E-03
            6470            6433     28.5685E-03     27.1375E-03
            6452            6433     28.5685E-03     27.1375E-03
            6469            6433     28.5685E-03     27.1375E-03
            6451            6433     28.5685E-03     27.1375E-03
            6453            6434     29.4974E-03     27.9343E-03
            6452            6434     29.4974E-03     27.9343E-03
            6470            6434     29.4974E-03     27.9343E-03
            6471            6434     29.4974E-03     27.9343E-03
            6453            6435     30.0666E-03     28.3457E-03
            6471            6435     30.0666E-03     28.3457E-03
            6454            6435     30.0666E-03     28.3457E-03
            6472            6435     30.0666E-03     28.3457E-03
            6473            6436     30.0237E-03     28.1441E-03
            6455            6436     30.0237E-03     28.1441E-03
            6472            6436     30.0237E-03     28.1441E-03
            6454            6436     30.0237E-03     28.1441E-03
            6455            6437     29.1496E-03     27.0922E-03
            6474            6437     29.1496E-03     27.0922E-03
            6473            6437     29.1496E-03     27.0922E-03
            6456            6437     29.1496E-03     27.0922E-03
            6474            6438     26.5843E-03     24.5305E-03
            6475            6438     26.5843E-03     24.5305E-03
            6456            6438     26.5843E-03     24.5305E-03
            6457            6438     26.5843E-03     24.5305E-03
            6458            6439     22.6733E-03     21.1186E-03
            6457            6439     22.6733E-03     21.1186E-03
            6475            6439     22.6733E-03     21.1186E-03
            6476            6439     22.6733E-03     21.1186E-03
            6460            6440     12.4294E-03     13.9773E-03
            6459            6440     12.4294E-03     13.9773E-03
            6478            6440     12.4294E-03     13.9773E-03
            6477            6440     12.4294E-03     13.9773E-03
            6478            6441     13.3850E-03     13.7079E-03
            6479            6441     13.3850E-03     13.7079E-03
            6460            6441     13.3850E-03     13.7079E-03
            6461            6441     13.3850E-03     13.7079E-03
            6461            6442     13.8530E-03     13.9184E-03
            6462            6442     13.8530E-03     13.9184E-03
            6479            6442     13.8530E-03     13.9184E-03
            6480            6442     13.8530E-03     13.9184E-03
            6480            6443     14.3632E-03     14.4702E-03
            6463            6443     14.3632E-03     14.4702E-03
            6481            6443     14.3632E-03     14.4702E-03
            6462            6443     14.3632E-03     14.4702E-03
            6464            6444     14.9199E-03     15.0568E-03
            6463            6444     14.9199E-03     15.0568E-03
            6481            6444     14.9199E-03     15.0568E-03
            6482            6444     14.9199E-03     15.0568E-03
            6465            6445     15.5617E-03     15.7425E-03
            6464            6445     15.5617E-03     15.7425E-03
            6483            6445     15.5617E-03     15.7425E-03
            6482            6445     15.5617E-03     15.7425E-03
            6465            6446     16.2492E-03     16.4672E-03
            6466            6446     16.2492E-03     16.4672E-03
            6483            6446     16.2492E-03     16.4672E-03
            6484            6446     16.2492E-03     16.4672E-03
            6466            6447     16.9689E-03     17.2206E-03
            6467            6447     16.9689E-03     17.2206E-03
            6484            6447     16.9689E-03     17.2206E-03
            6485            6447     16.9689E-03     17.2206E-03
            6485            6448     17.6880E-03     17.9607E-03
            6486            6448     17.6880E-03     17.9607E-03
            6468            6448     17.6880E-03     17.9607E-03
            6467            6448     17.6880E-03     17.9607E-03
            6468            6449     18.3856E-03     18.6655E-03
            6487            6449     18.3856E-03     18.6655E-03
            6469            6449     18.3856E-03     18.6655E-03
            6486            6449     18.3856E-03     18.6655E-03
            6469            6450     19.0073E-03     19.2727E-03
            6487            6450     19.0073E-03     19.2727E-03
            6470            6450     19.0073E-03     19.2727E-03
            6488            6450     19.0073E-03     19.2727E-03
            6471            6451     19.5228E-03     19.7489E-03
            6489            6451     19.5228E-03     19.7489E-03
            6470            6451     19.5228E-03     19.7489E-03
            6488            6451     19.5228E-03     19.7489E-03
            6489            6452     19.8202E-03     19.9799E-03
            6490            6452     19.8202E-03     19.9799E-03
            6471            6452     19.8202E-03     19.9799E-03
            6472            6452     19.8202E-03     19.9799E-03
            6473            6453     19.8372E-03     19.9129E-03
            6491            6453     19.8372E-03     19.9129E-03
            6490            6453     19.8372E-03     19.9129E-03
            6472            6453     19.8372E-03     19.9129E-03
            6473            6454     19.4294E-03     19.4204E-03
            6492            6454     19.4294E-03     19.4204E-03
            6474            6454     19.4294E-03     19.4204E-03
            6491            6454     19.4294E-03     19.4204E-03
            6493            6455     18.8920E-03     18.9015E-03
            6475            6455     18.8920E-03     18.9015E-03
            6492            6455     18.8920E-03     18.9015E-03
            6474            6455     18.8920E-03     18.9015E-03
            6494            6456     19.8184E-03     20.6470E-03
            6493            6456     19.8184E-03     20.6470E-03
            6476            6456     19.8184E-03     20.6470E-03
            6475            6456     19.8184E-03     20.6470E-03
            6477            6457     8.86611E-03     9.33494E-03
            6496            6457     8.86611E-03     9.33494E-03
            6478            6457     8.86611E-03     9.33494E-03
            6495            6457     8.86611E-03     9.33494E-03
            6479            6458     8.89153E-03     9.30931E-03
            6497            6458     8.89153E-03     9.30931E-03
            6478            6458     8.89153E-03     9.30931E-03
            6496            6458     8.89153E-03     9.30931E-03
            6480            6459     8.94111E-03     9.46629E-03
            6479            6459     8.94111E-03     9.46629E-03
            6498            6459     8.94111E-03     9.46629E-03
            6497            6459     8.94111E-03     9.46629E-03
            6480            6460     8.96832E-03     9.70661E-03
            6499            6460     8.96832E-03     9.70661E-03
            6498            6460     8.96832E-03     9.70661E-03
            6481            6460     8.96832E-03     9.70661E-03
            6500            6461     9.03479E-03     9.93751E-03
            6481            6461     9.03479E-03     9.93751E-03
            6482            6461     9.03479E-03     9.93751E-03
            6499            6461     9.03479E-03     9.93751E-03
            6500            6462     9.15310E-03     10.2147E-03
            6482            6462     9.15310E-03     10.2147E-03
            6501            6462     9.15310E-03     10.2147E-03
            6483            6462     9.15310E-03     10.2147E-03
            6502            6463     9.30985E-03     10.5109E-03
            6501            6463     9.30985E-03     10.5109E-03
            6484            6463     9.30985E-03     10.5109E-03
            6483            6463     9.30985E-03     10.5109E-03
            6485            6464     9.50383E-03     10.8434E-03
            6484            6464     9.50383E-03     10.8434E-03
            6502            6464     9.50383E-03     10.8434E-03
            6503            6464     9.50383E-03     10.8434E-03
            6503            6465     9.74091E-03     11.1952E-03
            6485            6465     9.74091E-03     11.1952E-03
            6486            6465     9.74091E-03     11.1952E-03
            6504            6465     9.74091E-03     11.1952E-03
            6504            6466     10.0116E-03     11.5812E-03
            6487            6466     10.0116E-03     11.5812E-03
            6505            6466     10.0116E-03     11.5812E-03
            6486            6466     10.0116E-03     11.5812E-03
            6488            6467     10.3255E-03     11.9816E-03
            6487            6467     10.3255E-03     11.9816E-03
            6505            6467     10.3255E-03     11.9816E-03
            6506            6467     10.3255E-03     11.9816E-03
            6506            6468     10.6686E-03     12.4101E-03
            6488            6468     10.6686E-03     12.4101E-03
            6489            6468     10.6686E-03     12.4101E-03
            6507            6468     10.6686E-03     12.4101E-03
            6490            6469     11.0042E-03     12.8195E-03
            6489            6469     11.0042E-03     12.8195E-03
            6508            6469     11.0042E-03     12.8195E-03
            6507            6469     11.0042E-03     12.8195E-03
            6508            6470     11.3749E-03     13.2771E-03
            6491            6470     11.3749E-03     13.2771E-03
            6509            6470     11.3749E-03     13.2771E-03
            6490            6470     11.3749E-03     13.2771E-03
            6509            6471     11.5173E-03     13.6571E-03
            6510            6471     11.5173E-03     13.6571E-03
            6492            6471     11.5173E-03     13.6571E-03
            6491            6471     11.5173E-03     13.6571E-03
            6493            6472     12.7576E-03     14.9906E-03
            6511            6472     12.7576E-03     14.9906E-03
            6510            6472     12.7576E-03     14.9906E-03
            6492            6472     12.7576E-03     14.9906E-03
            6494            6473     18.0563E-03     20.0419E-03
            6512            6473     18.0563E-03     20.0419E-03
            6511            6473     18.0563E-03     20.0419E-03
            6493            6473     18.0563E-03     20.0419E-03
            6514            6474     9.86543E-03     8.95392E-03
            6513            6474     9.86543E-03     8.95392E-03
            6495            6474     9.86543E-03     8.95392E-03
            6496            6474     9.86543E-03     8.95392E-03
            6496            6475     9.51679E-03     9.46133E-03
            6515            6475     9.51679E-03     9.46133E-03
            6497            6475     9.51679E-03     9.46133E-03
            6514            6475     9.51679E-03     9.46133E-03
            6515            6476     9.38412E-03     9.64448E-03
            6498            6476     9.38412E-03     9.64448E-03
            6516            6476     9.38412E-03     9.64448E-03
            6497            6476     9.38412E-03     9.64448E-03
            6516            6477     9.46184E-03     9.73683E-03
            6498            6477     9.46184E-03     9.73683E-03
            6499            6477     9.46184E-03     9.73683E-03
            6517            6477     9.46184E-03     9.73683E-03
            6518            6478     9.58840E-03     9.91553E-03
            6517            6478     9.58840E-03     9.91553E-03
            6499            6478     9.58840E-03     9.91553E-03
            6500            6478     9.58840E-03     9.91553E-03
            6519            6479     9.74308E-03     10.1284E-03
            6518            6479     9.74308E-03     10.1284E-03
            6500            6479     9.74308E-03     10.1284E-03
            6501            6479     9.74308E-03     10.1284E-03
            6520            6480     9.93893E-03     10.3795E-03
            6501            6480     9.93893E-03     10.3795E-03
            6502            6480     9.93893E-03     10.3795E-03
            6519            6480     9.93893E-03     10.3795E-03
            6503            6481     10.1675E-03     10.6543E-03
            6520            6481     10.1675E-03     10.6543E-03
            6502            6481     10.1675E-03     10.6543E-03
            6521            6481     10.1675E-03     10.6543E-03
            6521            6482     10.4282E-03     10.9629E-03
            6522            6482     10.4282E-03     10.9629E-03
            6503            6482     10.4282E-03     10.9629E-03
            6504            6482     10.4282E-03     10.9629E-03
            6522            6483     10.7247E-03     11.2959E-03
            6523            6483     10.7247E-03     11.2959E-03
            6504            6483     10.7247E-03     11.2959E-03
            6505            6483     10.7247E-03     11.2959E-03
            6523            6484     11.0629E-03     11.6731E-03
            6505            6484     11.0629E-03     11.6731E-03
            6506            6484     11.0629E-03     11.6731E-03
            6524            6484     11.0629E-03     11.6731E-03
            6524            6485     11.4530E-03     12.0917E-03
            6525            6485     11.4530E-03     12.0917E-03
            6506            6485     11.4530E-03     12.0917E-03
            6507            6485     11.4530E-03     12.0917E-03
            6507            6486     11.9231E-03     12.5867E-03
            6525            6486     11.9231E-03     12.5867E-03
            6508            6486     11.9231E-03     12.5867E-03
            6526            6486     11.9231E-03     12.5867E-03
            6526            6487     12.4358E-03     13.1270E-03
            6508            6487     12.4358E-03     13.1270E-03
            6527            6487     12.4358E-03     13.1270E-03
            6509            6487     12.4358E-03     13.1270E-03
            6528            6488     12.8742E-03     13.6108E-03
            6527            6488     12.8742E-03     13.6108E-03
            6510            6488     12.8742E-03     13.6108E-03
            6509            6488     12.8742E-03     13.6108E-03
            6528            6489     12.9503E-03     13.7634E-03
            6529            6489     12.9503E-03     13.7634E-03
            6510            6489     12.9503E-03     13.7634E-03
            6511            6489     12.9503E-03     13.7634E-03
            6529            6490     14.3596E-03     14.2656E-03
            6512            6490     14.3596E-03     14.2656E-03
            6511            6490     14.3596E-03     14.2656E-03
            6530            6490     14.3596E-03     14.2656E-03
            6514            6491     10.2368E-03     9.35992E-03
            6532            6491     10.2368E-03     9.35992E-03
            6531            6491     10.2368E-03     9.35992E-03
            6513            6491     10.2368E-03     9.35992E-03
            6514            6492     9.93735E-03     9.74140E-03
            6532            6492     9.93735E-03     9.74140E-03
            6533            6492     9.93735E-03     9.74140E-03
            6515            6492     9.93735E-03     9.74140E-03
            6516            6493     9.89233E-03     9.82182E-03
            6533            6493     9.89233E-03     9.82182E-03
            6515            6493     9.89233E-03     9.82182E-03
            6534            6493     9.89233E-03     9.82182E-03
            6534            6494     10.0277E-03     9.85886E-03
            6517            6494     10.0277E-03     9.85886E-03
            6535            6494     10.0277E-03     9.85886E-03
            6516            6494     10.0277E-03     9.85886E-03
            6535            6495     10.1943E-03     9.97849E-03
            6518            6495     10.1943E-03     9.97849E-03
            6517            6495     10.1943E-03     9.97849E-03
            6536            6495     10.1943E-03     9.97849E-03
            6537            6496     10.3900E-03     10.1343E-03
            6519            6496     10.3900E-03     10.1343E-03
            6536            6496     10.3900E-03     10.1343E-03
            6518            6496     10.3900E-03     10.1343E-03
            6520            6497     10.6153E-03     10.3252E-03
            6537            6497     10.6153E-03     10.3252E-03
            6538            6497     10.6153E-03     10.3252E-03
            6519            6497     10.6153E-03     10.3252E-03
            6520            6498     10.8682E-03     10.5428E-03
            6521            6498     10.8682E-03     10.5428E-03
            6539            6498     10.8682E-03     10.5428E-03
            6538            6498     10.8682E-03     10.5428E-03
            6521            6499     11.1444E-03     10.7863E-03
            6522            6499     11.1444E-03     10.7863E-03
            6539            6499     11.1444E-03     10.7863E-03
            6540            6499     11.1444E-03     10.7863E-03
            6522            6500     11.4496E-03     11.0604E-03
            6540            6500     11.4496E-03     11.0604E-03
            6523            6500     11.4496E-03     11.0604E-03
            6541            6500     11.4496E-03     11.0604E-03
            6541            6501     11.7864E-03     11.3670E-03
            6523            6501     11.7864E-03     11.3670E-03
            6542            6501     11.7864E-03     11.3670E-03
            6524            6501     11.7864E-03     11.3670E-03
            6525            6502     12.1759E-03     11.7300E-03
            6542            6502     12.1759E-03     11.7300E-03
            6524            6502     12.1759E-03     11.7300E-03
            6543            6502     12.1759E-03     11.7300E-03
            6526            6503     12.6441E-03     12.1763E-03
            6543            6503     12.6441E-03     12.1763E-03
            6544            6503     12.6441E-03     12.1763E-03
            6525            6503     12.6441E-03     12.1763E-03
            6545            6504     13.1117E-03     12.5968E-03
            6526            6504     13.1117E-03     12.5968E-03
            6544            6504     13.1117E-03     12.5968E-03
            6527            6504     13.1117E-03     12.5968E-03
            6545            6505     13.5426E-03     12.9375E-03
            6546            6505     13.5426E-03     12.9375E-03
            6528            6505     13.5426E-03     12.9375E-03
            6527            6505     13.5426E-03     12.9375E-03
            6546            6506     11.7461E-03     11.5154E-03
            6547            6506     11.7461E-03     11.5154E-03
            6528            6506     11.7461E-03     11.5154E-03
            6529            6506     11.7461E-03     11.5154E-03
            6530            6507     9.45027E-03     9.45222E-03
            6529            6507     9.45027E-03     9.45222E-03
            6548            6507     9.45027E-03     9.45222E-03
            6547            6507     9.45027E-03     9.45222E-03
            6531            6508     9.99292E-03     10.3904E-03
            6549            6508     9.99292E-03     10.3904E-03
            6532            6508     9.99292E-03     10.3904E-03
            6550            6508     9.99292E-03     10.3904E-03
            6551            6509     10.2212E-03     10.0800E-03
            6550            6509     10.2212E-03     10.0800E-03
            6532            6509     10.2212E-03     10.0800E-03
            6533            6509     10.2212E-03     10.0800E-03
            6534            6510     10.4647E-03     10.0083E-03
            6533            6510     10.4647E-03     10.0083E-03
            6552            6510     10.4647E-03     10.0083E-03
            6551            6510     10.4647E-03     10.0083E-03
            6535            6511     10.6495E-03     10.0711E-03
            6534            6511     10.6495E-03     10.0711E-03
            6552            6511     10.6495E-03     10.0711E-03
            6553            6511     10.6495E-03     10.0711E-03
            6536            6512     10.8495E-03     10.1299E-03
            6535            6512     10.8495E-03     10.1299E-03
            6554            6512     10.8495E-03     10.1299E-03
            6553            6512     10.8495E-03     10.1299E-03
            6537            6513     11.0834E-03     10.2362E-03
            6536            6513     11.0834E-03     10.2362E-03
            6554            6513     11.0834E-03     10.2362E-03
            6555            6513     11.0834E-03     10.2362E-03
            6538            6514     11.3352E-03     10.3619E-03
            6537            6514     11.3352E-03     10.3619E-03
            6556            6514     11.3352E-03     10.3619E-03
            6555            6514     11.3352E-03     10.3619E-03
            6556            6515     11.6056E-03     10.5187E-03
            6557            6515     11.6056E-03     10.5187E-03
            6538            6515     11.6056E-03     10.5187E-03
            6539            6515     11.6056E-03     10.5187E-03
            6557            6516     11.8945E-03     10.6944E-03
            6539            6516     11.8945E-03     10.6944E-03
            6558            6516     11.8945E-03     10.6944E-03
            6540            6516     11.8945E-03     10.6944E-03
            6541            6517     12.1945E-03     10.8923E-03
            6540            6517     12.1945E-03     10.8923E-03
            6558            6517     12.1945E-03     10.8923E-03
            6559            6517     12.1945E-03     10.8923E-03
            6560            6518     12.5086E-03     11.1053E-03
            6559            6518     12.5086E-03     11.1053E-03
            6541            6518     12.5086E-03     11.1053E-03
            6542            6518     12.5086E-03     11.1053E-03
            6543            6519     12.8310E-03     11.3228E-03
            6542            6519     12.8310E-03     11.3228E-03
            6561            6519     12.8310E-03     11.3228E-03
            6560            6519     12.8310E-03     11.3228E-03
            6544            6520     13.1115E-03     11.5136E-03
            6543            6520     13.1115E-03     11.5136E-03
            6561            6520     13.1115E-03     11.5136E-03
            6562            6520     13.1115E-03     11.5136E-03
            6545            6521     13.2914E-03     11.5590E-03
            6544            6521     13.2914E-03     11.5590E-03
            6563            6521     13.2914E-03     11.5590E-03
            6562            6521     13.2914E-03     11.5590E-03
            6546            6522     12.7700E-03     10.9485E-03
            6545            6522     12.7700E-03     10.9485E-03
            6563            6522     12.7700E-03     10.9485E-03
            6564            6522     12.7700E-03     10.9485E-03
            6547            6523     10.5579E-03     8.69577E-03
            6546            6523     10.5579E-03     8.69577E-03
            6565            6523     10.5579E-03     8.69577E-03
            6564            6523     10.5579E-03     8.69577E-03
            6547            6524     7.40065E-03     7.52783E-03
            6565            6524     7.40065E-03     7.52783E-03
            6548            6524     7.40065E-03     7.52783E-03
            6566            6524     7.40065E-03     7.52783E-03


  Minimum                            168.699E-18     270.299E-18
      At Element                            5088            5106
            Node                            5227            5244

  Maximum                            187.961E-03     197.365E-03
      At Element                            3428            4066
            Node                             182               8

           Total                         372.488         382.257


Field Output reported at element nodes for region: A320-1.Region_2
   Computation algorithm: EXTRAPOLATE_COMPUTE_AVERAGE
   Averaged at nodes
   Averaging regions: ODB_REGIONS

   Element Label      Node Label         S.Mises         S.Mises
                                          @Loc 1          @Loc 2
-----------------------------------------------------------------
            2235               3     10.5866E-03     10.6932E-03
            1793               3     10.5866E-03     10.6932E-03
            2262               4     2.82672E-15     2.65919E-15
            3913               6     161.138E-03     154.227E-03
            2234               6     161.138E-03     154.227E-03
            3958               8     188.754E-03     176.065E-03
            3859               8     188.754E-03     176.065E-03
            3904              10     141.587E-03     135.032E-03
            5387              10     141.587E-03     135.032E-03
            5325              13     12.7654E-03     12.7937E-03
            5730              13     12.7654E-03     12.7937E-03
            5370              14     2.74064E-15     2.75551E-15
            5738              15     12.7654E-03     12.7937E-03
            5333              15     12.7654E-03     12.7937E-03
            1785              17     10.5866E-03     10.6932E-03
            2243              17     10.5866E-03     10.6932E-03
            2270              18     6.97200E-15     6.44639E-15
            2226              21     161.138E-03     154.227E-03
            3905              21     161.138E-03     154.227E-03
            3851              22     188.754E-03     176.065E-03
            3950              22     188.754E-03     176.065E-03
            3896              25     141.587E-03     135.032E-03
            5379              25     141.587E-03     135.032E-03
            5378              27     4.90205E-15     4.78780E-15
            2235              38     4.04961E-15     3.65266E-15
            2244              38     4.04961E-15     3.65266E-15
            2244              39     7.04966E-15     6.70816E-15
            2253              39     7.04966E-15     6.70816E-15
            2262              40     5.93643E-15     5.74476E-15
            2253              40     5.93643E-15     5.74476E-15
            2225             102     170.150E-03     164.077E-03
            2234             102     170.150E-03     164.077E-03
            2225             103     160.811E-03     160.666E-03
            2216             103     160.811E-03     160.666E-03
            2207             104     154.972E-03     153.309E-03
            2216             104     154.972E-03     153.309E-03
            2207             105     150.684E-03     149.027E-03
            2198             105     150.684E-03     149.027E-03
            2198             106     145.812E-03     143.992E-03
            2189             106     145.812E-03     143.992E-03
            2189             107     140.786E-03     139.629E-03
            2180             107     140.786E-03     139.629E-03
            2180             108     135.158E-03     134.234E-03
            2171             108     135.158E-03     134.234E-03
            2162             109     128.872E-03     130.241E-03
            2171             109     128.872E-03     130.241E-03
            2162             110     121.801E-03     117.002E-03
            2153             110     121.801E-03     117.002E-03
            2153             111     131.028E-03     118.869E-03
            2144             111     131.028E-03     118.869E-03
            2144             112     138.905E-03     134.078E-03
            2135             112     138.905E-03     134.078E-03
            2126             113     129.830E-03     129.545E-03
            2135             113     129.830E-03     129.545E-03
            2117             114     123.992E-03     122.635E-03
            2126             114     123.992E-03     122.635E-03
            2117             115     119.685E-03     118.143E-03
            2108             115     119.685E-03     118.143E-03
            2108             116     114.882E-03     113.372E-03
            2099             116     114.882E-03     113.372E-03
            2090             117     110.252E-03     108.850E-03
            2099             117     110.252E-03     108.850E-03
            2081             118     105.340E-03     104.357E-03
            2090             118     105.340E-03     104.357E-03
            2081             119     99.9861E-03     99.4041E-03
            2072             119     99.9861E-03     99.4041E-03
            2072             120     93.8511E-03     95.0648E-03
            2063             120     93.8511E-03     95.0648E-03
            2063             121     86.7365E-03     83.2480E-03
            2054             121     86.7365E-03     83.2480E-03
            2054             122     95.8551E-03     86.9647E-03
            2045             122     95.8551E-03     86.9647E-03
            2045             123     103.803E-03     100.366E-03
            2036             123     103.803E-03     100.366E-03
            2036             124     95.0403E-03     94.7059E-03
            2027             124     95.0403E-03     94.7059E-03
            2027             125     89.1834E-03     88.1919E-03
            2018             125     89.1834E-03     88.1919E-03
            2018             126     84.7592E-03     83.6493E-03
            2009             126     84.7592E-03     83.6493E-03
            2009             127     79.9883E-03     78.9620E-03
            2000             127     79.9883E-03     78.9620E-03
            1991             128     75.4192E-03     74.5020E-03
            2000             128     75.4192E-03     74.5020E-03
            1982             129     70.6086E-03     70.0566E-03
            1991             129     70.6086E-03     70.0566E-03
            1982             130     65.5075E-03     65.3037E-03
            1973             130     65.5075E-03     65.3037E-03
            1973             131     59.5982E-03     60.7837E-03
            1964             131     59.5982E-03     60.7837E-03
            1955             132     52.5190E-03     50.5261E-03
            1964             132     52.5190E-03     50.5261E-03
            1955             133     61.2381E-03     55.8317E-03
            1946             133     61.2381E-03     55.8317E-03
            1946             134     69.1073E-03     67.0877E-03
            1937             134     69.1073E-03     67.0877E-03
            1928             135     60.7493E-03     60.4304E-03
            1937             135     60.7493E-03     60.4304E-03
            1919             136     54.9840E-03     54.3958E-03
            1928             136     54.9840E-03     54.3958E-03
            1919             137     50.5692E-03     49.9167E-03
            1910             137     50.5692E-03     49.9167E-03
            1910             138     45.9905E-03     45.4620E-03
            1901             138     45.9905E-03     45.4620E-03
            1892             139     41.6806E-03     41.2673E-03
            1901             139     41.6806E-03     41.2673E-03
            1883             140     37.2672E-03     37.1618E-03
            1892             140     37.2672E-03     37.1618E-03
            1883             141     32.7962E-03     33.0394E-03
            1874             141     32.7962E-03     33.0394E-03
            1865             142     27.9361E-03     29.1473E-03
            1874             142     27.9361E-03     29.1473E-03
            1856             143     22.8300E-03     22.9073E-03
            1865             143     22.8300E-03     22.9073E-03
            1847             144     29.2578E-03     27.6842E-03
            1856             144     29.2578E-03     27.6842E-03
            1838             145     34.1030E-03     33.4186E-03
            1847             145     34.1030E-03     33.4186E-03
            1829             146     26.7510E-03     26.6585E-03
            1838             146     26.7510E-03     26.6585E-03
            1820             147     22.0657E-03     22.0823E-03
            1829             147     22.0657E-03     22.0823E-03
            1811             148     19.1226E-03     19.3070E-03
            1820             148     19.1226E-03     19.3070E-03
            1811             149     17.7729E-03     18.2689E-03
            1802             149     17.7729E-03     18.2689E-03
            1802             150     19.5790E-03     19.9703E-03
            1793             150     19.5790E-03     19.9703E-03
            3958             162     181.469E-03     177.183E-03
            3949             162     181.469E-03     177.183E-03
            3940             163     171.285E-03     173.374E-03
            3949             163     171.285E-03     173.374E-03
            3940             164     163.719E-03     166.493E-03
            3931             164     163.719E-03     166.493E-03
            3922             165     156.621E-03     153.069E-03
            3931             165     156.621E-03     153.069E-03
            3922             166     149.344E-03     143.387E-03
            3913             166     149.344E-03     143.387E-03
            3904             178     148.480E-03     144.049E-03
            3895             178     148.480E-03     144.049E-03
            3886             179     158.001E-03     160.388E-03
            3895             179     158.001E-03     160.388E-03
            3886             180     165.013E-03     165.563E-03
            3877             180     165.013E-03     165.563E-03
            3868             181     173.766E-03     175.055E-03
            3877             181     173.766E-03     175.055E-03
            3859             182     185.225E-03     179.548E-03
            3868             182     185.225E-03     179.548E-03
            5325             194     2.15983E-15     1.98634E-15
            5334             194     2.15983E-15     1.98634E-15
            5334             195     1.79519E-15     1.66423E-15
            5343             195     1.79519E-15     1.66423E-15
            5343             196     2.37170E-15     2.34937E-15
            5352             196     2.37170E-15     2.34937E-15
            5352             197     4.09809E-15     4.11005E-15
            5361             197     4.09809E-15     4.11005E-15
            5370             198     3.75912E-15     3.79905E-15
            5361             198     3.75912E-15     3.79905E-15
            5738             250     24.3179E-03     24.5039E-03
            5729             250     24.3179E-03     24.5039E-03
            5720             251     23.0956E-03     23.4949E-03
            5729             251     23.0956E-03     23.4949E-03
            5720             252     26.5456E-03     26.7017E-03
            5711             252     26.5456E-03     26.7017E-03
            5711             253     34.3479E-03     33.8606E-03
            5702             253     34.3479E-03     33.8606E-03
            5702             254     30.5986E-03     29.6868E-03
            5693             254     30.5986E-03     29.6868E-03
            5693             255     24.2546E-03     24.9578E-03
            5684             255     24.2546E-03     24.9578E-03
            5684             256     28.5854E-03     30.0622E-03
            5675             256     28.5854E-03     30.0622E-03
            5666             257     33.6624E-03     34.1229E-03
            5675             257     33.6624E-03     34.1229E-03
            5666             258     38.7192E-03     38.7239E-03
            5657             258     38.7192E-03     38.7239E-03
            5657             259     43.8348E-03     43.4731E-03
            5648             259     43.8348E-03     43.4731E-03
            5648             260     48.9321E-03     48.4113E-03
            5639             260     48.9321E-03     48.4113E-03
            5639             261     54.4019E-03     53.7210E-03
            5630             261     54.4019E-03     53.7210E-03
            5630             262     59.7472E-03     59.1414E-03
            5621             262     59.7472E-03     59.1414E-03
            5621             263     66.7807E-03     66.4013E-03
            5612             263     66.7807E-03     66.4013E-03
            5603             264     76.9180E-03     74.7456E-03
            5612             264     76.9180E-03     74.7456E-03
            5594             265     67.0776E-03     61.1329E-03
            5603             265     67.0776E-03     61.1329E-03
            5585             266     56.1762E-03     53.9802E-03
            5594             266     56.1762E-03     53.9802E-03
            5576             267     64.6319E-03     66.1422E-03
            5585             267     64.6319E-03     66.1422E-03
            5567             268     71.7206E-03     71.5647E-03
            5576             268     71.7206E-03     71.5647E-03
            5567             269     77.8197E-03     77.3093E-03
            5558             269     77.8197E-03     77.3093E-03
            5549             270     83.5746E-03     82.4738E-03
            5558             270     83.5746E-03     82.4738E-03
            5549             271     89.0635E-03     87.9332E-03
            5540             271     89.0635E-03     87.9332E-03
            5531             272     94.5306E-03     93.2048E-03
            5540             272     94.5306E-03     93.2048E-03
            5522             273     100.218E-03     98.9336E-03
            5531             273     100.218E-03     98.9336E-03
            5522             274     105.577E-03     104.421E-03
            5513             274     105.577E-03     104.421E-03
            5504             275     112.757E-03     112.338E-03
            5513             275     112.757E-03     112.338E-03
            5504             276     123.444E-03     119.387E-03
            5495             276     123.444E-03     119.387E-03
            5486             277     113.136E-03     102.633E-03
            5495             277     113.136E-03     102.633E-03
            5486             278     101.438E-03     97.2768E-03
            5477             278     101.438E-03     97.2768E-03
            5468             279     110.160E-03     111.681E-03
            5477             279     110.160E-03     111.681E-03
            5468             280     117.673E-03     117.090E-03
            5459             280     117.673E-03     117.090E-03
            5459             281     124.215E-03     123.134E-03
            5450             281     124.215E-03     123.134E-03
            5450             282     130.233E-03     128.635E-03
            5441             282     130.233E-03     128.635E-03
            5441             283     135.899E-03     134.152E-03
            5432             283     135.899E-03     134.152E-03
            5423             284     141.763E-03     139.965E-03
            5432             284     141.763E-03     139.965E-03
            5414             285     147.055E-03     145.485E-03
            5423             285     147.055E-03     145.485E-03
            5414             286     154.263E-03     153.890E-03
            5405             286     154.263E-03     153.890E-03
            5396             287     165.402E-03     159.579E-03
            5405             287     165.402E-03     159.579E-03
            5387             288     156.010E-03     149.593E-03
            5396             288     156.010E-03     149.593E-03
            2243             306     10.6901E-15     10.9355E-15
            2252             306     10.6901E-15     10.9355E-15
            2252             307     9.16364E-15     8.85676E-15
            2261             307     9.16364E-15     8.85676E-15
            2261             308     6.01277E-15     5.48295E-15
            2270             308     6.01277E-15     5.48295E-15
            1786             424     11.8693E-03     11.8813E-03
            2242             424     11.8693E-03     11.8813E-03
            2243             424     11.8693E-03     11.8813E-03
            1785             424     11.8693E-03     11.8813E-03
            1787             425     13.5505E-03     13.4616E-03
            2242             425     13.5505E-03     13.4616E-03
            2241             425     13.5505E-03     13.4616E-03
            1786             425     13.5505E-03     13.4616E-03
            2241             426     14.4184E-03     14.3234E-03
            2240             426     14.4184E-03     14.3234E-03
            1787             426     14.4184E-03     14.3234E-03
            1788             426     14.4184E-03     14.3234E-03
            2239             427     14.9652E-03     14.8814E-03
            2240             427     14.9652E-03     14.8814E-03
            1789             427     14.9652E-03     14.8814E-03
            1788             427     14.9652E-03     14.8814E-03
            2238             428     14.9652E-03     14.8814E-03
            1790             428     14.9652E-03     14.8814E-03
            2239             428     14.9652E-03     14.8814E-03
            1789             428     14.9652E-03     14.8814E-03
            1790             429     14.4184E-03     14.3234E-03
            2238             429     14.4184E-03     14.3234E-03
            2237             429     14.4184E-03     14.3234E-03
            1791             429     14.4184E-03     14.3234E-03
            1791             430     13.5505E-03     13.4616E-03
            1792             430     13.5505E-03     13.4616E-03
            2237             430     13.5505E-03     13.4616E-03
            2236             430     13.5505E-03     13.4616E-03
            1793             431     11.8693E-03     11.8813E-03
            2235             431     11.8693E-03     11.8813E-03
            2236             431     11.8693E-03     11.8813E-03
            1792             431     11.8693E-03     11.8813E-03
            2233             432     137.392E-03     131.285E-03
            3913             432     137.392E-03     131.285E-03
            3912             432     137.392E-03     131.285E-03
            2234             432     137.392E-03     131.285E-03
            2233             433     94.4464E-03     90.0842E-03
            2232             433     94.4464E-03     90.0842E-03
            3912             433     94.4464E-03     90.0842E-03
            3911             433     94.4464E-03     90.0842E-03
            3910             434     57.4484E-03     55.2279E-03
            3911             434     57.4484E-03     55.2279E-03
            2232             434     57.4484E-03     55.2279E-03
            2231             434     57.4484E-03     55.2279E-03
            3910             435     27.1212E-03     27.1953E-03
            2231             435     27.1212E-03     27.1953E-03
            3909             435     27.1212E-03     27.1953E-03
            2230             435     27.1212E-03     27.1953E-03
            2229             436     27.1212E-03     27.1953E-03
            2230             436     27.1212E-03     27.1953E-03
            3908             436     27.1212E-03     27.1953E-03
            3909             436     27.1212E-03     27.1953E-03
            2229             437     57.4484E-03     55.2279E-03
            3908             437     57.4484E-03     55.2279E-03
            2228             437     57.4484E-03     55.2279E-03
            3907             437     57.4484E-03     55.2279E-03
            2228             438     94.4464E-03     90.0842E-03
            2227             438     94.4464E-03     90.0842E-03
            3906             438     94.4464E-03     90.0842E-03
            3907             438     94.4464E-03     90.0842E-03
            2226             439     137.392E-03     131.285E-03
            2227             439     137.392E-03     131.285E-03
            3906             439     137.392E-03     131.285E-03
            3905             439     137.392E-03     131.285E-03
            2217             440     170.150E-03     164.077E-03
            2226             440     170.150E-03     164.077E-03
            2208             441     160.811E-03     160.666E-03
            2217             441     160.811E-03     160.666E-03
            2199             442     154.972E-03     153.309E-03
            2208             442     154.972E-03     153.309E-03
            2190             443     150.684E-03     149.027E-03
            2199             443     150.684E-03     149.027E-03
            2190             444     145.812E-03     143.992E-03
            2181             444     145.812E-03     143.992E-03
            2172             445     140.786E-03     139.629E-03
            2181             445     140.786E-03     139.629E-03
            2163             446     135.158E-03     134.234E-03
            2172             446     135.158E-03     134.234E-03
            2154             447     128.872E-03     130.241E-03
            2163             447     128.872E-03     130.241E-03
            2145             448     121.801E-03     117.002E-03
            2154             448     121.801E-03     117.002E-03
            2145             449     131.028E-03     118.869E-03
            2136             449     131.028E-03     118.869E-03
            2127             450     138.905E-03     134.078E-03
            2136             450     138.905E-03     134.078E-03
            2118             451     129.830E-03     129.545E-03
            2127             451     129.830E-03     129.545E-03
            2118             452     123.992E-03     122.635E-03
            2109             452     123.992E-03     122.635E-03
            2100             453     119.685E-03     118.143E-03
            2109             453     119.685E-03     118.143E-03
            2091             454     114.882E-03     113.372E-03
            2100             454     114.882E-03     113.372E-03
            2082             455     110.252E-03     108.850E-03
            2091             455     110.252E-03     108.850E-03
            2073             456     105.340E-03     104.357E-03
            2082             456     105.340E-03     104.357E-03
            2064             457     99.9861E-03     99.4041E-03
            2073             457     99.9861E-03     99.4041E-03
            2064             458     93.8511E-03     95.0648E-03
            2055             458     93.8511E-03     95.0648E-03
            2055             459     86.7365E-03     83.2480E-03
            2046             459     86.7365E-03     83.2480E-03
            2046             460     95.8551E-03     86.9647E-03
            2037             460     95.8551E-03     86.9647E-03
            2037             461     103.803E-03     100.366E-03
            2028             461     103.803E-03     100.366E-03
            2028             462     95.0403E-03     94.7059E-03
            2019             462     95.0403E-03     94.7059E-03
            2019             463     89.1834E-03     88.1919E-03
            2010             463     89.1834E-03     88.1919E-03
            2010             464     84.7592E-03     83.6493E-03
            2001             464     84.7592E-03     83.6493E-03
            2001             465     79.9883E-03     78.9620E-03
            1992             465     79.9883E-03     78.9620E-03
            1983             466     75.4192E-03     74.5020E-03
            1992             466     75.4192E-03     74.5020E-03
            1983             467     70.6086E-03     70.0566E-03
            1974             467     70.6086E-03     70.0566E-03
            1974             468     65.5075E-03     65.3037E-03
            1965             468     65.5075E-03     65.3037E-03
            1956             469     59.5982E-03     60.7837E-03
            1965             469     59.5982E-03     60.7837E-03
            1956             470     52.5190E-03     50.5261E-03
            1947             470     52.5190E-03     50.5261E-03
            1947             471     61.2381E-03     55.8317E-03
            1938             471     61.2381E-03     55.8317E-03
            1929             472     69.1073E-03     67.0877E-03
            1938             472     69.1073E-03     67.0877E-03
            1929             473     60.7493E-03     60.4304E-03
            1920             473     60.7493E-03     60.4304E-03
            1911             474     54.9840E-03     54.3958E-03
            1920             474     54.9840E-03     54.3958E-03
            1902             475     50.5692E-03     49.9167E-03
            1911             475     50.5692E-03     49.9167E-03
            1902             476     45.9905E-03     45.4620E-03
            1893             476     45.9905E-03     45.4620E-03
            1884             477     41.6806E-03     41.2673E-03
            1893             477     41.6806E-03     41.2673E-03
            1875             478     37.2672E-03     37.1618E-03
            1884             478     37.2672E-03     37.1618E-03
            1866             479     32.7962E-03     33.0394E-03
            1875             479     32.7962E-03     33.0394E-03
            1866             480     27.9361E-03     29.1473E-03
            1857             480     27.9361E-03     29.1473E-03
            1848             481     22.8300E-03     22.9073E-03
            1857             481     22.8300E-03     22.9073E-03
            1839             482     29.2578E-03     27.6842E-03
            1848             482     29.2578E-03     27.6842E-03
            1839             483     34.1030E-03     33.4186E-03
            1830             483     34.1030E-03     33.4186E-03
            1830             484     26.7510E-03     26.6585E-03
            1821             484     26.7510E-03     26.6585E-03
            1812             485     22.0657E-03     22.0823E-03
            1821             485     22.0657E-03     22.0823E-03
            1812             486     19.1226E-03     19.3070E-03
            1803             486     19.1226E-03     19.3070E-03
            1794             487     17.7729E-03     18.2689E-03
            1803             487     17.7729E-03     18.2689E-03
            1794             488     19.5790E-03     19.9703E-03
            1785             488     19.5790E-03     19.9703E-03
            2269             489     10.1710E-15     9.79223E-15
            2270             489     10.1710E-15     9.79223E-15
            2269             490     11.0872E-15     11.0449E-15
            2268             490     11.0872E-15     11.0449E-15
            2267             491     7.74002E-15     7.81038E-15
            2268             491     7.74002E-15     7.81038E-15
            2267             492     6.66490E-15     6.63124E-15
            2266             492     6.66490E-15     6.63124E-15
            2266             493     3.66934E-15     3.61396E-15
            2265             493     3.66934E-15     3.61396E-15
            2265             494     1.68274E-15     1.65318E-15
            2264             494     1.68274E-15     1.65318E-15
            2264             495     2.70580E-15     2.71396E-15
            2263             495     2.70580E-15     2.71396E-15
            2262             496     2.77871E-15     2.70763E-15
            2263             496     2.77871E-15     2.70763E-15
            3905             520     149.344E-03     143.387E-03
            3914             520     149.344E-03     143.387E-03
            3914             521     156.621E-03     153.069E-03
            3923             521     156.621E-03     153.069E-03
            3932             522     163.719E-03     166.493E-03
            3923             522     163.719E-03     166.493E-03
            3932             523     171.285E-03     173.374E-03
            3941             523     171.285E-03     173.374E-03
            3941             524     181.469E-03     177.183E-03
            3950             524     181.469E-03     177.183E-03
            3951             609     156.614E-03     146.084E-03
            3851             609     156.614E-03     146.084E-03
            3852             609     156.614E-03     146.084E-03
            3950             609     156.614E-03     146.084E-03
            3951             610     102.729E-03     96.4405E-03
            3952             610     102.729E-03     96.4405E-03
            3853             610     102.729E-03     96.4405E-03
            3852             610     102.729E-03     96.4405E-03
            3952             611     61.6954E-03     59.1212E-03
            3854             611     61.6954E-03     59.1212E-03
            3953             611     61.6954E-03     59.1212E-03
            3853             611     61.6954E-03     59.1212E-03
            3953             612     28.2151E-03     28.1239E-03
            3855             612     28.2151E-03     28.1239E-03
            3954             612     28.2151E-03     28.1239E-03
            3854             612     28.2151E-03     28.1239E-03
            3955             613     28.2151E-03     28.1239E-03
            3855             613     28.2151E-03     28.1239E-03
            3856             613     28.2151E-03     28.1239E-03
            3954             613     28.2151E-03     28.1239E-03
            3856             614     61.6954E-03     59.1212E-03
            3955             614     61.6954E-03     59.1212E-03
            3857             614     61.6954E-03     59.1212E-03
            3956             614     61.6954E-03     59.1212E-03
            3956             615     102.729E-03     96.4405E-03
            3858             615     102.729E-03     96.4405E-03
            3857             615     102.729E-03     96.4405E-03
            3957             615     102.729E-03     96.4405E-03
            3957             616     156.614E-03     146.084E-03
            3859             616     156.614E-03     146.084E-03
            3958             616     156.614E-03     146.084E-03
            3858             616     156.614E-03     146.084E-03
            5386             617     124.901E-03     118.595E-03
            3904             617     124.901E-03     118.595E-03
            3903             617     124.901E-03     118.595E-03
            5387             617     124.901E-03     118.595E-03
            3903             618     93.3116E-03     88.7056E-03
            5385             618     93.3116E-03     88.7056E-03
            5386             618     93.3116E-03     88.7056E-03
            3902             618     93.3116E-03     88.7056E-03
            5384             619     64.7862E-03     62.3877E-03
            3901             619     64.7862E-03     62.3877E-03
            3902             619     64.7862E-03     62.3877E-03
            5385             619     64.7862E-03     62.3877E-03
            5383             620     43.6230E-03     42.4337E-03
            5384             620     43.6230E-03     42.4337E-03
            3901             620     43.6230E-03     42.4337E-03
            3900             620     43.6230E-03     42.4337E-03
            5383             621     43.6230E-03     42.4337E-03
            3900             621     43.6230E-03     42.4337E-03
            5382             621     43.6230E-03     42.4337E-03
            3899             621     43.6230E-03     42.4337E-03
            5381             622     64.7862E-03     62.3877E-03
            5382             622     64.7862E-03     62.3877E-03
            3898             622     64.7862E-03     62.3877E-03
            3899             622     64.7862E-03     62.3877E-03
            3898             623     93.3116E-03     88.7056E-03
            5380             623     93.3116E-03     88.7056E-03
            3897             623     93.3116E-03     88.7056E-03
            5381             623     93.3116E-03     88.7056E-03
            3896             624     124.901E-03     118.595E-03
            5379             624     124.901E-03     118.595E-03
            5380             624     124.901E-03     118.595E-03
            3897             624     124.901E-03     118.595E-03
            3887             625     148.480E-03     144.049E-03
            3896             625     148.480E-03     144.049E-03
            3887             626     158.001E-03     160.388E-03
            3878             626     158.001E-03     160.388E-03
            3869             627     165.013E-03     165.563E-03
            3878             627     165.013E-03     165.563E-03
            3860             628     173.766E-03     175.055E-03
            3869             628     173.766E-03     175.055E-03
            3860             629     185.225E-03     179.548E-03
            3851             629     185.225E-03     179.548E-03
            5388             636     156.010E-03     149.593E-03
            5379             636     156.010E-03     149.593E-03
            5397             637     165.402E-03     159.579E-03
            5388             637     165.402E-03     159.579E-03
            5406             638     154.263E-03     153.890E-03
            5397             638     154.263E-03     153.890E-03
            5415             639     147.055E-03     145.485E-03
            5406             639     147.055E-03     145.485E-03
            5424             640     141.763E-03     139.965E-03
            5415             640     141.763E-03     139.965E-03
            5433             641     135.899E-03     134.152E-03
            5424             641     135.899E-03     134.152E-03
            5442             642     130.233E-03     128.635E-03
            5433             642     130.233E-03     128.635E-03
            5451             643     124.215E-03     123.134E-03
            5442             643     124.215E-03     123.134E-03
            5460             644     117.673E-03     117.090E-03
            5451             644     117.673E-03     117.090E-03
            5460             645     110.160E-03     111.681E-03
            5469             645     110.160E-03     111.681E-03
            5478             646     101.438E-03     97.2768E-03
            5469             646     101.438E-03     97.2768E-03
            5487             647     113.136E-03     102.633E-03
            5478             647     113.136E-03     102.633E-03
            5496             648     123.444E-03     119.387E-03
            5487             648     123.444E-03     119.387E-03
            5496             649     112.757E-03     112.338E-03
            5505             649     112.757E-03     112.338E-03
            5514             650     105.577E-03     104.421E-03
            5505             650     105.577E-03     104.421E-03
            5514             651     100.218E-03     98.9336E-03
            5523             651     100.218E-03     98.9336E-03
            5523             652     94.5306E-03     93.2048E-03
            5532             652     94.5306E-03     93.2048E-03
            5541             653     89.0635E-03     87.9332E-03
            5532             653     89.0635E-03     87.9332E-03
            5550             654     83.5746E-03     82.4738E-03
            5541             654     83.5746E-03     82.4738E-03
            5550             655     77.8197E-03     77.3093E-03
            5559             655     77.8197E-03     77.3093E-03
            5559             656     71.7206E-03     71.5647E-03
            5568             656     71.7206E-03     71.5647E-03
            5577             657     64.6319E-03     66.1422E-03
            5568             657     64.6319E-03     66.1422E-03
            5586             658     56.1762E-03     53.9802E-03
            5577             658     56.1762E-03     53.9802E-03
            5595             659     67.0776E-03     61.1329E-03
            5586             659     67.0776E-03     61.1329E-03
            5604             660     76.9180E-03     74.7456E-03
            5595             660     76.9180E-03     74.7456E-03
            5604             661     66.7807E-03     66.4013E-03
            5613             661     66.7807E-03     66.4013E-03
            5613             662     59.7472E-03     59.1414E-03
            5622             662     59.7472E-03     59.1414E-03
            5622             663     54.4019E-03     53.7210E-03
            5631             663     54.4019E-03     53.7210E-03
            5631             664     48.9321E-03     48.4113E-03
            5640             664     48.9321E-03     48.4113E-03
            5640             665     43.8348E-03     43.4731E-03
            5649             665     43.8348E-03     43.4731E-03
            5658             666     38.7192E-03     38.7239E-03
            5649             666     38.7192E-03     38.7239E-03
            5658             667     33.6624E-03     34.1229E-03
            5667             667     33.6624E-03     34.1229E-03
            5676             668     28.5854E-03     30.0622E-03
            5667             668     28.5854E-03     30.0622E-03
            5685             669     24.2546E-03     24.9578E-03
            5676             669     24.2546E-03     24.9578E-03
            5694             670     30.5986E-03     29.6868E-03
            5685             670     30.5986E-03     29.6868E-03
            5703             671     34.3479E-03     33.8606E-03
            5694             671     34.3479E-03     33.8606E-03
            5703             672     26.5456E-03     26.7017E-03
            5712             672     26.5456E-03     26.7017E-03
            5721             673     23.0956E-03     23.4949E-03
            5712             673     23.0956E-03     23.4949E-03
            5730             674     24.3179E-03     24.5039E-03
            5721             674     24.3179E-03     24.5039E-03
            5333             765     2.68088E-15     2.63589E-15
            5342             765     2.68088E-15     2.63589E-15
            5342             766     2.52077E-15     2.59092E-15
            5351             766     2.52077E-15     2.59092E-15
            5351             767     2.38862E-15     2.45153E-15
            5360             767     2.38862E-15     2.45153E-15
            5369             768     3.24322E-15     3.13973E-15
            5360             768     3.24322E-15     3.13973E-15
            5378             769     4.46383E-15     4.37417E-15
            5369             769     4.46383E-15     4.37417E-15
            5326             792     14.6276E-03     14.6082E-03
            5325             792     14.6276E-03     14.6082E-03
            5731             792     14.6276E-03     14.6082E-03
            5730             792     14.6276E-03     14.6082E-03
            5327             793     17.0435E-03     16.9760E-03
            5731             793     17.0435E-03     16.9760E-03
            5732             793     17.0435E-03     16.9760E-03
            5326             793     17.0435E-03     16.9760E-03
            5327             794     18.0623E-03     18.0036E-03
            5328             794     18.0623E-03     18.0036E-03
            5732             794     18.0623E-03     18.0036E-03
            5733             794     18.0623E-03     18.0036E-03
            5734             795     18.6953E-03     18.6605E-03
            5328             795     18.6953E-03     18.6605E-03
            5733             795     18.6953E-03     18.6605E-03
            5329             795     18.6953E-03     18.6605E-03
            5735             796     18.6953E-03     18.6605E-03
            5330             796     18.6953E-03     18.6605E-03
            5329             796     18.6953E-03     18.6605E-03
            5734             796     18.6953E-03     18.6605E-03
            5735             797     18.0623E-03     18.0036E-03
            5331             797     18.0623E-03     18.0036E-03
            5736             797     18.0623E-03     18.0036E-03
            5330             797     18.0623E-03     18.0036E-03
            5332             798     17.0435E-03     16.9760E-03
            5331             798     17.0435E-03     16.9760E-03
            5737             798     17.0435E-03     16.9760E-03
            5736             798     17.0435E-03     16.9760E-03
            5737             799     14.6276E-03     14.6082E-03
            5738             799     14.6276E-03     14.6082E-03
            5333             799     14.6276E-03     14.6082E-03
            5332             799     14.6276E-03     14.6082E-03
            5378             800     2.82985E-15     2.76952E-15
            5377             800     2.82985E-15     2.76952E-15
            5376             801     2.77961E-15     2.75824E-15
            5377             801     2.77961E-15     2.75824E-15
            5376             802     4.80510E-15     4.79172E-15
            5375             802     4.80510E-15     4.79172E-15
            5375             803     2.48217E-15     2.48931E-15
            5374             803     2.48217E-15     2.48931E-15
            5374             804     1.40258E-15     1.40086E-15
            5373             804     1.40258E-15     1.40086E-15
            5372             805     3.71841E-15     3.73672E-15
            5373             805     3.71841E-15     3.73672E-15
            5371             806     3.72811E-15     3.77145E-15
            5372             806     3.72811E-15     3.77145E-15
            5370             807     2.70474E-15     2.73314E-15
            5371             807     2.70474E-15     2.73314E-15
            1795            2369     23.1307E-03     23.2238E-03
            1794            2369     23.1307E-03     23.2238E-03
            1785            2369     23.1307E-03     23.2238E-03
            1786            2369     23.1307E-03     23.2238E-03
            1795            2370     27.7114E-03     27.4746E-03
            1786            2370     27.7114E-03     27.4746E-03
            1796            2370     27.7114E-03     27.4746E-03
            1787            2370     27.7114E-03     27.4746E-03
            1797            2371     29.5260E-03     29.2664E-03
            1788            2371     29.5260E-03     29.2664E-03
            1787            2371     29.5260E-03     29.2664E-03
            1796            2371     29.5260E-03     29.2664E-03
            1797            2372     30.4339E-03     30.1786E-03
            1789            2372     30.4339E-03     30.1786E-03
            1798            2372     30.4339E-03     30.1786E-03
            1788            2372     30.4339E-03     30.1786E-03
            1789            2373     30.4339E-03     30.1786E-03
            1790            2373     30.4339E-03     30.1786E-03
            1798            2373     30.4339E-03     30.1786E-03
            1799            2373     30.4339E-03     30.1786E-03
            1791            2374     29.5260E-03     29.2664E-03
            1800            2374     29.5260E-03     29.2664E-03
            1790            2374     29.5260E-03     29.2664E-03
            1799            2374     29.5260E-03     29.2664E-03
            1792            2375     27.7114E-03     27.4746E-03
            1801            2375     27.7114E-03     27.4746E-03
            1800            2375     27.7114E-03     27.4746E-03
            1791            2375     27.7114E-03     27.4746E-03
            1802            2376     23.1307E-03     23.2238E-03
            1801            2376     23.1307E-03     23.2238E-03
            1792            2376     23.1307E-03     23.2238E-03
            1793            2376     23.1307E-03     23.2238E-03
            1795            2377     22.0780E-03     22.2964E-03
            1794            2377     22.0780E-03     22.2964E-03
            1803            2377     22.0780E-03     22.2964E-03
            1804            2377     22.0780E-03     22.2964E-03
            1796            2378     28.2803E-03     28.1153E-03
            1804            2378     28.2803E-03     28.1153E-03
            1795            2378     28.2803E-03     28.1153E-03
            1805            2378     28.2803E-03     28.1153E-03
            1805            2379     30.7140E-03     30.4311E-03
            1797            2379     30.7140E-03     30.4311E-03
            1806            2379     30.7140E-03     30.4311E-03
            1796            2379     30.7140E-03     30.4311E-03
            1797            2380     31.5539E-03     31.2515E-03
            1806            2380     31.5539E-03     31.2515E-03
            1798            2380     31.5539E-03     31.2515E-03
            1807            2380     31.5539E-03     31.2515E-03
            1807            2381     31.5539E-03     31.2515E-03
            1799            2381     31.5539E-03     31.2515E-03
            1798            2381     31.5539E-03     31.2515E-03
            1808            2381     31.5539E-03     31.2515E-03
            1808            2382     30.7140E-03     30.4311E-03
            1799            2382     30.7140E-03     30.4311E-03
            1809            2382     30.7140E-03     30.4311E-03
            1800            2382     30.7140E-03     30.4311E-03
            1810            2383     28.2803E-03     28.1153E-03
            1801            2383     28.2803E-03     28.1153E-03
            1809            2383     28.2803E-03     28.1153E-03
            1800            2383     28.2803E-03     28.1153E-03
            1811            2384     22.0780E-03     22.2964E-03
            1802            2384     22.0780E-03     22.2964E-03
            1801            2384     22.0780E-03     22.2964E-03
            1810            2384     22.0780E-03     22.2964E-03
            1803            2385     22.5754E-03     22.7444E-03
            1812            2385     22.5754E-03     22.7444E-03
            1813            2385     22.5754E-03     22.7444E-03
            1804            2385     22.5754E-03     22.7444E-03
            1804            2386     28.2545E-03     28.2759E-03
            1805            2386     28.2545E-03     28.2759E-03
            1814            2386     28.2545E-03     28.2759E-03
            1813            2386     28.2545E-03     28.2759E-03
            1805            2387     31.3948E-03     31.2684E-03
            1815            2387     31.3948E-03     31.2684E-03
            1806            2387     31.3948E-03     31.2684E-03
            1814            2387     31.3948E-03     31.2684E-03
            1806            2388     32.4504E-03     32.3221E-03
            1816            2388     32.4504E-03     32.3221E-03
            1807            2388     32.4504E-03     32.3221E-03
            1815            2388     32.4504E-03     32.3221E-03
            1807            2389     32.4504E-03     32.3221E-03
            1817            2389     32.4504E-03     32.3221E-03
            1816            2389     32.4504E-03     32.3221E-03
            1808            2389     32.4504E-03     32.3221E-03
            1808            2390     31.3948E-03     31.2684E-03
            1809            2390     31.3948E-03     31.2684E-03
            1818            2390     31.3948E-03     31.2684E-03
            1817            2390     31.3948E-03     31.2684E-03
            1819            2391     28.2545E-03     28.2759E-03
            1810            2391     28.2545E-03     28.2759E-03
            1818            2391     28.2545E-03     28.2759E-03
            1809            2391     28.2545E-03     28.2759E-03
            1820            2392     22.5754E-03     22.7444E-03
            1819            2392     22.5754E-03     22.7444E-03
            1810            2392     22.5754E-03     22.7444E-03
            1811            2392     22.5754E-03     22.7444E-03
            1813            2393     24.6254E-03     24.6518E-03
            1812            2393     24.6254E-03     24.6518E-03
            1822            2393     24.6254E-03     24.6518E-03
            1821            2393     24.6254E-03     24.6518E-03
            1822            2394     29.0108E-03     29.0935E-03
            1813            2394     29.0108E-03     29.0935E-03
            1823            2394     29.0108E-03     29.0935E-03
            1814            2394     29.0108E-03     29.0935E-03
            1823            2395     31.5726E-03     31.7175E-03
            1824            2395     31.5726E-03     31.7175E-03
            1815            2395     31.5726E-03     31.7175E-03
            1814            2395     31.5726E-03     31.7175E-03
            1816            2396     32.3903E-03     32.5292E-03
            1815            2396     32.3903E-03     32.5292E-03
            1824            2396     32.3903E-03     32.5292E-03
            1825            2396     32.3903E-03     32.5292E-03
            1817            2397     32.3903E-03     32.5292E-03
            1825            2397     32.3903E-03     32.5292E-03
            1826            2397     32.3903E-03     32.5292E-03
            1816            2397     32.3903E-03     32.5292E-03
            1817            2398     31.5726E-03     31.7175E-03
            1827            2398     31.5726E-03     31.7175E-03
            1826            2398     31.5726E-03     31.7175E-03
            1818            2398     31.5726E-03     31.7175E-03
            1827            2399     29.0108E-03     29.0935E-03
            1828            2399     29.0108E-03     29.0935E-03
            1819            2399     29.0108E-03     29.0935E-03
            1818            2399     29.0108E-03     29.0935E-03
            1820            2400     24.6254E-03     24.6518E-03
            1828            2400     24.6254E-03     24.6518E-03
            1829            2400     24.6254E-03     24.6518E-03
            1819            2400     24.6254E-03     24.6518E-03
            1821            2401     28.3165E-03     28.3195E-03
            1822            2401     28.3165E-03     28.3195E-03
            1830            2401     28.3165E-03     28.3195E-03
            1831            2401     28.3165E-03     28.3195E-03
            1822            2402     30.3848E-03     30.6228E-03
            1832            2402     30.3848E-03     30.6228E-03
            1823            2402     30.3848E-03     30.6228E-03
            1831            2402     30.3848E-03     30.6228E-03
            1833            2403     30.9361E-03     31.2890E-03
            1824            2403     30.9361E-03     31.2890E-03
            1832            2403     30.9361E-03     31.2890E-03
            1823            2403     30.9361E-03     31.2890E-03
            1833            2404     31.2107E-03     31.5313E-03
            1825            2404     31.2107E-03     31.5313E-03
            1834            2404     31.2107E-03     31.5313E-03
            1824            2404     31.2107E-03     31.5313E-03
            1835            2405     31.2107E-03     31.5313E-03
            1826            2405     31.2107E-03     31.5313E-03
            1834            2405     31.2107E-03     31.5313E-03
            1825            2405     31.2107E-03     31.5313E-03
            1836            2406     30.9361E-03     31.2890E-03
            1827            2406     30.9361E-03     31.2890E-03
            1826            2406     30.9361E-03     31.2890E-03
            1835            2406     30.9361E-03     31.2890E-03
            1827            2407     30.3848E-03     30.6228E-03
            1837            2407     30.3848E-03     30.6228E-03
            1828            2407     30.3848E-03     30.6228E-03
            1836            2407     30.3848E-03     30.6228E-03
            1837            2408     28.3165E-03     28.3195E-03
            1828            2408     28.3165E-03     28.3195E-03
            1838            2408     28.3165E-03     28.3195E-03
            1829            2408     28.3165E-03     28.3195E-03
            1840            2409     32.7508E-03     32.4700E-03
            1831            2409     32.7508E-03     32.4700E-03
            1839            2409     32.7508E-03     32.4700E-03
            1830            2409     32.7508E-03     32.4700E-03
            1841            2410     30.2877E-03     30.4658E-03
            1831            2410     30.2877E-03     30.4658E-03
            1840            2410     30.2877E-03     30.4658E-03
            1832            2410     30.2877E-03     30.4658E-03
            1832            2411     29.2580E-03     29.5044E-03
            1841            2411     29.2580E-03     29.5044E-03
            1842            2411     29.2580E-03     29.5044E-03
            1833            2411     29.2580E-03     29.5044E-03
            1842            2412     29.2158E-03     29.4839E-03
            1833            2412     29.2158E-03     29.4839E-03
            1843            2412     29.2158E-03     29.4839E-03
            1834            2412     29.2158E-03     29.4839E-03
            1844            2413     29.2158E-03     29.4839E-03
            1834            2413     29.2158E-03     29.4839E-03
            1843            2413     29.2158E-03     29.4839E-03
            1835            2413     29.2158E-03     29.4839E-03
            1844            2414     29.2580E-03     29.5044E-03
            1835            2414     29.2580E-03     29.5044E-03
            1845            2414     29.2580E-03     29.5044E-03
            1836            2414     29.2580E-03     29.5044E-03
            1845            2415     30.2877E-03     30.4658E-03
            1836            2415     30.2877E-03     30.4658E-03
            1846            2415     30.2877E-03     30.4658E-03
            1837            2415     30.2877E-03     30.4658E-03
            1838            2416     32.7508E-03     32.4700E-03
            1837            2416     32.7508E-03     32.4700E-03
            1847            2416     32.7508E-03     32.4700E-03
            1846            2416     32.7508E-03     32.4700E-03
            1849            2417     29.6912E-03     28.3029E-03
            1840            2417     29.6912E-03     28.3029E-03
            1848            2417     29.6912E-03     28.3029E-03
            1839            2417     29.6912E-03     28.3029E-03
            1849            2418     29.6798E-03     28.7482E-03
            1840            2418     29.6798E-03     28.7482E-03
            1850            2418     29.6798E-03     28.7482E-03
            1841            2418     29.6798E-03     28.7482E-03
            1841            2419     29.5630E-03     29.0316E-03
            1851            2419     29.5630E-03     29.0316E-03
            1842            2419     29.5630E-03     29.0316E-03
            1850            2419     29.5630E-03     29.0316E-03
            1852            2420     29.7365E-03     29.4061E-03
            1843            2420     29.7365E-03     29.4061E-03
            1851            2420     29.7365E-03     29.4061E-03
            1842            2420     29.7365E-03     29.4061E-03
            1843            2421     29.7365E-03     29.4061E-03
            1853            2421     29.7365E-03     29.4061E-03
            1844            2421     29.7365E-03     29.4061E-03
            1852            2421     29.7365E-03     29.4061E-03
            1844            2422     29.5630E-03     29.0316E-03
            1854            2422     29.5630E-03     29.0316E-03
            1845            2422     29.5630E-03     29.0316E-03
            1853            2422     29.5630E-03     29.0316E-03
            1845            2423     29.6798E-03     28.7482E-03
            1854            2423     29.6798E-03     28.7482E-03
            1846            2423     29.6798E-03     28.7482E-03
            1855            2423     29.6798E-03     28.7482E-03
            1847            2424     29.6912E-03     28.3029E-03
            1846            2424     29.6912E-03     28.3029E-03
            1856            2424     29.6912E-03     28.3029E-03
            1855            2424     29.6912E-03     28.3029E-03
            1848            2425     26.4473E-03     25.7698E-03
            1849            2425     26.4473E-03     25.7698E-03
            1857            2425     26.4473E-03     25.7698E-03
            1858            2425     26.4473E-03     25.7698E-03
            1858            2426     30.6041E-03     29.1600E-03
            1859            2426     30.6041E-03     29.1600E-03
            1850            2426     30.6041E-03     29.1600E-03
            1849            2426     30.6041E-03     29.1600E-03
            1851            2427     31.3003E-03     29.9515E-03
            1860            2427     31.3003E-03     29.9515E-03
            1859            2427     31.3003E-03     29.9515E-03
            1850            2427     31.3003E-03     29.9515E-03
            1860            2428     31.4315E-03     30.1986E-03
            1852            2428     31.4315E-03     30.1986E-03
            1851            2428     31.4315E-03     30.1986E-03
            1861            2428     31.4315E-03     30.1986E-03
            1852            2429     31.4315E-03     30.1986E-03
            1861            2429     31.4315E-03     30.1986E-03
            1853            2429     31.4315E-03     30.1986E-03
            1862            2429     31.4315E-03     30.1986E-03
            1863            2430     31.3003E-03     29.9515E-03
            1854            2430     31.3003E-03     29.9515E-03
            1853            2430     31.3003E-03     29.9515E-03
            1862            2430     31.3003E-03     29.9515E-03
            1864            2431     30.6041E-03     29.1600E-03
            1855            2431     30.6041E-03     29.1600E-03
            1854            2431     30.6041E-03     29.1600E-03
            1863            2431     30.6041E-03     29.1600E-03
            1855            2432     26.4473E-03     25.7698E-03
            1864            2432     26.4473E-03     25.7698E-03
            1856            2432     26.4473E-03     25.7698E-03
            1865            2432     26.4473E-03     25.7698E-03
            1858            2433     29.5808E-03     30.3139E-03
            1867            2433     29.5808E-03     30.3139E-03
            1857            2433     29.5808E-03     30.3139E-03
            1866            2433     29.5808E-03     30.3139E-03
            1858            2434     31.8253E-03     31.3877E-03
            1868            2434     31.8253E-03     31.3877E-03
            1867            2434     31.8253E-03     31.3877E-03
            1859            2434     31.8253E-03     31.3877E-03
            1860            2435     32.1766E-03     30.8503E-03
            1868            2435     32.1766E-03     30.8503E-03
            1859            2435     32.1766E-03     30.8503E-03
            1869            2435     32.1766E-03     30.8503E-03
            1870            2436     31.8791E-03     30.2689E-03
            1861            2436     31.8791E-03     30.2689E-03
            1869            2436     31.8791E-03     30.2689E-03
            1860            2436     31.8791E-03     30.2689E-03
            1871            2437     31.8791E-03     30.2689E-03
            1861            2437     31.8791E-03     30.2689E-03
            1862            2437     31.8791E-03     30.2689E-03
            1870            2437     31.8791E-03     30.2689E-03
            1872            2438     32.1766E-03     30.8503E-03
            1863            2438     32.1766E-03     30.8503E-03
            1871            2438     32.1766E-03     30.8503E-03
            1862            2438     32.1766E-03     30.8503E-03
            1872            2439     31.8253E-03     31.3877E-03
            1873            2439     31.8253E-03     31.3877E-03
            1864            2439     31.8253E-03     31.3877E-03
            1863            2439     31.8253E-03     31.3877E-03
            1873            2440     29.5808E-03     30.3139E-03
            1874            2440     29.5808E-03     30.3139E-03
            1865            2440     29.5808E-03     30.3139E-03
            1864            2440     29.5808E-03     30.3139E-03
            1866            2441     32.6914E-03     33.1444E-03
            1876            2441     32.6914E-03     33.1444E-03
            1875            2441     32.6914E-03     33.1444E-03
            1867            2441     32.6914E-03     33.1444E-03
            1867            2442     32.8662E-03     33.0297E-03
            1876            2442     32.8662E-03     33.0297E-03
            1877            2442     32.8662E-03     33.0297E-03
            1868            2442     32.8662E-03     33.0297E-03
            1869            2443     33.0101E-03     32.2255E-03
            1878            2443     33.0101E-03     32.2255E-03
            1877            2443     33.0101E-03     32.2255E-03
            1868            2443     33.0101E-03     32.2255E-03
            1870            2444     32.6990E-03     31.3605E-03
            1878            2444     32.6990E-03     31.3605E-03
            1879            2444     32.6990E-03     31.3605E-03
            1869            2444     32.6990E-03     31.3605E-03
            1879            2445     32.6990E-03     31.3605E-03
            1870            2445     32.6990E-03     31.3605E-03
            1871            2445     32.6990E-03     31.3605E-03
            1880            2445     32.6990E-03     31.3605E-03
            1871            2446     33.0101E-03     32.2255E-03
            1880            2446     33.0101E-03     32.2255E-03
            1872            2446     33.0101E-03     32.2255E-03
            1881            2446     33.0101E-03     32.2255E-03
            1872            2447     32.8662E-03     33.0297E-03
            1873            2447     32.8662E-03     33.0297E-03
            1882            2447     32.8662E-03     33.0297E-03
            1881            2447     32.8662E-03     33.0297E-03
            1873            2448     32.6914E-03     33.1444E-03
            1874            2448     32.6914E-03     33.1444E-03
            1883            2448     32.6914E-03     33.1444E-03
            1882            2448     32.6914E-03     33.1444E-03
            1885            2449     36.0719E-03     36.1552E-03
            1876            2449     36.0719E-03     36.1552E-03
            1884            2449     36.0719E-03     36.1552E-03
            1875            2449     36.0719E-03     36.1552E-03
            1877            2450     34.4017E-03     34.5324E-03
            1885            2450     34.4017E-03     34.5324E-03
            1876            2450     34.4017E-03     34.5324E-03
            1886            2450     34.4017E-03     34.5324E-03
            1878            2451     33.6860E-03     33.3634E-03
            1877            2451     33.6860E-03     33.3634E-03
            1887            2451     33.6860E-03     33.3634E-03
            1886            2451     33.6860E-03     33.3634E-03
            1887            2452     33.3580E-03     32.5686E-03
            1888            2452     33.3580E-03     32.5686E-03
            1878            2452     33.3580E-03     32.5686E-03
            1879            2452     33.3580E-03     32.5686E-03
            1889            2453     33.3580E-03     32.5686E-03
            1880            2453     33.3580E-03     32.5686E-03
            1888            2453     33.3580E-03     32.5686E-03
            1879            2453     33.3580E-03     32.5686E-03
            1881            2454     33.6860E-03     33.3634E-03
            1880            2454     33.6860E-03     33.3634E-03
            1890            2454     33.6860E-03     33.3634E-03
            1889            2454     33.6860E-03     33.3634E-03
            1881            2455     34.4017E-03     34.5324E-03
            1882            2455     34.4017E-03     34.5324E-03
            1891            2455     34.4017E-03     34.5324E-03
            1890            2455     34.4017E-03     34.5324E-03
            1882            2456     36.0719E-03     36.1552E-03
            1891            2456     36.0719E-03     36.1552E-03
            1883            2456     36.0719E-03     36.1552E-03
            1892            2456     36.0719E-03     36.1552E-03
            1893            2457     39.5527E-03     39.3832E-03
            1894            2457     39.5527E-03     39.3832E-03
            1885            2457     39.5527E-03     39.3832E-03
            1884            2457     39.5527E-03     39.3832E-03
            1895            2458     36.2779E-03     36.3512E-03
            1886            2458     36.2779E-03     36.3512E-03
            1885            2458     36.2779E-03     36.3512E-03
            1894            2458     36.2779E-03     36.3512E-03
            1886            2459     34.5538E-03     34.5101E-03
            1896            2459     34.5538E-03     34.5101E-03
            1895            2459     34.5538E-03     34.5101E-03
            1887            2459     34.5538E-03     34.5101E-03
            1887            2460     33.7602E-03     33.5223E-03
            1896            2460     33.7602E-03     33.5223E-03
            1897            2460     33.7602E-03     33.5223E-03
            1888            2460     33.7602E-03     33.5223E-03
            1888            2461     33.7602E-03     33.5223E-03
            1897            2461     33.7602E-03     33.5223E-03
            1898            2461     33.7602E-03     33.5223E-03
            1889            2461     33.7602E-03     33.5223E-03
            1898            2462     34.5538E-03     34.5101E-03
            1899            2462     34.5538E-03     34.5101E-03
            1890            2462     34.5538E-03     34.5101E-03
            1889            2462     34.5538E-03     34.5101E-03
            1890            2463     36.2779E-03     36.3512E-03
            1899            2463     36.2779E-03     36.3512E-03
            1891            2463     36.2779E-03     36.3512E-03
            1900            2463     36.2779E-03     36.3512E-03
            1900            2464     39.5527E-03     39.3832E-03
            1891            2464     39.5527E-03     39.3832E-03
            1892            2464     39.5527E-03     39.3832E-03
            1901            2464     39.5527E-03     39.3832E-03
            1894            2465     43.1720E-03     42.8670E-03
            1902            2465     43.1720E-03     42.8670E-03
            1903            2465     43.1720E-03     42.8670E-03
            1893            2465     43.1720E-03     42.8670E-03
            1894            2466     38.4529E-03     38.5175E-03
            1903            2466     38.4529E-03     38.5175E-03
            1895            2466     38.4529E-03     38.5175E-03
            1904            2466     38.4529E-03     38.5175E-03
            1895            2467     35.4616E-03     35.6958E-03
            1904            2467     35.4616E-03     35.6958E-03
            1905            2467     35.4616E-03     35.6958E-03
            1896            2467     35.4616E-03     35.6958E-03
            1906            2468     34.0665E-03     34.3345E-03
            1897            2468     34.0665E-03     34.3345E-03
            1905            2468     34.0665E-03     34.3345E-03
            1896            2468     34.0665E-03     34.3345E-03
            1906            2469     34.0665E-03     34.3345E-03
            1907            2469     34.0665E-03     34.3345E-03
            1898            2469     34.0665E-03     34.3345E-03
            1897            2469     34.0665E-03     34.3345E-03
            1898            2470     35.4616E-03     35.6958E-03
            1899            2470     35.4616E-03     35.6958E-03
            1908            2470     35.4616E-03     35.6958E-03
            1907            2470     35.4616E-03     35.6958E-03
            1908            2471     38.4529E-03     38.5175E-03
            1899            2471     38.4529E-03     38.5175E-03
            1900            2471     38.4529E-03     38.5175E-03
            1909            2471     38.4529E-03     38.5175E-03
            1901            2472     43.1720E-03     42.8670E-03
            1900            2472     43.1720E-03     42.8670E-03
            1909            2472     43.1720E-03     42.8670E-03
            1910            2472     43.1720E-03     42.8670E-03
            1912            2473     46.9567E-03     46.5855E-03
            1902            2473     46.9567E-03     46.5855E-03
            1911            2473     46.9567E-03     46.5855E-03
            1903            2473     46.9567E-03     46.5855E-03
            1904            2474     40.6669E-03     40.8057E-03
            1912            2474     40.6669E-03     40.8057E-03
            1913            2474     40.6669E-03     40.8057E-03
            1903            2474     40.6669E-03     40.8057E-03
            1904            2475     36.3884E-03     36.9627E-03
            1913            2475     36.3884E-03     36.9627E-03
            1905            2475     36.3884E-03     36.9627E-03
            1914            2475     36.3884E-03     36.9627E-03
            1915            2476     34.2062E-03     35.0656E-03
            1914            2476     34.2062E-03     35.0656E-03
            1905            2476     34.2062E-03     35.0656E-03
            1906            2476     34.2062E-03     35.0656E-03
            1907            2477     34.2062E-03     35.0656E-03
            1906            2477     34.2062E-03     35.0656E-03
            1916            2477     34.2062E-03     35.0656E-03
            1915            2477     34.2062E-03     35.0656E-03
            1907            2478     36.3884E-03     36.9627E-03
            1917            2478     36.3884E-03     36.9627E-03
            1908            2478     36.3884E-03     36.9627E-03
            1916            2478     36.3884E-03     36.9627E-03
            1909            2479     40.6669E-03     40.8057E-03
            1918            2479     40.6669E-03     40.8057E-03
            1917            2479     40.6669E-03     40.8057E-03
            1908            2479     40.6669E-03     40.8057E-03
            1910            2480     46.9567E-03     46.5855E-03
            1919            2480     46.9567E-03     46.5855E-03
            1918            2480     46.9567E-03     46.5855E-03
            1909            2480     46.9567E-03     46.5855E-03
            1921            2481     50.7364E-03     50.4470E-03
            1911            2481     50.7364E-03     50.4470E-03
            1912            2481     50.7364E-03     50.4470E-03
            1920            2481     50.7364E-03     50.4470E-03
            1922            2482     43.1030E-03     43.5521E-03
            1912            2482     43.1030E-03     43.5521E-03
            1913            2482     43.1030E-03     43.5521E-03
            1921            2482     43.1030E-03     43.5521E-03
            1922            2483     37.1677E-03     38.2998E-03
            1913            2483     37.1677E-03     38.2998E-03
            1923            2483     37.1677E-03     38.2998E-03
            1914            2483     37.1677E-03     38.2998E-03
            1923            2484     33.6165E-03     35.0343E-03
            1914            2484     33.6165E-03     35.0343E-03
            1924            2484     33.6165E-03     35.0343E-03
            1915            2484     33.6165E-03     35.0343E-03
            1924            2485     33.6165E-03     35.0343E-03
            1916            2485     33.6165E-03     35.0343E-03
            1925            2485     33.6165E-03     35.0343E-03
            1915            2485     33.6165E-03     35.0343E-03
            1916            2486     37.1677E-03     38.2998E-03
            1925            2486     37.1677E-03     38.2998E-03
            1926            2486     37.1677E-03     38.2998E-03
            1917            2486     37.1677E-03     38.2998E-03
            1926            2487     43.1030E-03     43.5521E-03
            1917            2487     43.1030E-03     43.5521E-03
            1918            2487     43.1030E-03     43.5521E-03
            1927            2487     43.1030E-03     43.5521E-03
            1927            2488     50.7364E-03     50.4470E-03
            1928            2488     50.7364E-03     50.4470E-03
            1918            2488     50.7364E-03     50.4470E-03
            1919            2488     50.7364E-03     50.4470E-03
            1929            2489     55.7001E-03     55.8182E-03
            1921            2489     55.7001E-03     55.8182E-03
            1930            2489     55.7001E-03     55.8182E-03
            1920            2489     55.7001E-03     55.8182E-03
            1921            2490     45.3352E-03     46.1991E-03
            1930            2490     45.3352E-03     46.1991E-03
            1922            2490     45.3352E-03     46.1991E-03
            1931            2490     45.3352E-03     46.1991E-03
            1923            2491     36.4297E-03     37.7609E-03
            1922            2491     36.4297E-03     37.7609E-03
            1931            2491     36.4297E-03     37.7609E-03
            1932            2491     36.4297E-03     37.7609E-03
            1933            2492     31.8211E-03     33.4319E-03
            1923            2492     31.8211E-03     33.4319E-03
            1932            2492     31.8211E-03     33.4319E-03
            1924            2492     31.8211E-03     33.4319E-03
            1925            2493     31.8211E-03     33.4319E-03
            1933            2493     31.8211E-03     33.4319E-03
            1924            2493     31.8211E-03     33.4319E-03
            1934            2493     31.8211E-03     33.4319E-03
            1935            2494     36.4297E-03     37.7609E-03
            1934            2494     36.4297E-03     37.7609E-03
            1926            2494     36.4297E-03     37.7609E-03
            1925            2494     36.4297E-03     37.7609E-03
            1927            2495     45.3352E-03     46.1991E-03
            1926            2495     45.3352E-03     46.1991E-03
            1936            2495     45.3352E-03     46.1991E-03
            1935            2495     45.3352E-03     46.1991E-03
            1936            2496     55.7001E-03     55.8182E-03
            1928            2496     55.7001E-03     55.8182E-03
            1927            2496     55.7001E-03     55.8182E-03
            1937            2496     55.7001E-03     55.8182E-03
            1938            2497     60.3652E-03     59.0703E-03
            1939            2497     60.3652E-03     59.0703E-03
            1929            2497     60.3652E-03     59.0703E-03
            1930            2497     60.3652E-03     59.0703E-03
            1930            2498     44.6048E-03     44.3017E-03
            1931            2498     44.6048E-03     44.3017E-03
            1939            2498     44.6048E-03     44.3017E-03
            1940            2498     44.6048E-03     44.3017E-03
            1931            2499     33.7687E-03     34.1562E-03
            1941            2499     33.7687E-03     34.1562E-03
            1932            2499     33.7687E-03     34.1562E-03
            1940            2499     33.7687E-03     34.1562E-03
            1942            2500     28.2864E-03     29.3227E-03
            1933            2500     28.2864E-03     29.3227E-03
            1932            2500     28.2864E-03     29.3227E-03
            1941            2500     28.2864E-03     29.3227E-03
            1933            2501     28.2864E-03     29.3227E-03
            1942            2501     28.2864E-03     29.3227E-03
            1934            2501     28.2864E-03     29.3227E-03
            1943            2501     28.2864E-03     29.3227E-03
            1943            2502     33.7687E-03     34.1562E-03
            1934            2502     33.7687E-03     34.1562E-03
            1935            2502     33.7687E-03     34.1562E-03
            1944            2502     33.7687E-03     34.1562E-03
            1944            2503     44.6048E-03     44.3017E-03
            1936            2503     44.6048E-03     44.3017E-03
            1945            2503     44.6048E-03     44.3017E-03
            1935            2503     44.6048E-03     44.3017E-03
            1937            2504     60.3652E-03     59.0703E-03
            1936            2504     60.3652E-03     59.0703E-03
            1945            2504     60.3652E-03     59.0703E-03
            1946            2504     60.3652E-03     59.0703E-03
            1938            2505     54.6168E-03     49.7862E-03
            1948            2505     54.6168E-03     49.7862E-03
            1947            2505     54.6168E-03     49.7862E-03
            1939            2505     54.6168E-03     49.7862E-03
            1949            2506     43.1179E-03     39.8184E-03
            1948            2506     43.1179E-03     39.8184E-03
            1939            2506     43.1179E-03     39.8184E-03
            1940            2506     43.1179E-03     39.8184E-03
            1950            2507     35.1872E-03     33.5376E-03
            1941            2507     35.1872E-03     33.5376E-03
            1949            2507     35.1872E-03     33.5376E-03
            1940            2507     35.1872E-03     33.5376E-03
            1951            2508     30.7061E-03     30.0848E-03
            1941            2508     30.7061E-03     30.0848E-03
            1942            2508     30.7061E-03     30.0848E-03
            1950            2508     30.7061E-03     30.0848E-03
            1951            2509     30.7061E-03     30.0848E-03
            1943            2509     30.7061E-03     30.0848E-03
            1942            2509     30.7061E-03     30.0848E-03
            1952            2509     30.7061E-03     30.0848E-03
            1943            2510     35.1872E-03     33.5376E-03
            1953            2510     35.1872E-03     33.5376E-03
            1944            2510     35.1872E-03     33.5376E-03
            1952            2510     35.1872E-03     33.5376E-03
            1945            2511     43.1179E-03     39.8184E-03
            1954            2511     43.1179E-03     39.8184E-03
            1953            2511     43.1179E-03     39.8184E-03
            1944            2511     43.1179E-03     39.8184E-03
            1946            2512     54.6168E-03     49.7862E-03
            1945            2512     54.6168E-03     49.7862E-03
            1954            2512     54.6168E-03     49.7862E-03
            1955            2512     54.6168E-03     49.7862E-03
            1956            2513     50.2197E-03     47.6103E-03
            1947            2513     50.2197E-03     47.6103E-03
            1948            2513     50.2197E-03     47.6103E-03
            1957            2513     50.2197E-03     47.6103E-03
            1948            2514     44.5192E-03     41.3546E-03
            1957            2514     44.5192E-03     41.3546E-03
            1958            2514     44.5192E-03     41.3546E-03
            1949            2514     44.5192E-03     41.3546E-03
            1950            2515     38.3585E-03     35.5802E-03
            1949            2515     38.3585E-03     35.5802E-03
            1959            2515     38.3585E-03     35.5802E-03
            1958            2515     38.3585E-03     35.5802E-03
            1960            2516     34.5549E-03     32.1696E-03
            1959            2516     34.5549E-03     32.1696E-03
            1951            2516     34.5549E-03     32.1696E-03
            1950            2516     34.5549E-03     32.1696E-03
            1960            2517     34.5549E-03     32.1696E-03
            1951            2517     34.5549E-03     32.1696E-03
            1952            2517     34.5549E-03     32.1696E-03
            1961            2517     34.5549E-03     32.1696E-03
            1962            2518     38.3585E-03     35.5802E-03
            1953            2518     38.3585E-03     35.5802E-03
            1952            2518     38.3585E-03     35.5802E-03
            1961            2518     38.3585E-03     35.5802E-03
            1954            2519     44.5192E-03     41.3546E-03
            1962            2519     44.5192E-03     41.3546E-03
            1963            2519     44.5192E-03     41.3546E-03
            1953            2519     44.5192E-03     41.3546E-03
            1963            2520     50.2197E-03     47.6103E-03
            1955            2520     50.2197E-03     47.6103E-03
            1954            2520     50.2197E-03     47.6103E-03
            1964            2520     50.2197E-03     47.6103E-03
            1965            2521     55.3563E-03     56.4528E-03
            1966            2521     55.3563E-03     56.4528E-03
            1956            2521     55.3563E-03     56.4528E-03
            1957            2521     55.3563E-03     56.4528E-03
            1966            2522     46.8614E-03     46.6350E-03
            1958            2522     46.8614E-03     46.6350E-03
            1957            2522     46.8614E-03     46.6350E-03
            1967            2522     46.8614E-03     46.6350E-03
            1967            2523     38.9367E-03     36.8945E-03
            1968            2523     38.9367E-03     36.8945E-03
            1959            2523     38.9367E-03     36.8945E-03
            1958            2523     38.9367E-03     36.8945E-03
            1960            2524     33.7735E-03     30.8580E-03
            1959            2524     33.7735E-03     30.8580E-03
            1969            2524     33.7735E-03     30.8580E-03
            1968            2524     33.7735E-03     30.8580E-03
            1970            2525     33.7735E-03     30.8580E-03
            1969            2525     33.7735E-03     30.8580E-03
            1961            2525     33.7735E-03     30.8580E-03
            1960            2525     33.7735E-03     30.8580E-03
            1962            2526     38.9367E-03     36.8945E-03
            1970            2526     38.9367E-03     36.8945E-03
            1971            2526     38.9367E-03     36.8945E-03
            1961            2526     38.9367E-03     36.8945E-03
            1972            2527     46.8614E-03     46.6350E-03
            1962            2527     46.8614E-03     46.6350E-03
            1971            2527     46.8614E-03     46.6350E-03
            1963            2527     46.8614E-03     46.6350E-03
            1964            2528     55.3563E-03     56.4528E-03
            1973            2528     55.3563E-03     56.4528E-03
            1963            2528     55.3563E-03     56.4528E-03
            1972            2528     55.3563E-03     56.4528E-03
            1975            2529     59.6244E-03     60.1274E-03
            1966            2529     59.6244E-03     60.1274E-03
            1974            2529     59.6244E-03     60.1274E-03
            1965            2529     59.6244E-03     60.1274E-03
            1976            2530     48.9014E-03     49.5534E-03
            1967            2530     48.9014E-03     49.5534E-03
            1975            2530     48.9014E-03     49.5534E-03
            1966            2530     48.9014E-03     49.5534E-03
            1977            2531     39.9780E-03     39.0510E-03
            1968            2531     39.9780E-03     39.0510E-03
            1967            2531     39.9780E-03     39.0510E-03
            1976            2531     39.9780E-03     39.0510E-03
            1978            2532     34.1890E-03     31.8540E-03
            1977            2532     34.1890E-03     31.8540E-03
            1968            2532     34.1890E-03     31.8540E-03
            1969            2532     34.1890E-03     31.8540E-03
            1969            2533     34.1890E-03     31.8540E-03
            1978            2533     34.1890E-03     31.8540E-03
            1970            2533     34.1890E-03     31.8540E-03
            1979            2533     34.1890E-03     31.8540E-03
            1971            2534     39.9780E-03     39.0510E-03
            1970            2534     39.9780E-03     39.0510E-03
            1979            2534     39.9780E-03     39.0510E-03
            1980            2534     39.9780E-03     39.0510E-03
            1980            2535     48.9014E-03     49.5534E-03
            1981            2535     48.9014E-03     49.5534E-03
            1972            2535     48.9014E-03     49.5534E-03
            1971            2535     48.9014E-03     49.5534E-03
            1973            2536     59.6244E-03     60.1274E-03
            1982            2536     59.6244E-03     60.1274E-03
            1972            2536     59.6244E-03     60.1274E-03
            1981            2536     59.6244E-03     60.1274E-03
            1983            2537     63.7937E-03     63.6911E-03
            1974            2537     63.7937E-03     63.6911E-03
            1984            2537     63.7937E-03     63.6911E-03
            1975            2537     63.7937E-03     63.6911E-03
            1985            2538     51.1862E-03     51.5027E-03
            1976            2538     51.1862E-03     51.5027E-03
            1975            2538     51.1862E-03     51.5027E-03
            1984            2538     51.1862E-03     51.5027E-03
            1976            2539     41.0201E-03     40.7120E-03
            1986            2539     41.0201E-03     40.7120E-03
            1977            2539     41.0201E-03     40.7120E-03
            1985            2539     41.0201E-03     40.7120E-03
            1986            2540     34.8807E-03     33.5436E-03
            1977            2540     34.8807E-03     33.5436E-03
            1978            2540     34.8807E-03     33.5436E-03
            1987            2540     34.8807E-03     33.5436E-03
            1978            2541     34.8807E-03     33.5436E-03
            1987            2541     34.8807E-03     33.5436E-03
            1979            2541     34.8807E-03     33.5436E-03
            1988            2541     34.8807E-03     33.5436E-03
            1989            2542     41.0201E-03     40.7120E-03
            1979            2542     41.0201E-03     40.7120E-03
            1980            2542     41.0201E-03     40.7120E-03
            1988            2542     41.0201E-03     40.7120E-03
            1989            2543     51.1862E-03     51.5027E-03
            1980            2543     51.1862E-03     51.5027E-03
            1981            2543     51.1862E-03     51.5027E-03
            1990            2543     51.1862E-03     51.5027E-03
            1990            2544     63.7937E-03     63.6911E-03
            1981            2544     63.7937E-03     63.6911E-03
            1991            2544     63.7937E-03     63.6911E-03
            1982            2544     63.7937E-03     63.6911E-03
            1992            2545     67.8028E-03     67.3536E-03
            1984            2545     67.8028E-03     67.3536E-03
            1983            2545     67.8028E-03     67.3536E-03
            1993            2545     67.8028E-03     67.3536E-03
            1994            2546     53.6947E-03     53.8178E-03
            1985            2546     53.6947E-03     53.8178E-03
            1993            2546     53.6947E-03     53.8178E-03
            1984            2546     53.6947E-03     53.8178E-03
            1995            2547     42.3323E-03     42.3608E-03
            1985            2547     42.3323E-03     42.3608E-03
            1994            2547     42.3323E-03     42.3608E-03
            1986            2547     42.3323E-03     42.3608E-03
            1996            2548     35.4549E-03     35.0807E-03
            1986            2548     35.4549E-03     35.0807E-03
            1987            2548     35.4549E-03     35.0807E-03
            1995            2548     35.4549E-03     35.0807E-03
            1997            2549     35.4549E-03     35.0807E-03
            1988            2549     35.4549E-03     35.0807E-03
            1996            2549     35.4549E-03     35.0807E-03
            1987            2549     35.4549E-03     35.0807E-03
            1997            2550     42.3323E-03     42.3608E-03
            1989            2550     42.3323E-03     42.3608E-03
            1998            2550     42.3323E-03     42.3608E-03
            1988            2550     42.3323E-03     42.3608E-03
            1998            2551     53.6947E-03     53.8178E-03
            1989            2551     53.6947E-03     53.8178E-03
            1999            2551     53.6947E-03     53.8178E-03
            1990            2551     53.6947E-03     53.8178E-03
            1991            2552     67.8028E-03     67.3536E-03
            1999            2552     67.8028E-03     67.3536E-03
            1990            2552     67.8028E-03     67.3536E-03
            2000            2552     67.8028E-03     67.3536E-03
            2002            2553     71.8168E-03     71.2206E-03
            1992            2553     71.8168E-03     71.2206E-03
            1993            2553     71.8168E-03     71.2206E-03
            2001            2553     71.8168E-03     71.2206E-03
            1993            2554     56.4216E-03     56.5467E-03
            1994            2554     56.4216E-03     56.5467E-03
            2002            2554     56.4216E-03     56.5467E-03
            2003            2554     56.4216E-03     56.5467E-03
            2004            2555     43.6641E-03     44.1377E-03
            1994            2555     43.6641E-03     44.1377E-03
            2003            2555     43.6641E-03     44.1377E-03
            1995            2555     43.6641E-03     44.1377E-03
            1996            2556     35.9941E-03     36.5294E-03
            2004            2556     35.9941E-03     36.5294E-03
            2005            2556     35.9941E-03     36.5294E-03
            1995            2556     35.9941E-03     36.5294E-03
            2006            2557     35.9941E-03     36.5294E-03
            1996            2557     35.9941E-03     36.5294E-03
            2005            2557     35.9941E-03     36.5294E-03
            1997            2557     35.9941E-03     36.5294E-03
            2007            2558     43.6641E-03     44.1377E-03
            1997            2558     43.6641E-03     44.1377E-03
            1998            2558     43.6641E-03     44.1377E-03
            2006            2558     43.6641E-03     44.1377E-03
            2008            2559     56.4216E-03     56.5467E-03
            2007            2559     56.4216E-03     56.5467E-03
            1998            2559     56.4216E-03     56.5467E-03
            1999            2559     56.4216E-03     56.5467E-03
            2000            2560     71.8168E-03     71.2206E-03
            2009            2560     71.8168E-03     71.2206E-03
            1999            2560     71.8168E-03     71.2206E-03
            2008            2560     71.8168E-03     71.2206E-03
            2011            2561     75.8958E-03     75.3011E-03
            2002            2561     75.8958E-03     75.3011E-03
            2001            2561     75.8958E-03     75.3011E-03
            2010            2561     75.8958E-03     75.3011E-03
            2011            2562     59.0584E-03     59.4049E-03
            2012            2562     59.0584E-03     59.4049E-03
            2002            2562     59.0584E-03     59.4049E-03
            2003            2562     59.0584E-03     59.4049E-03
            2003            2563     45.0052E-03     46.1290E-03
            2012            2563     45.0052E-03     46.1290E-03
            2004            2563     45.0052E-03     46.1290E-03
            2013            2563     45.0052E-03     46.1290E-03
            2005            2564     36.3535E-03     37.9739E-03
            2013            2564     36.3535E-03     37.9739E-03
            2014            2564     36.3535E-03     37.9739E-03
            2004            2564     36.3535E-03     37.9739E-03
            2005            2565     36.3535E-03     37.9739E-03
            2006            2565     36.3535E-03     37.9739E-03
            2015            2565     36.3535E-03     37.9739E-03
            2014            2565     36.3535E-03     37.9739E-03
            2006            2566     45.0052E-03     46.1290E-03
            2015            2566     45.0052E-03     46.1290E-03
            2007            2566     45.0052E-03     46.1290E-03
            2016            2566     45.0052E-03     46.1290E-03
            2017            2567     59.0584E-03     59.4049E-03
            2016            2567     59.0584E-03     59.4049E-03
            2008            2567     59.0584E-03     59.4049E-03
            2007            2567     59.0584E-03     59.4049E-03
            2018            2568     75.8958E-03     75.3011E-03
            2008            2568     75.8958E-03     75.3011E-03
            2009            2568     75.8958E-03     75.3011E-03
            2017            2568     75.8958E-03     75.3011E-03
            2011            2569     79.7954E-03     79.4737E-03
            2010            2569     79.7954E-03     79.4737E-03
            2019            2569     79.7954E-03     79.4737E-03
            2020            2569     79.7954E-03     79.4737E-03
            2021            2570     61.8614E-03     62.8863E-03
            2012            2570     61.8614E-03     62.8863E-03
            2011            2570     61.8614E-03     62.8863E-03
            2020            2570     61.8614E-03     62.8863E-03
            2012            2571     46.0849E-03     48.1592E-03
            2021            2571     46.0849E-03     48.1592E-03
            2022            2571     46.0849E-03     48.1592E-03
            2013            2571     46.0849E-03     48.1592E-03
            2023            2572     35.7549E-03     38.3472E-03
            2014            2572     35.7549E-03     38.3472E-03
            2013            2572     35.7549E-03     38.3472E-03
            2022            2572     35.7549E-03     38.3472E-03
            2015            2573     35.7549E-03     38.3472E-03
            2024            2573     35.7549E-03     38.3472E-03
            2023            2573     35.7549E-03     38.3472E-03
            2014            2573     35.7549E-03     38.3472E-03
            2016            2574     46.0849E-03     48.1592E-03
            2015            2574     46.0849E-03     48.1592E-03
            2024            2574     46.0849E-03     48.1592E-03
            2025            2574     46.0849E-03     48.1592E-03
            2025            2575     61.8614E-03     62.8863E-03
            2017            2575     61.8614E-03     62.8863E-03
            2026            2575     61.8614E-03     62.8863E-03
            2016            2575     61.8614E-03     62.8863E-03
            2018            2576     79.7954E-03     79.4737E-03
            2026            2576     79.7954E-03     79.4737E-03
            2017            2576     79.7954E-03     79.4737E-03
            2027            2576     79.7954E-03     79.4737E-03
            2019            2577     84.9639E-03     85.4051E-03
            2028            2577     84.9639E-03     85.4051E-03
            2020            2577     84.9639E-03     85.4051E-03
            2029            2577     84.9639E-03     85.4051E-03
            2020            2578     64.1354E-03     65.6327E-03
            2030            2578     64.1354E-03     65.6327E-03
            2021            2578     64.1354E-03     65.6327E-03
            2029            2578     64.1354E-03     65.6327E-03
            2030            2579     45.0961E-03     47.2203E-03
            2031            2579     45.0961E-03     47.2203E-03
            2021            2579     45.0961E-03     47.2203E-03
            2022            2579     45.0961E-03     47.2203E-03
            2032            2580     33.5796E-03     36.4353E-03
            2022            2580     33.5796E-03     36.4353E-03
            2031            2580     33.5796E-03     36.4353E-03
            2023            2580     33.5796E-03     36.4353E-03
            2032            2581     33.5796E-03     36.4353E-03
            2023            2581     33.5796E-03     36.4353E-03
            2033            2581     33.5796E-03     36.4353E-03
            2024            2581     33.5796E-03     36.4353E-03
            2025            2582     45.0961E-03     47.2203E-03
            2024            2582     45.0961E-03     47.2203E-03
            2034            2582     45.0961E-03     47.2203E-03
            2033            2582     45.0961E-03     47.2203E-03
            2035            2583     64.1354E-03     65.6327E-03
            2025            2583     64.1354E-03     65.6327E-03
            2034            2583     64.1354E-03     65.6327E-03
            2026            2583     64.1354E-03     65.6327E-03
            2035            2584     84.9639E-03     85.4051E-03
            2027            2584     84.9639E-03     85.4051E-03
            2036            2584     84.9639E-03     85.4051E-03
            2026            2584     84.9639E-03     85.4051E-03
            2029            2585     89.3435E-03     86.7931E-03
            2037            2585     89.3435E-03     86.7931E-03
            2038            2585     89.3435E-03     86.7931E-03
            2028            2585     89.3435E-03     86.7931E-03
            2038            2586     62.5606E-03     61.2935E-03
            2030            2586     62.5606E-03     61.2935E-03
            2039            2586     62.5606E-03     61.2935E-03
            2029            2586     62.5606E-03     61.2935E-03
            2039            2587     41.6544E-03     41.7070E-03
            2031            2587     41.6544E-03     41.7070E-03
            2030            2587     41.6544E-03     41.7070E-03
            2040            2587     41.6544E-03     41.7070E-03
            2041            2588     28.7940E-03     30.4595E-03
            2040            2588     28.7940E-03     30.4595E-03
            2031            2588     28.7940E-03     30.4595E-03
            2032            2588     28.7940E-03     30.4595E-03
            2033            2589     28.7940E-03     30.4595E-03
            2032            2589     28.7940E-03     30.4595E-03
            2041            2589     28.7940E-03     30.4595E-03
            2042            2589     28.7940E-03     30.4595E-03
            2042            2590     41.6544E-03     41.7070E-03
            2033            2590     41.6544E-03     41.7070E-03
            2034            2590     41.6544E-03     41.7070E-03
            2043            2590     41.6544E-03     41.7070E-03
            2034            2591     62.5606E-03     61.2935E-03
            2035            2591     62.5606E-03     61.2935E-03
            2043            2591     62.5606E-03     61.2935E-03
            2044            2591     62.5606E-03     61.2935E-03
            2045            2592     89.3435E-03     86.7931E-03
            2036            2592     89.3435E-03     86.7931E-03
            2035            2592     89.3435E-03     86.7931E-03
            2044            2592     89.3435E-03     86.7931E-03
            2047            2593     82.8763E-03     74.7390E-03
            2037            2593     82.8763E-03     74.7390E-03
            2038            2593     82.8763E-03     74.7390E-03
            2046            2593     82.8763E-03     74.7390E-03
            2039            2594     60.4811E-03     54.5822E-03
            2038            2594     60.4811E-03     54.5822E-03
            2047            2594     60.4811E-03     54.5822E-03
            2048            2594     60.4811E-03     54.5822E-03
            2048            2595     43.6804E-03     40.5580E-03
            2049            2595     43.6804E-03     40.5580E-03
            2040            2595     43.6804E-03     40.5580E-03
            2039            2595     43.6804E-03     40.5580E-03
            2050            2596     32.7870E-03     31.7276E-03
            2040            2596     32.7870E-03     31.7276E-03
            2049            2596     32.7870E-03     31.7276E-03
            2041            2596     32.7870E-03     31.7276E-03
            2042            2597     32.7870E-03     31.7276E-03
            2041            2597     32.7870E-03     31.7276E-03
            2050            2597     32.7870E-03     31.7276E-03
            2051            2597     32.7870E-03     31.7276E-03
            2042            2598     43.6804E-03     40.5580E-03
            2051            2598     43.6804E-03     40.5580E-03
            2043            2598     43.6804E-03     40.5580E-03
            2052            2598     43.6804E-03     40.5580E-03
            2043            2599     60.4811E-03     54.5822E-03
            2044            2599     60.4811E-03     54.5822E-03
            2052            2599     60.4811E-03     54.5822E-03
            2053            2599     60.4811E-03     54.5822E-03
            2054            2600     82.8763E-03     74.7390E-03
            2053            2600     82.8763E-03     74.7390E-03
            2044            2600     82.8763E-03     74.7390E-03
            2045            2600     82.8763E-03     74.7390E-03
            2047            2601     78.7699E-03     74.6873E-03
            2055            2601     78.7699E-03     74.6873E-03
            2056            2601     78.7699E-03     74.6873E-03
            2046            2601     78.7699E-03     74.6873E-03
            2057            2602     62.6557E-03     58.0423E-03
            2056            2602     62.6557E-03     58.0423E-03
            2047            2602     62.6557E-03     58.0423E-03
            2048            2602     62.6557E-03     58.0423E-03
            2049            2603     47.8131E-03     43.7453E-03
            2058            2603     47.8131E-03     43.7453E-03
            2048            2603     47.8131E-03     43.7453E-03
            2057            2603     47.8131E-03     43.7453E-03
            2050            2604     38.3669E-03     34.8688E-03
            2059            2604     38.3669E-03     34.8688E-03
            2058            2604     38.3669E-03     34.8688E-03
            2049            2604     38.3669E-03     34.8688E-03
            2059            2605     38.3669E-03     34.8688E-03
            2060            2605     38.3669E-03     34.8688E-03
            2051            2605     38.3669E-03     34.8688E-03
            2050            2605     38.3669E-03     34.8688E-03
            2060            2606     47.8131E-03     43.7453E-03
            2051            2606     47.8131E-03     43.7453E-03
            2052            2606     47.8131E-03     43.7453E-03
            2061            2606     47.8131E-03     43.7453E-03
            2062            2607     62.6557E-03     58.0423E-03
            2052            2607     62.6557E-03     58.0423E-03
            2061            2607     62.6557E-03     58.0423E-03
            2053            2607     62.6557E-03     58.0423E-03
            2053            2608     78.7699E-03     74.6873E-03
            2054            2608     78.7699E-03     74.6873E-03
            2062            2608     78.7699E-03     74.6873E-03
            2063            2608     78.7699E-03     74.6873E-03
            2065            2609     84.6139E-03     86.0727E-03
            2055            2609     84.6139E-03     86.0727E-03
            2064            2609     84.6139E-03     86.0727E-03
            2056            2609     84.6139E-03     86.0727E-03
            2065            2610     65.9479E-03     66.0890E-03
            2066            2610     65.9479E-03     66.0890E-03
            2057            2610     65.9479E-03     66.0890E-03
            2056            2610     65.9479E-03     66.0890E-03
            2057            2611     48.3890E-03     45.9945E-03
            2066            2611     48.3890E-03     45.9945E-03
            2067            2611     48.3890E-03     45.9945E-03
            2058            2611     48.3890E-03     45.9945E-03
            2068            2612     36.4966E-03     32.4549E-03
            2067            2612     36.4966E-03     32.4549E-03
            2059            2612     36.4966E-03     32.4549E-03
            2058            2612     36.4966E-03     32.4549E-03
            2069            2613     36.4966E-03     32.4549E-03
            2068            2613     36.4966E-03     32.4549E-03
            2060            2613     36.4966E-03     32.4549E-03
            2059            2613     36.4966E-03     32.4549E-03
            2060            2614     48.3890E-03     45.9945E-03
            2070            2614     48.3890E-03     45.9945E-03
            2061            2614     48.3890E-03     45.9945E-03
            2069            2614     48.3890E-03     45.9945E-03
            2070            2615     65.9479E-03     66.0890E-03
            2061            2615     65.9479E-03     66.0890E-03
            2062            2615     65.9479E-03     66.0890E-03
            2071            2615     65.9479E-03     66.0890E-03
            2071            2616     84.6139E-03     86.0727E-03
            2072            2616     84.6139E-03     86.0727E-03
            2062            2616     84.6139E-03     86.0727E-03
            2063            2616     84.6139E-03     86.0727E-03
            2074            2617     89.1345E-03     89.6666E-03
            2073            2617     89.1345E-03     89.6666E-03
            2065            2617     89.1345E-03     89.6666E-03
            2064            2617     89.1345E-03     89.6666E-03
            2066            2618     68.4184E-03     69.5954E-03
            2074            2618     68.4184E-03     69.5954E-03
            2075            2618     68.4184E-03     69.5954E-03
            2065            2618     68.4184E-03     69.5954E-03
            2067            2619     49.6158E-03     48.8348E-03
            2066            2619     49.6158E-03     48.8348E-03
            2075            2619     49.6158E-03     48.8348E-03
            2076            2619     49.6158E-03     48.8348E-03
            2077            2620     36.5605E-03     33.4259E-03
            2076            2620     36.5605E-03     33.4259E-03
            2067            2620     36.5605E-03     33.4259E-03
            2068            2620     36.5605E-03     33.4259E-03
            2077            2621     36.5605E-03     33.4259E-03
            2069            2621     36.5605E-03     33.4259E-03
            2068            2621     36.5605E-03     33.4259E-03
            2078            2621     36.5605E-03     33.4259E-03
            2079            2622     49.6158E-03     48.8348E-03
            2078            2622     49.6158E-03     48.8348E-03
            2069            2622     49.6158E-03     48.8348E-03
            2070            2622     49.6158E-03     48.8348E-03
            2071            2623     68.4184E-03     69.5954E-03
            2079            2623     68.4184E-03     69.5954E-03
            2070            2623     68.4184E-03     69.5954E-03
            2080            2623     68.4184E-03     69.5954E-03
            2080            2624     89.1345E-03     89.6666E-03
            2072            2624     89.1345E-03     89.6666E-03
            2081            2624     89.1345E-03     89.6666E-03
            2071            2624     89.1345E-03     89.6666E-03
            2083            2625     93.5879E-03     93.2963E-03
            2082            2625     93.5879E-03     93.2963E-03
            2073            2625     93.5879E-03     93.2963E-03
            2074            2625     93.5879E-03     93.2963E-03
            2084            2626     70.9385E-03     71.4562E-03
            2075            2626     70.9385E-03     71.4562E-03
            2074            2626     70.9385E-03     71.4562E-03
            2083            2626     70.9385E-03     71.4562E-03
            2075            2627     50.8121E-03     50.6655E-03
            2076            2627     50.8121E-03     50.6655E-03
            2085            2627     50.8121E-03     50.6655E-03
            2084            2627     50.8121E-03     50.6655E-03
            2086            2628     37.2711E-03     35.5068E-03
            2076            2628     37.2711E-03     35.5068E-03
            2085            2628     37.2711E-03     35.5068E-03
            2077            2628     37.2711E-03     35.5068E-03
            2087            2629     37.2711E-03     35.5068E-03
            2086            2629     37.2711E-03     35.5068E-03
            2077            2629     37.2711E-03     35.5068E-03
            2078            2629     37.2711E-03     35.5068E-03
            2088            2630     50.8121E-03     50.6655E-03
            2087            2630     50.8121E-03     50.6655E-03
            2078            2630     50.8121E-03     50.6655E-03
            2079            2630     50.8121E-03     50.6655E-03
            2079            2631     70.9385E-03     71.4562E-03
            2088            2631     70.9385E-03     71.4562E-03
            2080            2631     70.9385E-03     71.4562E-03
            2089            2631     70.9385E-03     71.4562E-03
            2080            2632     93.5879E-03     93.2963E-03
            2081            2632     93.5879E-03     93.2963E-03
            2090            2632     93.5879E-03     93.2963E-03
            2089            2632     93.5879E-03     93.2963E-03
            2082            2633     97.7417E-03     97.0209E-03
            2092            2633     97.7417E-03     97.0209E-03
            2083            2633     97.7417E-03     97.0209E-03
            2091            2633     97.7417E-03     97.0209E-03
            2084            2634     73.6700E-03     73.8549E-03
            2092            2634     73.6700E-03     73.8549E-03
            2093            2634     73.6700E-03     73.8549E-03
            2083            2634     73.6700E-03     73.8549E-03
            2084            2635     52.3370E-03     52.4943E-03
            2093            2635     52.3370E-03     52.4943E-03
            2085            2635     52.3370E-03     52.4943E-03
            2094            2635     52.3370E-03     52.4943E-03
            2095            2636     37.9586E-03     37.4919E-03
            2086            2636     37.9586E-03     37.4919E-03
            2094            2636     37.9586E-03     37.4919E-03
            2085            2636     37.9586E-03     37.4919E-03
            2087            2637     37.9586E-03     37.4919E-03
            2095            2637     37.9586E-03     37.4919E-03
            2086            2637     37.9586E-03     37.4919E-03
            2096            2637     37.9586E-03     37.4919E-03
            2087            2638     52.3370E-03     52.4943E-03
            2096            2638     52.3370E-03     52.4943E-03
            2088            2638     52.3370E-03     52.4943E-03
            2097            2638     52.3370E-03     52.4943E-03
            2097            2639     73.6700E-03     73.8549E-03
            2088            2639     73.6700E-03     73.8549E-03
            2089            2639     73.6700E-03     73.8549E-03
            2098            2639     73.6700E-03     73.8549E-03
            2089            2640     97.7417E-03     97.0209E-03
            2090            2640     97.7417E-03     97.0209E-03
            2098            2640     97.7417E-03     97.0209E-03
            2099            2640     97.7417E-03     97.0209E-03
            2091            2641     101.862E-03     100.991E-03
            2092            2641     101.862E-03     100.991E-03
            2101            2641     101.862E-03     100.991E-03
            2100            2641     101.862E-03     100.991E-03
            2102            2642     76.5946E-03     76.7870E-03
            2092            2642     76.5946E-03     76.7870E-03
            2101            2642     76.5946E-03     76.7870E-03
            2093            2642     76.5946E-03     76.7870E-03
            2094            2643     53.8857E-03     54.5945E-03
            2102            2643     53.8857E-03     54.5945E-03
            2093            2643     53.8857E-03     54.5945E-03
            2103            2643     53.8857E-03     54.5945E-03
            2104            2644     38.6897E-03     39.4905E-03
            2094            2644     38.6897E-03     39.4905E-03
            2095            2644     38.6897E-03     39.4905E-03
            2103            2644     38.6897E-03     39.4905E-03
            2105            2645     38.6897E-03     39.4905E-03
            2096            2645     38.6897E-03     39.4905E-03
            2095            2645     38.6897E-03     39.4905E-03
            2104            2645     38.6897E-03     39.4905E-03
            2105            2646     53.8857E-03     54.5945E-03
            2097            2646     53.8857E-03     54.5945E-03
            2096            2646     53.8857E-03     54.5945E-03
            2106            2646     53.8857E-03     54.5945E-03
            2106            2647     76.5946E-03     76.7870E-03
            2107            2647     76.5946E-03     76.7870E-03
            2097            2647     76.5946E-03     76.7870E-03
            2098            2647     76.5946E-03     76.7870E-03
            2108            2648     101.862E-03     100.991E-03
            2098            2648     101.862E-03     100.991E-03
            2099            2648     101.862E-03     100.991E-03
            2107            2648     101.862E-03     100.991E-03
            2100            2649     106.016E-03     105.223E-03
            2110            2649     106.016E-03     105.223E-03
            2101            2649     106.016E-03     105.223E-03
            2109            2649     106.016E-03     105.223E-03
            2111            2650     79.3800E-03     79.9355E-03
            2101            2650     79.3800E-03     79.9355E-03
            2102            2650     79.3800E-03     79.9355E-03
            2110            2650     79.3800E-03     79.9355E-03
            2103            2651     55.4673E-03     57.0936E-03
            2112            2651     55.4673E-03     57.0936E-03
            2102            2651     55.4673E-03     57.0936E-03
            2111            2651     55.4673E-03     57.0936E-03
            2113            2652     39.2294E-03     41.5749E-03
            2112            2652     39.2294E-03     41.5749E-03
            2103            2652     39.2294E-03     41.5749E-03
            2104            2652     39.2294E-03     41.5749E-03
            2113            2653     39.2294E-03     41.5749E-03
            2104            2653     39.2294E-03     41.5749E-03
            2114            2653     39.2294E-03     41.5749E-03
            2105            2653     39.2294E-03     41.5749E-03
            2105            2654     55.4673E-03     57.0936E-03
            2115            2654     55.4673E-03     57.0936E-03
            2106            2654     55.4673E-03     57.0936E-03
            2114            2654     55.4673E-03     57.0936E-03
            2107            2655     79.3800E-03     79.9355E-03
            2116            2655     79.3800E-03     79.9355E-03
            2115            2655     79.3800E-03     79.9355E-03
            2106            2655     79.3800E-03     79.9355E-03
            2107            2656     106.016E-03     105.223E-03
            2116            2656     106.016E-03     105.223E-03
            2117            2656     106.016E-03     105.223E-03
            2108            2656     106.016E-03     105.223E-03
            2118            2657     109.867E-03     109.549E-03
            2110            2657     109.867E-03     109.549E-03
            2119            2657     109.867E-03     109.549E-03
            2109            2657     109.867E-03     109.549E-03
            2119            2658     82.3384E-03     83.9170E-03
            2111            2658     82.3384E-03     83.9170E-03
            2110            2658     82.3384E-03     83.9170E-03
            2120            2658     82.3384E-03     83.9170E-03
            2120            2659     56.7135E-03     59.6002E-03
            2111            2659     56.7135E-03     59.6002E-03
            2121            2659     56.7135E-03     59.6002E-03
            2112            2659     56.7135E-03     59.6002E-03
            2121            2660     38.5937E-03     42.2704E-03
            2113            2660     38.5937E-03     42.2704E-03
            2112            2660     38.5937E-03     42.2704E-03
            2122            2660     38.5937E-03     42.2704E-03
            2114            2661     38.5937E-03     42.2704E-03
            2122            2661     38.5937E-03     42.2704E-03
            2123            2661     38.5937E-03     42.2704E-03
            2113            2661     38.5937E-03     42.2704E-03
            2115            2662     56.7135E-03     59.6002E-03
            2124            2662     56.7135E-03     59.6002E-03
            2114            2662     56.7135E-03     59.6002E-03
            2123            2662     56.7135E-03     59.6002E-03
            2115            2663     82.3384E-03     83.9170E-03
            2124            2663     82.3384E-03     83.9170E-03
            2125            2663     82.3384E-03     83.9170E-03
            2116            2663     82.3384E-03     83.9170E-03
            2125            2664     109.867E-03     109.549E-03
            2116            2664     109.867E-03     109.549E-03
            2117            2664     109.867E-03     109.549E-03
            2126            2664     109.867E-03     109.549E-03
            2127            2665     115.119E-03     115.908E-03
            2119            2665     115.119E-03     115.908E-03
            2128            2665     115.119E-03     115.908E-03
            2118            2665     115.119E-03     115.908E-03
            2119            2666     84.5284E-03     86.5538E-03
            2128            2666     84.5284E-03     86.5538E-03
            2120            2666     84.5284E-03     86.5538E-03
            2129            2666     84.5284E-03     86.5538E-03
            2120            2667     55.4468E-03     58.1215E-03
            2130            2667     55.4468E-03     58.1215E-03
            2121            2667     55.4468E-03     58.1215E-03
            2129            2667     55.4468E-03     58.1215E-03
            2131            2668     36.0709E-03     40.0271E-03
            2130            2668     36.0709E-03     40.0271E-03
            2121            2668     36.0709E-03     40.0271E-03
            2122            2668     36.0709E-03     40.0271E-03
            2123            2669     36.0709E-03     40.0271E-03
            2132            2669     36.0709E-03     40.0271E-03
            2122            2669     36.0709E-03     40.0271E-03
            2131            2669     36.0709E-03     40.0271E-03
            2123            2670     55.4468E-03     58.1215E-03
            2124            2670     55.4468E-03     58.1215E-03
            2132            2670     55.4468E-03     58.1215E-03
            2133            2670     55.4468E-03     58.1215E-03
            2124            2671     84.5284E-03     86.5538E-03
            2125            2671     84.5284E-03     86.5538E-03
            2133            2671     84.5284E-03     86.5538E-03
            2134            2671     84.5284E-03     86.5538E-03
            2126            2672     115.119E-03     115.908E-03
            2125            2672     115.119E-03     115.908E-03
            2135            2672     115.119E-03     115.908E-03
            2134            2672     115.119E-03     115.908E-03
            2136            2673     119.138E-03     115.298E-03
            2128            2673     119.138E-03     115.298E-03
            2127            2673     119.138E-03     115.298E-03
            2137            2673     119.138E-03     115.298E-03
            2128            2674     82.0689E-03     79.6848E-03
            2137            2674     82.0689E-03     79.6848E-03
            2129            2674     82.0689E-03     79.6848E-03
            2138            2674     82.0689E-03     79.6848E-03
            2129            2675     51.3335E-03     50.7538E-03
            2139            2675     51.3335E-03     50.7538E-03
            2130            2675     51.3335E-03     50.7538E-03
            2138            2675     51.3335E-03     50.7538E-03
            2131            2676     30.1561E-03     32.2585E-03
            2140            2676     30.1561E-03     32.2585E-03
            2139            2676     30.1561E-03     32.2585E-03
            2130            2676     30.1561E-03     32.2585E-03
            2131            2677     30.1561E-03     32.2585E-03
            2141            2677     30.1561E-03     32.2585E-03
            2140            2677     30.1561E-03     32.2585E-03
            2132            2677     30.1561E-03     32.2585E-03
            2132            2678     51.3335E-03     50.7538E-03
            2133            2678     51.3335E-03     50.7538E-03
            2142            2678     51.3335E-03     50.7538E-03
            2141            2678     51.3335E-03     50.7538E-03
            2142            2679     82.0689E-03     79.6848E-03
            2133            2679     82.0689E-03     79.6848E-03
            2143            2679     82.0689E-03     79.6848E-03
            2134            2679     82.0689E-03     79.6848E-03
            2144            2680     119.138E-03     115.298E-03
            2143            2680     119.138E-03     115.298E-03
            2135            2680     119.138E-03     115.298E-03
            2134            2680     119.138E-03     115.298E-03
            2146            2681     112.112E-03     100.864E-03
            2137            2681     112.112E-03     100.864E-03
            2145            2681     112.112E-03     100.864E-03
            2136            2681     112.112E-03     100.864E-03
            2146            2682     79.3718E-03     70.9749E-03
            2138            2682     79.3718E-03     70.9749E-03
            2137            2682     79.3718E-03     70.9749E-03
            2147            2682     79.3718E-03     70.9749E-03
            2138            2683     53.7667E-03     49.0996E-03
            2139            2683     53.7667E-03     49.0996E-03
            2148            2683     53.7667E-03     49.0996E-03
            2147            2683     53.7667E-03     49.0996E-03
            2148            2684     35.6318E-03     34.0527E-03
            2140            2684     35.6318E-03     34.0527E-03
            2149            2684     35.6318E-03     34.0527E-03
            2139            2684     35.6318E-03     34.0527E-03
            2149            2685     35.6318E-03     34.0527E-03
            2150            2685     35.6318E-03     34.0527E-03
            2141            2685     35.6318E-03     34.0527E-03
            2140            2685     35.6318E-03     34.0527E-03
            2151            2686     53.7667E-03     49.0996E-03
            2142            2686     53.7667E-03     49.0996E-03
            2141            2686     53.7667E-03     49.0996E-03
            2150            2686     53.7667E-03     49.0996E-03
            2143            2687     79.3718E-03     70.9749E-03
            2151            2687     79.3718E-03     70.9749E-03
            2152            2687     79.3718E-03     70.9749E-03
            2142            2687     79.3718E-03     70.9749E-03
            2153            2688     112.112E-03     100.864E-03
            2143            2688     112.112E-03     100.864E-03
            2152            2688     112.112E-03     100.864E-03
            2144            2688     112.112E-03     100.864E-03
            2155            2689     108.540E-03     103.228E-03
            2146            2689     108.540E-03     103.228E-03
            2154            2689     108.540E-03     103.228E-03
            2145            2689     108.540E-03     103.228E-03
            2147            2690     82.3980E-03     76.6150E-03
            2156            2690     82.3980E-03     76.6150E-03
            2155            2690     82.3980E-03     76.6150E-03
            2146            2690     82.3980E-03     76.6150E-03
            2156            2691     58.6380E-03     53.5198E-03
            2157            2691     58.6380E-03     53.5198E-03
            2148            2691     58.6380E-03     53.5198E-03
            2147            2691     58.6380E-03     53.5198E-03
            2158            2692     42.8932E-03     38.4503E-03
            2157            2692     42.8932E-03     38.4503E-03
            2149            2692     42.8932E-03     38.4503E-03
            2148            2692     42.8932E-03     38.4503E-03
            2149            2693     42.8932E-03     38.4503E-03
            2150            2693     42.8932E-03     38.4503E-03
            2159            2693     42.8932E-03     38.4503E-03
            2158            2693     42.8932E-03     38.4503E-03
            2151            2694     58.6380E-03     53.5198E-03
            2159            2694     58.6380E-03     53.5198E-03
            2160            2694     58.6380E-03     53.5198E-03
            2150            2694     58.6380E-03     53.5198E-03
            2152            2695     82.3980E-03     76.6150E-03
            2151            2695     82.3980E-03     76.6150E-03
            2160            2695     82.3980E-03     76.6150E-03
            2161            2695     82.3980E-03     76.6150E-03
            2162            2696     108.540E-03     103.228E-03
            2161            2696     108.540E-03     103.228E-03
            2152            2696     108.540E-03     103.228E-03
            2153            2696     108.540E-03     103.228E-03
            2164            2697     114.991E-03     116.897E-03
            2155            2697     114.991E-03     116.897E-03
            2154            2697     114.991E-03     116.897E-03
            2163            2697     114.991E-03     116.897E-03
            2156            2698     86.6944E-03     87.3642E-03
            2165            2698     86.6944E-03     87.3642E-03
            2155            2698     86.6944E-03     87.3642E-03
            2164            2698     86.6944E-03     87.3642E-03
            2157            2699     59.4564E-03     57.0686E-03
            2156            2699     59.4564E-03     57.0686E-03
            2166            2699     59.4564E-03     57.0686E-03
            2165            2699     59.4564E-03     57.0686E-03
            2157            2700     39.9936E-03     35.1419E-03
            2158            2700     39.9936E-03     35.1419E-03
            2167            2700     39.9936E-03     35.1419E-03
            2166            2700     39.9936E-03     35.1419E-03
            2159            2701     39.9936E-03     35.1419E-03
            2167            2701     39.9936E-03     35.1419E-03
            2158            2701     39.9936E-03     35.1419E-03
            2168            2701     39.9936E-03     35.1419E-03
            2168            2702     59.4564E-03     57.0686E-03
            2160            2702     59.4564E-03     57.0686E-03
            2159            2702     59.4564E-03     57.0686E-03
            2169            2702     59.4564E-03     57.0686E-03
            2161            2703     86.6944E-03     87.3642E-03
            2160            2703     86.6944E-03     87.3642E-03
            2170            2703     86.6944E-03     87.3642E-03
            2169            2703     86.6944E-03     87.3642E-03
            2171            2704     114.991E-03     116.897E-03
            2170            2704     114.991E-03     116.897E-03
            2161            2704     114.991E-03     116.897E-03
            2162            2704     114.991E-03     116.897E-03
            2163            2705     119.679E-03     120.343E-03
            2172            2705     119.679E-03     120.343E-03
            2164            2705     119.679E-03     120.343E-03
            2173            2705     119.679E-03     120.343E-03
            2165            2706     89.5024E-03     91.4140E-03
            2173            2706     89.5024E-03     91.4140E-03
            2164            2706     89.5024E-03     91.4140E-03
            2174            2706     89.5024E-03     91.4140E-03
            2166            2707     60.8607E-03     60.6358E-03
            2165            2707     60.8607E-03     60.6358E-03
            2174            2707     60.8607E-03     60.6358E-03
            2175            2707     60.8607E-03     60.6358E-03
            2175            2708     39.8746E-03     36.4118E-03
            2167            2708     39.8746E-03     36.4118E-03
            2176            2708     39.8746E-03     36.4118E-03
            2166            2708     39.8746E-03     36.4118E-03
            2177            2709     39.8746E-03     36.4118E-03
            2167            2709     39.8746E-03     36.4118E-03
            2176            2709     39.8746E-03     36.4118E-03
            2168            2709     39.8746E-03     36.4118E-03
            2168            2710     60.8607E-03     60.6358E-03
            2177            2710     60.8607E-03     60.6358E-03
            2178            2710     60.8607E-03     60.6358E-03
            2169            2710     60.8607E-03     60.6358E-03
            2179            2711     89.5024E-03     91.4140E-03
            2178            2711     89.5024E-03     91.4140E-03
            2169            2711     89.5024E-03     91.4140E-03
            2170            2711     89.5024E-03     91.4140E-03
            2170            2712     119.679E-03     120.343E-03
            2171            2712     119.679E-03     120.343E-03
            2179            2712     119.679E-03     120.343E-03
            2180            2712     119.679E-03     120.343E-03
            2181            2713     124.296E-03     124.070E-03
            2172            2713     124.296E-03     124.070E-03
            2173            2713     124.296E-03     124.070E-03
            2182            2713     124.296E-03     124.070E-03
            2173            2714     92.1378E-03     93.2094E-03
            2183            2714     92.1378E-03     93.2094E-03
            2182            2714     92.1378E-03     93.2094E-03
            2174            2714     92.1378E-03     93.2094E-03
            2175            2715     62.2933E-03     62.8697E-03
            2184            2715     62.2933E-03     62.8697E-03
            2183            2715     62.2933E-03     62.8697E-03
            2174            2715     62.2933E-03     62.8697E-03
            2185            2716     40.5216E-03     38.9567E-03
            2184            2716     40.5216E-03     38.9567E-03
            2176            2716     40.5216E-03     38.9567E-03
            2175            2716     40.5216E-03     38.9567E-03
            2186            2717     40.5216E-03     38.9567E-03
            2176            2717     40.5216E-03     38.9567E-03
            2177            2717     40.5216E-03     38.9567E-03
            2185            2717     40.5216E-03     38.9567E-03
            2187            2718     62.2933E-03     62.8697E-03
            2186            2718     62.2933E-03     62.8697E-03
            2177            2718     62.2933E-03     62.8697E-03
            2178            2718     62.2933E-03     62.8697E-03
            2179            2719     92.1378E-03     93.2094E-03
            2187            2719     92.1378E-03     93.2094E-03
            2178            2719     92.1378E-03     93.2094E-03
            2188            2719     92.1378E-03     93.2094E-03
            2188            2720     124.296E-03     124.070E-03
            2189            2720     124.296E-03     124.070E-03
            2180            2720     124.296E-03     124.070E-03
            2179            2720     124.296E-03     124.070E-03
            2190            2721     128.697E-03     128.024E-03
            2181            2721     128.697E-03     128.024E-03
            2182            2721     128.697E-03     128.024E-03
            2191            2721     128.697E-03     128.024E-03
            2182            2722     95.1056E-03     95.9764E-03
            2192            2722     95.1056E-03     95.9764E-03
            2183            2722     95.1056E-03     95.9764E-03
            2191            2722     95.1056E-03     95.9764E-03
            2183            2723     63.8194E-03     64.8929E-03
            2193            2723     63.8194E-03     64.8929E-03
            2192            2723     63.8194E-03     64.8929E-03
            2184            2723     63.8194E-03     64.8929E-03
            2193            2724     41.3891E-03     41.8170E-03
            2194            2724     41.3891E-03     41.8170E-03
            2184            2724     41.3891E-03     41.8170E-03
            2185            2724     41.3891E-03     41.8170E-03
            2186            2725     41.3891E-03     41.8170E-03
            2195            2725     41.3891E-03     41.8170E-03
            2185            2725     41.3891E-03     41.8170E-03
            2194            2725     41.3891E-03     41.8170E-03
            2196            2726     63.8194E-03     64.8929E-03
            2186            2726     63.8194E-03     64.8929E-03
            2187            2726     63.8194E-03     64.8929E-03
            2195            2726     63.8194E-03     64.8929E-03
            2188            2727     95.1056E-03     95.9764E-03
            2197            2727     95.1056E-03     95.9764E-03
            2196            2727     95.1056E-03     95.9764E-03
            2187            2727     95.1056E-03     95.9764E-03
            2188            2728     128.697E-03     128.024E-03
            2189            2728     128.697E-03     128.024E-03
            2198            2728     128.697E-03     128.024E-03
            2197            2728     128.697E-03     128.024E-03
            2191            2729     132.884E-03     132.215E-03
            2199            2729     132.884E-03     132.215E-03
            2190            2729     132.884E-03     132.215E-03
            2200            2729     132.884E-03     132.215E-03
            2201            2730     97.9447E-03     99.0408E-03
            2200            2730     97.9447E-03     99.0408E-03
            2191            2730     97.9447E-03     99.0408E-03
            2192            2730     97.9447E-03     99.0408E-03
            2202            2731     65.4775E-03     67.6628E-03
            2192            2731     65.4775E-03     67.6628E-03
            2193            2731     65.4775E-03     67.6628E-03
            2201            2731     65.4775E-03     67.6628E-03
            2194            2732     42.0972E-03     44.7604E-03
            2202            2732     42.0972E-03     44.7604E-03
            2203            2732     42.0972E-03     44.7604E-03
            2193            2732     42.0972E-03     44.7604E-03
            2195            2733     42.0972E-03     44.7604E-03
            2204            2733     42.0972E-03     44.7604E-03
            2203            2733     42.0972E-03     44.7604E-03
            2194            2733     42.0972E-03     44.7604E-03
            2205            2734     65.4775E-03     67.6628E-03
            2196            2734     65.4775E-03     67.6628E-03
            2195            2734     65.4775E-03     67.6628E-03
            2204            2734     65.4775E-03     67.6628E-03
            2205            2735     97.9447E-03     99.0408E-03
            2206            2735     97.9447E-03     99.0408E-03
            2196            2735     97.9447E-03     99.0408E-03
            2197            2735     97.9447E-03     99.0408E-03
            2198            2736     132.884E-03     132.215E-03
            2207            2736     132.884E-03     132.215E-03
            2197            2736     132.884E-03     132.215E-03
            2206            2736     132.884E-03     132.215E-03
            2208            2737     136.762E-03     136.589E-03
            2209            2737     136.762E-03     136.589E-03
            2200            2737     136.762E-03     136.589E-03
            2199            2737     136.762E-03     136.589E-03
            2210            2738     100.975E-03     103.250E-03
            2200            2738     100.975E-03     103.250E-03
            2209            2738     100.975E-03     103.250E-03
            2201            2738     100.975E-03     103.250E-03
            2210            2739     66.8161E-03     70.4460E-03
            2211            2739     66.8161E-03     70.4460E-03
            2202            2739     66.8161E-03     70.4460E-03
            2201            2739     66.8161E-03     70.4460E-03
            2211            2740     41.3893E-03     45.8598E-03
            2212            2740     41.3893E-03     45.8598E-03
            2203            2740     41.3893E-03     45.8598E-03
            2202            2740     41.3893E-03     45.8598E-03
            2212            2741     41.3893E-03     45.8598E-03
            2203            2741     41.3893E-03     45.8598E-03
            2213            2741     41.3893E-03     45.8598E-03
            2204            2741     41.3893E-03     45.8598E-03
            2214            2742     66.8161E-03     70.4460E-03
            2205            2742     66.8161E-03     70.4460E-03
            2204            2742     66.8161E-03     70.4460E-03
            2213            2742     66.8161E-03     70.4460E-03
            2205            2743     100.975E-03     103.250E-03
            2206            2743     100.975E-03     103.250E-03
            2214            2743     100.975E-03     103.250E-03
            2215            2743     100.975E-03     103.250E-03
            2215            2744     136.762E-03     136.589E-03
            2207            2744     136.762E-03     136.589E-03
            2206            2744     136.762E-03     136.589E-03
            2216            2744     136.762E-03     136.589E-03
            2218            2745     142.080E-03     143.268E-03
            2209            2745     142.080E-03     143.268E-03
            2217            2745     142.080E-03     143.268E-03
            2208            2745     142.080E-03     143.268E-03
            2209            2746     103.098E-03     105.657E-03
            2218            2746     103.098E-03     105.657E-03
            2219            2746     103.098E-03     105.657E-03
            2210            2746     103.098E-03     105.657E-03
            2219            2747     65.2923E-03     68.4000E-03
            2210            2747     65.2923E-03     68.4000E-03
            2211            2747     65.2923E-03     68.4000E-03
            2220            2747     65.2923E-03     68.4000E-03
            2211            2748     38.5799E-03     43.4197E-03
            2220            2748     38.5799E-03     43.4197E-03
            2221            2748     38.5799E-03     43.4197E-03
            2212            2748     38.5799E-03     43.4197E-03
            2221            2749     38.5799E-03     43.4197E-03
            2222            2749     38.5799E-03     43.4197E-03
            2213            2749     38.5799E-03     43.4197E-03
            2212            2749     38.5799E-03     43.4197E-03
            2223            2750     65.2923E-03     68.4000E-03
            2222            2750     65.2923E-03     68.4000E-03
            2213            2750     65.2923E-03     68.4000E-03
            2214            2750     65.2923E-03     68.4000E-03
            2224            2751     103.098E-03     105.657E-03
            2215            2751     103.098E-03     105.657E-03
            2214            2751     103.098E-03     105.657E-03
            2223            2751     103.098E-03     105.657E-03
            2216            2752     142.080E-03     143.268E-03
            2224            2752     142.080E-03     143.268E-03
            2225            2752     142.080E-03     143.268E-03
            2215            2752     142.080E-03     143.268E-03
            2218            2753     145.801E-03     140.799E-03
            2226            2753     145.801E-03     140.799E-03
            2227            2753     145.801E-03     140.799E-03
            2217            2753     145.801E-03     140.799E-03
            2219            2754     99.8712E-03     96.4516E-03
            2218            2754     99.8712E-03     96.4516E-03
            2228            2754     99.8712E-03     96.4516E-03
            2227            2754     99.8712E-03     96.4516E-03
            2228            2755     60.7003E-03     59.4373E-03
            2220            2755     60.7003E-03     59.4373E-03
            2229            2755     60.7003E-03     59.4373E-03
            2219            2755     60.7003E-03     59.4373E-03
            2221            2756     31.7570E-03     34.1593E-03
            2230            2756     31.7570E-03     34.1593E-03
            2229            2756     31.7570E-03     34.1593E-03
            2220            2756     31.7570E-03     34.1593E-03
            2230            2757     31.7570E-03     34.1593E-03
            2222            2757     31.7570E-03     34.1593E-03
            2221            2757     31.7570E-03     34.1593E-03
            2231            2757     31.7570E-03     34.1593E-03
            2231            2758     60.7003E-03     59.4373E-03
            2232            2758     60.7003E-03     59.4373E-03
            2222            2758     60.7003E-03     59.4373E-03
            2223            2758     60.7003E-03     59.4373E-03
            2223            2759     99.8712E-03     96.4516E-03
            2232            2759     99.8712E-03     96.4516E-03
            2224            2759     99.8712E-03     96.4516E-03
            2233            2759     99.8712E-03     96.4516E-03
            2224            2760     145.801E-03     140.799E-03
            2225            2760     145.801E-03     140.799E-03
            2234            2760     145.801E-03     140.799E-03
            2233            2760     145.801E-03     140.799E-03
            2245            2761     3.53418E-15     3.18549E-15
            2244            2761     3.53418E-15     3.18549E-15
            2236            2761     3.53418E-15     3.18549E-15
            2235            2761     3.53418E-15     3.18549E-15
            2237            2762     6.03198E-15     5.84378E-15
            2245            2762     6.03198E-15     5.84378E-15
            2236            2762     6.03198E-15     5.84378E-15
            2246            2762     6.03198E-15     5.84378E-15
            2238            2763     8.66846E-15     8.56050E-15
            2246            2763     8.66846E-15     8.56050E-15
            2247            2763     8.66846E-15     8.56050E-15
            2237            2763     8.66846E-15     8.56050E-15
            2248            2764     4.23435E-15     4.15697E-15
            2238            2764     4.23435E-15     4.15697E-15
            2239            2764     4.23435E-15     4.15697E-15
            2247            2764     4.23435E-15     4.15697E-15
            2249            2765     378.332E-18     364.449E-18
            2248            2765     378.332E-18     364.449E-18
            2239            2765     378.332E-18     364.449E-18
            2240            2765     378.332E-18     364.449E-18
            2249            2766     4.69586E-15     4.76085E-15
            2241            2766     4.69586E-15     4.76085E-15
            2240            2766     4.69586E-15     4.76085E-15
            2250            2766     4.69586E-15     4.76085E-15
            2242            2767     7.47439E-15     7.59072E-15
            2250            2767     7.47439E-15     7.59072E-15
            2251            2767     7.47439E-15     7.59072E-15
            2241            2767     7.47439E-15     7.59072E-15
            2243            2768     8.41340E-15     8.58096E-15
            2242            2768     8.41340E-15     8.58096E-15
            2252            2768     8.41340E-15     8.58096E-15
            2251            2768     8.41340E-15     8.58096E-15
            2254            2769     4.97674E-15     4.66838E-15
            2253            2769     4.97674E-15     4.66838E-15
            2245            2769     4.97674E-15     4.66838E-15
            2244            2769     4.97674E-15     4.66838E-15
            2246            2770     3.60231E-15     3.55214E-15
            2254            2770     3.60231E-15     3.55214E-15
            2245            2770     3.60231E-15     3.55214E-15
            2255            2770     3.60231E-15     3.55214E-15
            2255            2771     4.83055E-15     4.89145E-15
            2247            2771     4.83055E-15     4.89145E-15
            2256            2771     4.83055E-15     4.89145E-15
            2246            2771     4.83055E-15     4.89145E-15
            2247            2772     4.37884E-15     4.38917E-15
            2248            2772     4.37884E-15     4.38917E-15
            2257            2772     4.37884E-15     4.38917E-15
            2256            2772     4.37884E-15     4.38917E-15
            2257            2773     3.54818E-15     3.54752E-15
            2258            2773     3.54818E-15     3.54752E-15
            2249            2773     3.54818E-15     3.54752E-15
            2248            2773     3.54818E-15     3.54752E-15
            2258            2774     5.91311E-15     5.91410E-15
            2259            2774     5.91311E-15     5.91410E-15
            2250            2774     5.91311E-15     5.91410E-15
            2249            2774     5.91311E-15     5.91410E-15
            2251            2775     6.37239E-15     6.33478E-15
            2260            2775     6.37239E-15     6.33478E-15
            2259            2775     6.37239E-15     6.33478E-15
            2250            2775     6.37239E-15     6.33478E-15
            2251            2776     6.89060E-15     6.66102E-15
            2252            2776     6.89060E-15     6.66102E-15
            2260            2776     6.89060E-15     6.66102E-15
            2261            2776     6.89060E-15     6.66102E-15
            2254            2777     4.30209E-15     4.26120E-15
            2253            2777     4.30209E-15     4.26120E-15
            2263            2777     4.30209E-15     4.26120E-15
            2262            2777     4.30209E-15     4.26120E-15
            2264            2778     2.09998E-15     2.13145E-15
            2263            2778     2.09998E-15     2.13145E-15
            2254            2778     2.09998E-15     2.13145E-15
            2255            2778     2.09998E-15     2.13145E-15
            2256            2779     1.63475E-15     1.53873E-15
            2255            2779     1.63475E-15     1.53873E-15
            2265            2779     1.63475E-15     1.53873E-15
            2264            2779     1.63475E-15     1.53873E-15
            2265            2780     4.17012E-15     4.11971E-15
            2266            2780     4.17012E-15     4.11971E-15
            2256            2780     4.17012E-15     4.11971E-15
            2257            2780     4.17012E-15     4.11971E-15
            2267            2781     6.64577E-15     6.62507E-15
            2258            2781     6.64577E-15     6.62507E-15
            2257            2781     6.64577E-15     6.62507E-15
            2266            2781     6.64577E-15     6.62507E-15
            2267            2782     7.19133E-15     7.21363E-15
            2259            2782     7.19133E-15     7.21363E-15
            2268            2782     7.19133E-15     7.21363E-15
            2258            2782     7.19133E-15     7.21363E-15
            2268            2783     8.41642E-15     8.41684E-15
            2269            2783     8.41642E-15     8.41684E-15
            2260            2783     8.41642E-15     8.41684E-15
            2259            2783     8.41642E-15     8.41684E-15
            2261            2784     7.57577E-15     7.24614E-15
            2269            2784     7.57577E-15     7.24614E-15
            2260            2784     7.57577E-15     7.24614E-15
            2270            2784     7.57577E-15     7.24614E-15
            3851            4163     158.275E-03     154.454E-03
            3860            4163     158.275E-03     154.454E-03
            3852            4163     158.275E-03     154.454E-03
            3861            4163     158.275E-03     154.454E-03
            3852            4164     108.068E-03     106.455E-03
            3853            4164     108.068E-03     106.455E-03
            3862            4164     108.068E-03     106.455E-03
            3861            4164     108.068E-03     106.455E-03
            3862            4165     66.4512E-03     66.1275E-03
            3853            4165     66.4512E-03     66.1275E-03
            3854            4165     66.4512E-03     66.1275E-03
            3863            4165     66.4512E-03     66.1275E-03
            3854            4166     36.4962E-03     37.8880E-03
            3855            4166     36.4962E-03     37.8880E-03
            3864            4166     36.4962E-03     37.8880E-03
            3863            4166     36.4962E-03     37.8880E-03
            3864            4167     36.4962E-03     37.8880E-03
            3855            4167     36.4962E-03     37.8880E-03
            3856            4167     36.4962E-03     37.8880E-03
            3865            4167     36.4962E-03     37.8880E-03
            3856            4168     66.4512E-03     66.1275E-03
            3866            4168     66.4512E-03     66.1275E-03
            3857            4168     66.4512E-03     66.1275E-03
            3865            4168     66.4512E-03     66.1275E-03
            3867            4169     108.068E-03     106.455E-03
            3857            4169     108.068E-03     106.455E-03
            3866            4169     108.068E-03     106.455E-03
            3858            4169     108.068E-03     106.455E-03
            3858            4170     158.275E-03     154.454E-03
            3868            4170     158.275E-03     154.454E-03
            3867            4170     158.275E-03     154.454E-03
            3859            4170     158.275E-03     154.454E-03
            3860            4171     153.838E-03     157.196E-03
            3870            4171     153.838E-03     157.196E-03
            3869            4171     153.838E-03     157.196E-03
            3861            4171     153.838E-03     157.196E-03
            3871            4172     112.418E-03     117.503E-03
            3861            4172     112.418E-03     117.503E-03
            3870            4172     112.418E-03     117.503E-03
            3862            4172     112.418E-03     117.503E-03
            3871            4173     72.4277E-03     76.1769E-03
            3863            4173     72.4277E-03     76.1769E-03
            3862            4173     72.4277E-03     76.1769E-03
            3872            4173     72.4277E-03     76.1769E-03
            3872            4174     44.3313E-03     46.7163E-03
            3863            4174     44.3313E-03     46.7163E-03
            3873            4174     44.3313E-03     46.7163E-03
            3864            4174     44.3313E-03     46.7163E-03
            3873            4175     44.3313E-03     46.7163E-03
            3864            4175     44.3313E-03     46.7163E-03
            3865            4175     44.3313E-03     46.7163E-03
            3874            4175     44.3313E-03     46.7163E-03
            3865            4176     72.4277E-03     76.1769E-03
            3866            4176     72.4277E-03     76.1769E-03
            3875            4176     72.4277E-03     76.1769E-03
            3874            4176     72.4277E-03     76.1769E-03
            3866            4177     112.418E-03     117.503E-03
            3876            4177     112.418E-03     117.503E-03
            3867            4177     112.418E-03     117.503E-03
            3875            4177     112.418E-03     117.503E-03
            3868            4178     153.838E-03     157.196E-03
            3867            4178     153.838E-03     157.196E-03
            3876            4178     153.838E-03     157.196E-03
            3877            4178     153.838E-03     157.196E-03
            3870            4179     146.844E-03     150.096E-03
            3879            4179     146.844E-03     150.096E-03
            3869            4179     146.844E-03     150.096E-03
            3878            4179     146.844E-03     150.096E-03
            3879            4180     110.928E-03     116.841E-03
            3870            4180     110.928E-03     116.841E-03
            3871            4180     110.928E-03     116.841E-03
            3880            4180     110.928E-03     116.841E-03
            3880            4181     75.1902E-03     79.0571E-03
            3871            4181     75.1902E-03     79.0571E-03
            3872            4181     75.1902E-03     79.0571E-03
            3881            4181     75.1902E-03     79.0571E-03
            3882            4182     48.0189E-03     48.9533E-03
            3872            4182     48.0189E-03     48.9533E-03
            3881            4182     48.0189E-03     48.9533E-03
            3873            4182     48.0189E-03     48.9533E-03
            3883            4183     48.0189E-03     48.9533E-03
            3882            4183     48.0189E-03     48.9533E-03
            3873            4183     48.0189E-03     48.9533E-03
            3874            4183     48.0189E-03     48.9533E-03
            3875            4184     75.1902E-03     79.0571E-03
            3883            4184     75.1902E-03     79.0571E-03
            3874            4184     75.1902E-03     79.0571E-03
            3884            4184     75.1902E-03     79.0571E-03
            3875            4185     110.928E-03     116.841E-03
            3876            4185     110.928E-03     116.841E-03
            3884            4185     110.928E-03     116.841E-03
            3885            4185     110.928E-03     116.841E-03
            3877            4186     146.844E-03     150.096E-03
            3876            4186     146.844E-03     150.096E-03
            3885            4186     146.844E-03     150.096E-03
            3886            4186     146.844E-03     150.096E-03
            3888            4187     141.463E-03     144.974E-03
            3878            4187     141.463E-03     144.974E-03
            3887            4187     141.463E-03     144.974E-03
            3879            4187     141.463E-03     144.974E-03
            3888            4188     107.346E-03     110.309E-03
            3880            4188     107.346E-03     110.309E-03
            3879            4188     107.346E-03     110.309E-03
            3889            4188     107.346E-03     110.309E-03
            3890            4189     74.2605E-03     74.6056E-03
            3880            4189     74.2605E-03     74.6056E-03
            3881            4189     74.2605E-03     74.6056E-03
            3889            4189     74.2605E-03     74.6056E-03
            3890            4190     50.5673E-03     49.2700E-03
            3881            4190     50.5673E-03     49.2700E-03
            3891            4190     50.5673E-03     49.2700E-03
            3882            4190     50.5673E-03     49.2700E-03
            3891            4191     50.5673E-03     49.2700E-03
            3892            4191     50.5673E-03     49.2700E-03
            3883            4191     50.5673E-03     49.2700E-03
            3882            4191     50.5673E-03     49.2700E-03
            3892            4192     74.2605E-03     74.6056E-03
            3893            4192     74.2605E-03     74.6056E-03
            3883            4192     74.2605E-03     74.6056E-03
            3884            4192     74.2605E-03     74.6056E-03
            3893            4193     107.346E-03     110.309E-03
            3885            4193     107.346E-03     110.309E-03
            3884            4193     107.346E-03     110.309E-03
            3894            4193     107.346E-03     110.309E-03
            3895            4194     141.463E-03     144.974E-03
            3885            4194     141.463E-03     144.974E-03
            3886            4194     141.463E-03     144.974E-03
            3894            4194     141.463E-03     144.974E-03
            3888            4195     132.673E-03     128.167E-03
            3887            4195     132.673E-03     128.167E-03
            3896            4195     132.673E-03     128.167E-03
            3897            4195     132.673E-03     128.167E-03
            3897            4196     101.502E-03     97.1254E-03
            3889            4196     101.502E-03     97.1254E-03
            3898            4196     101.502E-03     97.1254E-03
            3888            4196     101.502E-03     97.1254E-03
            3889            4197     73.3591E-03     70.0051E-03
            3899            4197     73.3591E-03     70.0051E-03
            3890            4197     73.3591E-03     70.0051E-03
            3898            4197     73.3591E-03     70.0051E-03
            3900            4198     54.9492E-03     52.5953E-03
            3899            4198     54.9492E-03     52.5953E-03
            3891            4198     54.9492E-03     52.5953E-03
            3890            4198     54.9492E-03     52.5953E-03
            3891            4199     54.9492E-03     52.5953E-03
            3892            4199     54.9492E-03     52.5953E-03
            3901            4199     54.9492E-03     52.5953E-03
            3900            4199     54.9492E-03     52.5953E-03
            3893            4200     73.3591E-03     70.0051E-03
            3892            4200     73.3591E-03     70.0051E-03
            3901            4200     73.3591E-03     70.0051E-03
            3902            4200     73.3591E-03     70.0051E-03
            3902            4201     101.502E-03     97.1254E-03
            3894            4201     101.502E-03     97.1254E-03
            3893            4201     101.502E-03     97.1254E-03
            3903            4201     101.502E-03     97.1254E-03
            3895            4202     132.673E-03     128.167E-03
            3894            4202     132.673E-03     128.167E-03
            3904            4202     132.673E-03     128.167E-03
            3903            4202     132.673E-03     128.167E-03
            3905            4203     130.756E-03     125.269E-03
            3906            4203     130.756E-03     125.269E-03
            3915            4203     130.756E-03     125.269E-03
            3914            4203     130.756E-03     125.269E-03
            3915            4204     95.9191E-03     92.2707E-03
            3916            4204     95.9191E-03     92.2707E-03
            3907            4204     95.9191E-03     92.2707E-03
            3906            4204     95.9191E-03     92.2707E-03
            3907            4205     64.0112E-03     62.3493E-03
            3917            4205     64.0112E-03     62.3493E-03
            3916            4205     64.0112E-03     62.3493E-03
            3908            4205     64.0112E-03     62.3493E-03
            3909            4206     40.3566E-03     39.7523E-03
            3917            4206     40.3566E-03     39.7523E-03
            3918            4206     40.3566E-03     39.7523E-03
            3908            4206     40.3566E-03     39.7523E-03
            3918            4207     40.3566E-03     39.7523E-03
            3910            4207     40.3566E-03     39.7523E-03
            3919            4207     40.3566E-03     39.7523E-03
            3909            4207     40.3566E-03     39.7523E-03
            3919            4208     64.0112E-03     62.3493E-03
            3910            4208     64.0112E-03     62.3493E-03
            3920            4208     64.0112E-03     62.3493E-03
            3911            4208     64.0112E-03     62.3493E-03
            3921            4209     95.9191E-03     92.2707E-03
            3911            4209     95.9191E-03     92.2707E-03
            3920            4209     95.9191E-03     92.2707E-03
            3912            4209     95.9191E-03     92.2707E-03
            3913            4210     130.756E-03     125.269E-03
            3921            4210     130.756E-03     125.269E-03
            3912            4210     130.756E-03     125.269E-03
            3922            4210     130.756E-03     125.269E-03
            3915            4211     138.403E-03     135.120E-03
            3923            4211     138.403E-03     135.120E-03
            3924            4211     138.403E-03     135.120E-03
            3914            4211     138.403E-03     135.120E-03
            3916            4212     103.262E-03     100.592E-03
            3925            4212     103.262E-03     100.592E-03
            3915            4212     103.262E-03     100.592E-03
            3924            4212     103.262E-03     100.592E-03
            3916            4213     71.4757E-03     69.8032E-03
            3917            4213     71.4757E-03     69.8032E-03
            3925            4213     71.4757E-03     69.8032E-03
            3926            4213     71.4757E-03     69.8032E-03
            3926            4214     49.6192E-03     48.7527E-03
            3918            4214     49.6192E-03     48.7527E-03
            3917            4214     49.6192E-03     48.7527E-03
            3927            4214     49.6192E-03     48.7527E-03
            3919            4215     49.6192E-03     48.7527E-03
            3928            4215     49.6192E-03     48.7527E-03
            3918            4215     49.6192E-03     48.7527E-03
            3927            4215     49.6192E-03     48.7527E-03
            3929            4216     71.4757E-03     69.8032E-03
            3920            4216     71.4757E-03     69.8032E-03
            3928            4216     71.4757E-03     69.8032E-03
            3919            4216     71.4757E-03     69.8032E-03
            3930            4217     103.262E-03     100.592E-03
            3920            4217     103.262E-03     100.592E-03
            3929            4217     103.262E-03     100.592E-03
            3921            4217     103.262E-03     100.592E-03
            3930            4218     138.403E-03     135.120E-03
            3931            4218     138.403E-03     135.120E-03
            3922            4218     138.403E-03     135.120E-03
            3921            4218     138.403E-03     135.120E-03
            3923            4219     146.226E-03     150.684E-03
            3933            4219     146.226E-03     150.684E-03
            3924            4219     146.226E-03     150.684E-03
            3932            4219     146.226E-03     150.684E-03
            3925            4220     109.573E-03     114.128E-03
            3934            4220     109.573E-03     114.128E-03
            3933            4220     109.573E-03     114.128E-03
            3924            4220     109.573E-03     114.128E-03
            3926            4221     72.1949E-03     73.9522E-03
            3934            4221     72.1949E-03     73.9522E-03
            3935            4221     72.1949E-03     73.9522E-03
            3925            4221     72.1949E-03     73.9522E-03
            3926            4222     43.5448E-03     43.5128E-03
            3935            4222     43.5448E-03     43.5128E-03
            3936            4222     43.5448E-03     43.5128E-03
            3927            4222     43.5448E-03     43.5128E-03
            3927            4223     43.5448E-03     43.5128E-03
            3936            4223     43.5448E-03     43.5128E-03
            3937            4223     43.5448E-03     43.5128E-03
            3928            4223     43.5448E-03     43.5128E-03
            3929            4224     72.1949E-03     73.9522E-03
            3937            4224     72.1949E-03     73.9522E-03
            3928            4224     72.1949E-03     73.9522E-03
            3938            4224     72.1949E-03     73.9522E-03
            3938            4225     109.573E-03     114.128E-03
            3930            4225     109.573E-03     114.128E-03
            3929            4225     109.573E-03     114.128E-03
            3939            4225     109.573E-03     114.128E-03
            3931            4226     146.226E-03     150.684E-03
            3930            4226     146.226E-03     150.684E-03
            3939            4226     146.226E-03     150.684E-03
            3940            4226     146.226E-03     150.684E-03
            3932            4227     151.965E-03     156.577E-03
            3941            4227     151.965E-03     156.577E-03
            3933            4227     151.965E-03     156.577E-03
            3942            4227     151.965E-03     156.577E-03
            3933            4228     111.308E-03     117.183E-03
            3943            4228     111.308E-03     117.183E-03
            3942            4228     111.308E-03     117.183E-03
            3934            4228     111.308E-03     117.183E-03
            3935            4229     70.0652E-03     72.9949E-03
            3934            4229     70.0652E-03     72.9949E-03
            3943            4229     70.0652E-03     72.9949E-03
            3944            4229     70.0652E-03     72.9949E-03
            3945            4230     38.9010E-03     39.8267E-03
            3944            4230     38.9010E-03     39.8267E-03
            3935            4230     38.9010E-03     39.8267E-03
            3936            4230     38.9010E-03     39.8267E-03
            3946            4231     38.9010E-03     39.8267E-03
            3945            4231     38.9010E-03     39.8267E-03
            3936            4231     38.9010E-03     39.8267E-03
            3937            4231     38.9010E-03     39.8267E-03
            3947            4232     70.0652E-03     72.9949E-03
            3938            4232     70.0652E-03     72.9949E-03
            3937            4232     70.0652E-03     72.9949E-03
            3946            4232     70.0652E-03     72.9949E-03
            3938            4233     111.308E-03     117.183E-03
            3948            4233     111.308E-03     117.183E-03
            3947            4233     111.308E-03     117.183E-03
            3939            4233     111.308E-03     117.183E-03
            3939            4234     151.965E-03     156.577E-03
            3948            4234     151.965E-03     156.577E-03
            3940            4234     151.965E-03     156.577E-03
            3949            4234     151.965E-03     156.577E-03
            3950            4235     155.165E-03     152.636E-03
            3951            4235     155.165E-03     152.636E-03
            3941            4235     155.165E-03     152.636E-03
            3942            4235     155.165E-03     152.636E-03
            3951            4236     106.139E-03     105.672E-03
            3952            4236     106.139E-03     105.672E-03
            3942            4236     106.139E-03     105.672E-03
            3943            4236     106.139E-03     105.672E-03
            3944            4237     64.0793E-03     64.1833E-03
            3952            4237     64.0793E-03     64.1833E-03
            3943            4237     64.0793E-03     64.1833E-03
            3953            4237     64.0793E-03     64.1833E-03
            3954            4238     30.8376E-03     31.3816E-03
            3944            4238     30.8376E-03     31.3816E-03
            3953            4238     30.8376E-03     31.3816E-03
            3945            4238     30.8376E-03     31.3816E-03
            3945            4239     30.8376E-03     31.3816E-03
            3954            4239     30.8376E-03     31.3816E-03
            3955            4239     30.8376E-03     31.3816E-03
            3946            4239     30.8376E-03     31.3816E-03
            3946            4240     64.0793E-03     64.1833E-03
            3956            4240     64.0793E-03     64.1833E-03
            3955            4240     64.0793E-03     64.1833E-03
            3947            4240     64.0793E-03     64.1833E-03
            3957            4241     106.139E-03     105.672E-03
            3948            4241     106.139E-03     105.672E-03
            3947            4241     106.139E-03     105.672E-03
            3956            4241     106.139E-03     105.672E-03
            3949            4242     155.165E-03     152.636E-03
            3948            4242     155.165E-03     152.636E-03
            3958            4242     155.165E-03     152.636E-03
            3957            4242     155.165E-03     152.636E-03
            5325            5425     2.07800E-15     1.99302E-15
            5334            5425     2.07800E-15     1.99302E-15
            5326            5425     2.07800E-15     1.99302E-15
            5335            5425     2.07800E-15     1.99302E-15
            5326            5426     2.19085E-15     2.21205E-15
            5336            5426     2.19085E-15     2.21205E-15
            5327            5426     2.19085E-15     2.21205E-15
            5335            5426     2.19085E-15     2.21205E-15
            5328            5427     2.18800E-15     2.20768E-15
            5337            5427     2.18800E-15     2.20768E-15
            5336            5427     2.18800E-15     2.20768E-15
            5327            5427     2.18800E-15     2.20768E-15
            5337            5428     2.32156E-15     2.31265E-15
            5338            5428     2.32156E-15     2.31265E-15
            5328            5428     2.32156E-15     2.31265E-15
            5329            5428     2.32156E-15     2.31265E-15
            5339            5429     2.63726E-15     2.65015E-15
            5338            5429     2.63726E-15     2.65015E-15
            5329            5429     2.63726E-15     2.65015E-15
            5330            5429     2.63726E-15     2.65015E-15
            5331            5430     2.63810E-15     2.66061E-15
            5339            5430     2.63810E-15     2.66061E-15
            5340            5430     2.63810E-15     2.66061E-15
            5330            5430     2.63810E-15     2.66061E-15
            5340            5431     2.70077E-15     2.72882E-15
            5331            5431     2.70077E-15     2.72882E-15
            5341            5431     2.70077E-15     2.72882E-15
            5332            5431     2.70077E-15     2.72882E-15
            5333            5432     2.71404E-15     2.71914E-15
            5342            5432     2.71404E-15     2.71914E-15
            5332            5432     2.71404E-15     2.71914E-15
            5341            5432     2.71404E-15     2.71914E-15
            5334            5433     1.91170E-15     1.82250E-15
            5335            5433     1.91170E-15     1.82250E-15
            5343            5433     1.91170E-15     1.82250E-15
            5344            5433     1.91170E-15     1.82250E-15
            5335            5434     1.95188E-15     1.91569E-15
            5336            5434     1.95188E-15     1.91569E-15
            5345            5434     1.95188E-15     1.91569E-15
            5344            5434     1.95188E-15     1.91569E-15
            5345            5435     1.77351E-15     1.75786E-15
            5346            5435     1.77351E-15     1.75786E-15
            5337            5435     1.77351E-15     1.75786E-15
            5336            5435     1.77351E-15     1.75786E-15
            5338            5436     2.10260E-15     2.09337E-15
            5337            5436     2.10260E-15     2.09337E-15
            5346            5436     2.10260E-15     2.09337E-15
            5347            5436     2.10260E-15     2.09337E-15
            5339            5437     2.51802E-15     2.53253E-15
            5338            5437     2.51802E-15     2.53253E-15
            5347            5437     2.51802E-15     2.53253E-15
            5348            5437     2.51802E-15     2.53253E-15
            5349            5438     2.76108E-15     2.79958E-15
            5340            5438     2.76108E-15     2.79958E-15
            5339            5438     2.76108E-15     2.79958E-15
            5348            5438     2.76108E-15     2.79958E-15
            5341            5439     3.67962E-15     3.66210E-15
            5349            5439     3.67962E-15     3.66210E-15
            5340            5439     3.67962E-15     3.66210E-15
            5350            5439     3.67962E-15     3.66210E-15
            5351            5440     3.43011E-15     3.42969E-15
            5341            5440     3.43011E-15     3.42969E-15
            5342            5440     3.43011E-15     3.42969E-15
            5350            5440     3.43011E-15     3.42969E-15
            5352            5441     2.20860E-15     2.15619E-15
            5353            5441     2.20860E-15     2.15619E-15
            5343            5441     2.20860E-15     2.15619E-15
            5344            5441     2.20860E-15     2.15619E-15
            5353            5442     1.70003E-15     1.63730E-15
            5345            5442     1.70003E-15     1.63730E-15
            5354            5442     1.70003E-15     1.63730E-15
            5344            5442     1.70003E-15     1.63730E-15
            5355            5443     1.78340E-15     1.75688E-15
            5346            5443     1.78340E-15     1.75688E-15
            5354            5443     1.78340E-15     1.75688E-15
            5345            5443     1.78340E-15     1.75688E-15
            5356            5444     1.72182E-15     1.71096E-15
            5347            5444     1.72182E-15     1.71096E-15
            5346            5444     1.72182E-15     1.71096E-15
            5355            5444     1.72182E-15     1.71096E-15
            5347            5445     1.29864E-15     1.29999E-15
            5356            5445     1.29864E-15     1.29999E-15
            5348            5445     1.29864E-15     1.29999E-15
            5357            5445     1.29864E-15     1.29999E-15
            5348            5446     1.70474E-15     1.71115E-15
            5349            5446     1.70474E-15     1.71115E-15
            5357            5446     1.70474E-15     1.71115E-15
            5358            5446     1.70474E-15     1.71115E-15
            5358            5447     2.49057E-15     2.41325E-15
            5350            5447     2.49057E-15     2.41325E-15
            5349            5447     2.49057E-15     2.41325E-15
            5359            5447     2.49057E-15     2.41325E-15
            5351            5448     2.66307E-15     2.61798E-15
            5359            5448     2.66307E-15     2.61798E-15
            5350            5448     2.66307E-15     2.61798E-15
            5360            5448     2.66307E-15     2.61798E-15
            5352            5449     3.24612E-15     3.20500E-15
            5361            5449     3.24612E-15     3.20500E-15
            5353            5449     3.24612E-15     3.20500E-15
            5362            5449     3.24612E-15     3.20500E-15
            5353            5450     2.56865E-15     2.50952E-15
            5363            5450     2.56865E-15     2.50952E-15
            5362            5450     2.56865E-15     2.50952E-15
            5354            5450     2.56865E-15     2.50952E-15
            5355            5451     2.06778E-15     2.05432E-15
            5363            5451     2.06778E-15     2.05432E-15
            5364            5451     2.06778E-15     2.05432E-15
            5354            5451     2.06778E-15     2.05432E-15
            5365            5452     824.488E-18     822.062E-18
            5355            5452     824.488E-18     822.062E-18
            5356            5452     824.488E-18     822.062E-18
            5364            5452     824.488E-18     822.062E-18
            5365            5453     869.093E-18     883.803E-18
            5366            5453     869.093E-18     883.803E-18
            5357            5453     869.093E-18     883.803E-18
            5356            5453     869.093E-18     883.803E-18
            5358            5454     2.23125E-15     2.25819E-15
            5366            5454     2.23125E-15     2.25819E-15
            5357            5454     2.23125E-15     2.25819E-15
            5367            5454     2.23125E-15     2.25819E-15
            5368            5455     2.77182E-15     2.74998E-15
            5359            5455     2.77182E-15     2.74998E-15
            5358            5455     2.77182E-15     2.74998E-15
            5367            5455     2.77182E-15     2.74998E-15
            5368            5456     2.90297E-15     2.81816E-15
            5360            5456     2.90297E-15     2.81816E-15
            5359            5456     2.90297E-15     2.81816E-15
            5369            5456     2.90297E-15     2.81816E-15
            5361            5457     3.23076E-15     3.23819E-15
            5370            5457     3.23076E-15     3.23819E-15
            5362            5457     3.23076E-15     3.23819E-15
            5371            5457     3.23076E-15     3.23819E-15
            5362            5458     3.57909E-15     3.57427E-15
            5372            5458     3.57909E-15     3.57427E-15
            5363            5458     3.57909E-15     3.57427E-15
            5371            5458     3.57909E-15     3.57427E-15
            5373            5459     2.98309E-15     2.99162E-15
            5363            5459     2.98309E-15     2.99162E-15
            5372            5459     2.98309E-15     2.99162E-15
            5364            5459     2.98309E-15     2.99162E-15
            5373            5460     912.943E-18     912.994E-18
            5365            5460     912.943E-18     912.994E-18
            5364            5460     912.943E-18     912.994E-18
            5374            5460     912.943E-18     912.994E-18
            5366            5461     2.01308E-15     2.03287E-15
            5375            5461     2.01308E-15     2.03287E-15
            5374            5461     2.01308E-15     2.03287E-15
            5365            5461     2.01308E-15     2.03287E-15
            5367            5462     4.04694E-15     4.07239E-15
            5375            5462     4.04694E-15     4.07239E-15
            5366            5462     4.04694E-15     4.07239E-15
            5376            5462     4.04694E-15     4.07239E-15
            5377            5463     3.04236E-15     3.05009E-15
            5368            5463     3.04236E-15     3.05009E-15
            5376            5463     3.04236E-15     3.05009E-15
            5367            5463     3.04236E-15     3.05009E-15
            5378            5464     3.08266E-15     3.04067E-15
            5377            5464     3.08266E-15     3.04067E-15
            5369            5464     3.08266E-15     3.04067E-15
            5368            5464     3.08266E-15     3.04067E-15
            5388            5465     132.969E-03     127.430E-03
            5389            5465     132.969E-03     127.430E-03
            5379            5465     132.969E-03     127.430E-03
            5380            5465     132.969E-03     127.430E-03
            5389            5466     91.6320E-03     87.8301E-03
            5380            5466     91.6320E-03     87.8301E-03
            5390            5466     91.6320E-03     87.8301E-03
            5381            5466     91.6320E-03     87.8301E-03
            5381            5467     57.1666E-03     55.4151E-03
            5390            5467     57.1666E-03     55.4151E-03
            5382            5467     57.1666E-03     55.4151E-03
            5391            5467     57.1666E-03     55.4151E-03
            5392            5468     30.7009E-03     30.9281E-03
            5383            5468     30.7009E-03     30.9281E-03
            5382            5468     30.7009E-03     30.9281E-03
            5391            5468     30.7009E-03     30.9281E-03
            5383            5469     30.7009E-03     30.9281E-03
            5392            5469     30.7009E-03     30.9281E-03
            5393            5469     30.7009E-03     30.9281E-03
            5384            5469     30.7009E-03     30.9281E-03
            5385            5470     57.1666E-03     55.4151E-03
            5393            5470     57.1666E-03     55.4151E-03
            5394            5470     57.1666E-03     55.4151E-03
            5384            5470     57.1666E-03     55.4151E-03
            5386            5471     91.6320E-03     87.8301E-03
            5394            5471     91.6320E-03     87.8301E-03
            5385            5471     91.6320E-03     87.8301E-03
            5395            5471     91.6320E-03     87.8301E-03
            5395            5472     132.969E-03     127.430E-03
            5396            5472     132.969E-03     127.430E-03
            5386            5472     132.969E-03     127.430E-03
            5387            5472     132.969E-03     127.430E-03
            5397            5473     141.814E-03     137.196E-03
            5398            5473     141.814E-03     137.196E-03
            5388            5473     141.814E-03     137.196E-03
            5389            5473     141.814E-03     137.196E-03
            5399            5474     97.7143E-03     94.8801E-03
            5390            5474     97.7143E-03     94.8801E-03
            5398            5474     97.7143E-03     94.8801E-03
            5389            5474     97.7143E-03     94.8801E-03
            5391            5475     61.5102E-03     60.8598E-03
            5390            5475     61.5102E-03     60.8598E-03
            5400            5475     61.5102E-03     60.8598E-03
            5399            5475     61.5102E-03     60.8598E-03
            5400            5476     36.9349E-03     39.4296E-03
            5391            5476     36.9349E-03     39.4296E-03
            5392            5476     36.9349E-03     39.4296E-03
            5401            5476     36.9349E-03     39.4296E-03
            5401            5477     36.9349E-03     39.4296E-03
            5402            5477     36.9349E-03     39.4296E-03
            5393            5477     36.9349E-03     39.4296E-03
            5392            5477     36.9349E-03     39.4296E-03
            5393            5478     61.5102E-03     60.8598E-03
            5403            5478     61.5102E-03     60.8598E-03
            5394            5478     61.5102E-03     60.8598E-03
            5402            5478     61.5102E-03     60.8598E-03
            5394            5479     97.7143E-03     94.8801E-03
            5404            5479     97.7143E-03     94.8801E-03
            5395            5479     97.7143E-03     94.8801E-03
            5403            5479     97.7143E-03     94.8801E-03
            5396            5480     141.814E-03     137.196E-03
            5404            5480     141.814E-03     137.196E-03
            5395            5480     141.814E-03     137.196E-03
            5405            5480     141.814E-03     137.196E-03
            5406            5481     136.853E-03     137.759E-03
            5407            5481     136.853E-03     137.759E-03
            5398            5481     136.853E-03     137.759E-03
            5397            5481     136.853E-03     137.759E-03
            5398            5482     100.665E-03     103.059E-03
            5399            5482     100.665E-03     103.059E-03
            5407            5482     100.665E-03     103.059E-03
            5408            5482     100.665E-03     103.059E-03
            5408            5483     66.4718E-03     69.6639E-03
            5399            5483     66.4718E-03     69.6639E-03
            5409            5483     66.4718E-03     69.6639E-03
            5400            5483     66.4718E-03     69.6639E-03
            5401            5484     44.0240E-03     48.7151E-03
            5409            5484     44.0240E-03     48.7151E-03
            5410            5484     44.0240E-03     48.7151E-03
            5400            5484     44.0240E-03     48.7151E-03
            5410            5485     44.0240E-03     48.7151E-03
            5411            5485     44.0240E-03     48.7151E-03
            5402            5485     44.0240E-03     48.7151E-03
            5401            5485     44.0240E-03     48.7151E-03
            5402            5486     66.4718E-03     69.6639E-03
            5412            5486     66.4718E-03     69.6639E-03
            5411            5486     66.4718E-03     69.6639E-03
            5403            5486     66.4718E-03     69.6639E-03
            5403            5487     100.665E-03     103.059E-03
            5404            5487     100.665E-03     103.059E-03
            5413            5487     100.665E-03     103.059E-03
            5412            5487     100.665E-03     103.059E-03
            5414            5488     136.853E-03     137.759E-03
            5405            5488     136.853E-03     137.759E-03
            5404            5488     136.853E-03     137.759E-03
            5413            5488     136.853E-03     137.759E-03
            5406            5489     130.429E-03     130.102E-03
            5407            5489     130.429E-03     130.102E-03
            5415            5489     130.429E-03     130.102E-03
            5416            5489     130.429E-03     130.102E-03
            5408            5490     98.0649E-03     100.006E-03
            5417            5490     98.0649E-03     100.006E-03
            5416            5490     98.0649E-03     100.006E-03
            5407            5490     98.0649E-03     100.006E-03
            5408            5491     68.1066E-03     71.6078E-03
            5417            5491     68.1066E-03     71.6078E-03
            5409            5491     68.1066E-03     71.6078E-03
            5418            5491     68.1066E-03     71.6078E-03
            5409            5492     47.1548E-03     51.5631E-03
            5410            5492     47.1548E-03     51.5631E-03
            5418            5492     47.1548E-03     51.5631E-03
            5419            5492     47.1548E-03     51.5631E-03
            5419            5493     47.1548E-03     51.5631E-03
            5420            5493     47.1548E-03     51.5631E-03
            5410            5493     47.1548E-03     51.5631E-03
            5411            5493     47.1548E-03     51.5631E-03
            5412            5494     68.1066E-03     71.6078E-03
            5421            5494     68.1066E-03     71.6078E-03
            5411            5494     68.1066E-03     71.6078E-03
            5420            5494     68.1066E-03     71.6078E-03
            5412            5495     98.0649E-03     100.006E-03
            5422            5495     98.0649E-03     100.006E-03
            5421            5495     98.0649E-03     100.006E-03
            5413            5495     98.0649E-03     100.006E-03
            5422            5496     130.429E-03     130.102E-03
            5413            5496     130.429E-03     130.102E-03
            5423            5496     130.429E-03     130.102E-03
            5414            5496     130.429E-03     130.102E-03
            5415            5497     125.704E-03     124.821E-03
            5416            5497     125.704E-03     124.821E-03
            5425            5497     125.704E-03     124.821E-03
            5424            5497     125.704E-03     124.821E-03
            5417            5498     94.4979E-03     95.2585E-03
            5425            5498     94.4979E-03     95.2585E-03
            5416            5498     94.4979E-03     95.2585E-03
            5426            5498     94.4979E-03     95.2585E-03
            5426            5499     66.7007E-03     68.7400E-03
            5417            5499     66.7007E-03     68.7400E-03
            5418            5499     66.7007E-03     68.7400E-03
            5427            5499     66.7007E-03     68.7400E-03
            5419            5500     48.0373E-03     50.8973E-03
            5427            5500     48.0373E-03     50.8973E-03
            5418            5500     48.0373E-03     50.8973E-03
            5428            5500     48.0373E-03     50.8973E-03
            5429            5501     48.0373E-03     50.8973E-03
            5428            5501     48.0373E-03     50.8973E-03
            5419            5501     48.0373E-03     50.8973E-03
            5420            5501     48.0373E-03     50.8973E-03
            5420            5502     66.7007E-03     68.7400E-03
            5429            5502     66.7007E-03     68.7400E-03
            5430            5502     66.7007E-03     68.7400E-03
            5421            5502     66.7007E-03     68.7400E-03
            5421            5503     94.4979E-03     95.2585E-03
            5422            5503     94.4979E-03     95.2585E-03
            5431            5503     94.4979E-03     95.2585E-03
            5430            5503     94.4979E-03     95.2585E-03
            5432            5504     125.704E-03     124.821E-03
            5431            5504     125.704E-03     124.821E-03
            5422            5504     125.704E-03     124.821E-03
            5423            5504     125.704E-03     124.821E-03
            5434            5505     120.648E-03     119.689E-03
            5433            5505     120.648E-03     119.689E-03
            5425            5505     120.648E-03     119.689E-03
            5424            5505     120.648E-03     119.689E-03
            5425            5506     91.1327E-03     91.4697E-03
            5434            5506     91.1327E-03     91.4697E-03
            5435            5506     91.1327E-03     91.4697E-03
            5426            5506     91.1327E-03     91.4697E-03
            5435            5507     64.8341E-03     65.7665E-03
            5436            5507     64.8341E-03     65.7665E-03
            5426            5507     64.8341E-03     65.7665E-03
            5427            5507     64.8341E-03     65.7665E-03
            5436            5508     47.4688E-03     48.4711E-03
            5428            5508     47.4688E-03     48.4711E-03
            5427            5508     47.4688E-03     48.4711E-03
            5437            5508     47.4688E-03     48.4711E-03
            5438            5509     47.4688E-03     48.4711E-03
            5437            5509     47.4688E-03     48.4711E-03
            5428            5509     47.4688E-03     48.4711E-03
            5429            5509     47.4688E-03     48.4711E-03
            5438            5510     64.8341E-03     65.7665E-03
            5430            5510     64.8341E-03     65.7665E-03
            5429            5510     64.8341E-03     65.7665E-03
            5439            5510     64.8341E-03     65.7665E-03
            5440            5511     91.1327E-03     91.4697E-03
            5431            5511     91.1327E-03     91.4697E-03
            5430            5511     91.1327E-03     91.4697E-03
            5439            5511     91.1327E-03     91.4697E-03
            5440            5512     120.648E-03     119.689E-03
            5431            5512     120.648E-03     119.689E-03
            5432            5512     120.648E-03     119.689E-03
            5441            5512     120.648E-03     119.689E-03
            5443            5513     115.618E-03     114.856E-03
            5434            5513     115.618E-03     114.856E-03
            5433            5513     115.618E-03     114.856E-03
            5442            5513     115.618E-03     114.856E-03
            5444            5514     87.5982E-03     87.9261E-03
            5434            5514     87.5982E-03     87.9261E-03
            5435            5514     87.5982E-03     87.9261E-03
            5443            5514     87.5982E-03     87.9261E-03
            5435            5515     62.9991E-03     63.2402E-03
            5436            5515     62.9991E-03     63.2402E-03
            5444            5515     62.9991E-03     63.2402E-03
            5445            5515     62.9991E-03     63.2402E-03
            5436            5516     46.6124E-03     46.0471E-03
            5446            5516     46.6124E-03     46.0471E-03
            5445            5516     46.6124E-03     46.0471E-03
            5437            5516     46.6124E-03     46.0471E-03
            5438            5517     46.6124E-03     46.0471E-03
            5447            5517     46.6124E-03     46.0471E-03
            5437            5517     46.6124E-03     46.0471E-03
            5446            5517     46.6124E-03     46.0471E-03
            5439            5518     62.9991E-03     63.2402E-03
            5447            5518     62.9991E-03     63.2402E-03
            5448            5518     62.9991E-03     63.2402E-03
            5438            5518     62.9991E-03     63.2402E-03
            5440            5519     87.5982E-03     87.9261E-03
            5448            5519     87.5982E-03     87.9261E-03
            5439            5519     87.5982E-03     87.9261E-03
            5449            5519     87.5982E-03     87.9261E-03
            5440            5520     115.618E-03     114.856E-03
            5449            5520     115.618E-03     114.856E-03
            5441            5520     115.618E-03     114.856E-03
            5450            5520     115.618E-03     114.856E-03
            5443            5521     110.546E-03     110.306E-03
            5451            5521     110.546E-03     110.306E-03
            5452            5521     110.546E-03     110.306E-03
            5442            5521     110.546E-03     110.306E-03
            5443            5522     84.3019E-03     85.0059E-03
            5444            5522     84.3019E-03     85.0059E-03
            5453            5522     84.3019E-03     85.0059E-03
            5452            5522     84.3019E-03     85.0059E-03
            5444            5523     61.1772E-03     60.9918E-03
            5454            5523     61.1772E-03     60.9918E-03
            5453            5523     61.1772E-03     60.9918E-03
            5445            5523     61.1772E-03     60.9918E-03
            5454            5524     45.7895E-03     43.6326E-03
            5446            5524     45.7895E-03     43.6326E-03
            5445            5524     45.7895E-03     43.6326E-03
            5455            5524     45.7895E-03     43.6326E-03
            5455            5525     45.7895E-03     43.6326E-03
            5456            5525     45.7895E-03     43.6326E-03
            5447            5525     45.7895E-03     43.6326E-03
            5446            5525     45.7895E-03     43.6326E-03
            5447            5526     61.1772E-03     60.9918E-03
            5456            5526     61.1772E-03     60.9918E-03
            5457            5526     61.1772E-03     60.9918E-03
            5448            5526     61.1772E-03     60.9918E-03
            5449            5527     84.3019E-03     85.0059E-03
            5457            5527     84.3019E-03     85.0059E-03
            5458            5527     84.3019E-03     85.0059E-03
            5448            5527     84.3019E-03     85.0059E-03
            5458            5528     110.546E-03     110.306E-03
            5449            5528     110.546E-03     110.306E-03
            5450            5528     110.546E-03     110.306E-03
            5459            5528     110.546E-03     110.306E-03
            5460            5529     105.132E-03     105.867E-03
            5452            5529     105.132E-03     105.867E-03
            5461            5529     105.132E-03     105.867E-03
            5451            5529     105.132E-03     105.867E-03
            5461            5530     81.2627E-03     82.6667E-03
            5453            5530     81.2627E-03     82.6667E-03
            5462            5530     81.2627E-03     82.6667E-03
            5452            5530     81.2627E-03     82.6667E-03
            5462            5531     59.7408E-03     58.7059E-03
            5453            5531     59.7408E-03     58.7059E-03
            5463            5531     59.7408E-03     58.7059E-03
            5454            5531     59.7408E-03     58.7059E-03
            5463            5532     44.9334E-03     41.1409E-03
            5464            5532     44.9334E-03     41.1409E-03
            5455            5532     44.9334E-03     41.1409E-03
            5454            5532     44.9334E-03     41.1409E-03
            5456            5533     44.9334E-03     41.1409E-03
            5455            5533     44.9334E-03     41.1409E-03
            5464            5533     44.9334E-03     41.1409E-03
            5465            5533     44.9334E-03     41.1409E-03
            5466            5534     59.7408E-03     58.7059E-03
            5457            5534     59.7408E-03     58.7059E-03
            5456            5534     59.7408E-03     58.7059E-03
            5465            5534     59.7408E-03     58.7059E-03
            5466            5535     81.2627E-03     82.6667E-03
            5458            5535     81.2627E-03     82.6667E-03
            5457            5535     81.2627E-03     82.6667E-03
            5467            5535     81.2627E-03     82.6667E-03
            5459            5536     105.132E-03     105.867E-03
            5467            5536     105.132E-03     105.867E-03
            5468            5536     105.132E-03     105.867E-03
            5458            5536     105.132E-03     105.867E-03
            5460            5537     99.6127E-03     101.343E-03
            5469            5537     99.6127E-03     101.343E-03
            5470            5537     99.6127E-03     101.343E-03
            5461            5537     99.6127E-03     101.343E-03
            5470            5538     78.2902E-03     78.3246E-03
            5462            5538     78.2902E-03     78.3246E-03
            5471            5538     78.2902E-03     78.3246E-03
            5461            5538     78.2902E-03     78.3246E-03
            5463            5539     58.2785E-03     55.3012E-03
            5472            5539     58.2785E-03     55.3012E-03
            5471            5539     58.2785E-03     55.3012E-03
            5462            5539     58.2785E-03     55.3012E-03
            5464            5540     44.8405E-03     40.0189E-03
            5472            5540     44.8405E-03     40.0189E-03
            5463            5540     44.8405E-03     40.0189E-03
            5473            5540     44.8405E-03     40.0189E-03
            5465            5541     44.8405E-03     40.0189E-03
            5474            5541     44.8405E-03     40.0189E-03
            5473            5541     44.8405E-03     40.0189E-03
            5464            5541     44.8405E-03     40.0189E-03
            5474            5542     58.2785E-03     55.3012E-03
            5475            5542     58.2785E-03     55.3012E-03
            5465            5542     58.2785E-03     55.3012E-03
            5466            5542     58.2785E-03     55.3012E-03
            5467            5543     78.2902E-03     78.3246E-03
            5475            5543     78.2902E-03     78.3246E-03
            5476            5543     78.2902E-03     78.3246E-03
            5466            5543     78.2902E-03     78.3246E-03
            5477            5544     99.6127E-03     101.343E-03
            5476            5544     99.6127E-03     101.343E-03
            5467            5544     99.6127E-03     101.343E-03
            5468            5544     99.6127E-03     101.343E-03
            5478            5545     92.5451E-03     87.6231E-03
            5470            5545     92.5451E-03     87.6231E-03
            5469            5545     92.5451E-03     87.6231E-03
            5479            5545     92.5451E-03     87.6231E-03
            5480            5546     74.4071E-03     68.8399E-03
            5470            5546     74.4071E-03     68.8399E-03
            5471            5546     74.4071E-03     68.8399E-03
            5479            5546     74.4071E-03     68.8399E-03
            5471            5547     57.6105E-03     52.7635E-03
            5481            5547     57.6105E-03     52.7635E-03
            5472            5547     57.6105E-03     52.7635E-03
            5480            5547     57.6105E-03     52.7635E-03
            5472            5548     47.0076E-03     42.8912E-03
            5481            5548     47.0076E-03     42.8912E-03
            5473            5548     47.0076E-03     42.8912E-03
            5482            5548     47.0076E-03     42.8912E-03
            5482            5549     47.0076E-03     42.8912E-03
            5483            5549     47.0076E-03     42.8912E-03
            5474            5549     47.0076E-03     42.8912E-03
            5473            5549     47.0076E-03     42.8912E-03
            5474            5550     57.6105E-03     52.7635E-03
            5484            5550     57.6105E-03     52.7635E-03
            5475            5550     57.6105E-03     52.7635E-03
            5483            5550     57.6105E-03     52.7635E-03
            5475            5551     74.4071E-03     68.8399E-03
            5476            5551     74.4071E-03     68.8399E-03
            5484            5551     74.4071E-03     68.8399E-03
            5485            5551     74.4071E-03     68.8399E-03
            5485            5552     92.5451E-03     87.6231E-03
            5477            5552     92.5451E-03     87.6231E-03
            5476            5552     92.5451E-03     87.6231E-03
            5486            5552     92.5451E-03     87.6231E-03
            5488            5553     98.0141E-03     88.4262E-03
            5479            5553     98.0141E-03     88.4262E-03
            5487            5553     98.0141E-03     88.4262E-03
            5478            5553     98.0141E-03     88.4262E-03
            5488            5554     71.9844E-03     65.0925E-03
            5489            5554     71.9844E-03     65.0925E-03
            5480            5554     71.9844E-03     65.0925E-03
            5479            5554     71.9844E-03     65.0925E-03
            5489            5555     52.6549E-03     49.0462E-03
            5480            5555     52.6549E-03     49.0462E-03
            5490            5555     52.6549E-03     49.0462E-03
            5481            5555     52.6549E-03     49.0462E-03
            5491            5556     40.2875E-03     39.0565E-03
            5481            5556     40.2875E-03     39.0565E-03
            5490            5556     40.2875E-03     39.0565E-03
            5482            5556     40.2875E-03     39.0565E-03
            5491            5557     40.2875E-03     39.0565E-03
            5492            5557     40.2875E-03     39.0565E-03
            5482            5557     40.2875E-03     39.0565E-03
            5483            5557     40.2875E-03     39.0565E-03
            5483            5558     52.6549E-03     49.0462E-03
            5484            5558     52.6549E-03     49.0462E-03
            5492            5558     52.6549E-03     49.0462E-03
            5493            5558     52.6549E-03     49.0462E-03
            5484            5559     71.9844E-03     65.0925E-03
            5485            5559     71.9844E-03     65.0925E-03
            5494            5559     71.9844E-03     65.0925E-03
            5493            5559     71.9844E-03     65.0925E-03
            5485            5560     98.0141E-03     88.4262E-03
            5495            5560     98.0141E-03     88.4262E-03
            5494            5560     98.0141E-03     88.4262E-03
            5486            5560     98.0141E-03     88.4262E-03
            5487            5561     106.288E-03     103.310E-03
            5488            5561     106.288E-03     103.310E-03
            5496            5561     106.288E-03     103.310E-03
            5497            5561     106.288E-03     103.310E-03
            5488            5562     74.6175E-03     73.1812E-03
            5497            5562     74.6175E-03     73.1812E-03
            5498            5562     74.6175E-03     73.1812E-03
            5489            5562     74.6175E-03     73.1812E-03
            5498            5563     50.2279E-03     50.3220E-03
            5489            5563     50.2279E-03     50.3220E-03
            5499            5563     50.2279E-03     50.3220E-03
            5490            5563     50.2279E-03     50.3220E-03
            5490            5564     35.4997E-03     37.4139E-03
            5499            5564     35.4997E-03     37.4139E-03
            5500            5564     35.4997E-03     37.4139E-03
            5491            5564     35.4997E-03     37.4139E-03
            5492            5565     35.4997E-03     37.4139E-03
            5501            5565     35.4997E-03     37.4139E-03
            5491            5565     35.4997E-03     37.4139E-03
            5500            5565     35.4997E-03     37.4139E-03
            5493            5566     50.2279E-03     50.3220E-03
            5501            5566     50.2279E-03     50.3220E-03
            5492            5566     50.2279E-03     50.3220E-03
            5502            5566     50.2279E-03     50.3220E-03
            5494            5567     74.6175E-03     73.1812E-03
            5493            5567     74.6175E-03     73.1812E-03
            5503            5567     74.6175E-03     73.1812E-03
            5502            5567     74.6175E-03     73.1812E-03
            5504            5568     106.288E-03     103.310E-03
            5495            5568     106.288E-03     103.310E-03
            5503            5568     106.288E-03     103.310E-03
            5494            5568     106.288E-03     103.310E-03
            5506            5569     100.962E-03     101.439E-03
            5496            5569     100.962E-03     101.439E-03
            5497            5569     100.962E-03     101.439E-03
            5505            5569     100.962E-03     101.439E-03
            5497            5570     76.5746E-03     78.2894E-03
            5506            5570     76.5746E-03     78.2894E-03
            5498            5570     76.5746E-03     78.2894E-03
            5507            5570     76.5746E-03     78.2894E-03
            5508            5571     54.4137E-03     56.8693E-03
            5498            5571     54.4137E-03     56.8693E-03
            5507            5571     54.4137E-03     56.8693E-03
            5499            5571     54.4137E-03     56.8693E-03
            5499            5572     41.2356E-03     44.5281E-03
            5509            5572     41.2356E-03     44.5281E-03
            5500            5572     41.2356E-03     44.5281E-03
            5508            5572     41.2356E-03     44.5281E-03
            5500            5573     41.2356E-03     44.5281E-03
            5510            5573     41.2356E-03     44.5281E-03
            5501            5573     41.2356E-03     44.5281E-03
            5509            5573     41.2356E-03     44.5281E-03
            5502            5574     54.4137E-03     56.8693E-03
            5501            5574     54.4137E-03     56.8693E-03
            5510            5574     54.4137E-03     56.8693E-03
            5511            5574     54.4137E-03     56.8693E-03
            5503            5575     76.5746E-03     78.2894E-03
            5502            5575     76.5746E-03     78.2894E-03
            5512            5575     76.5746E-03     78.2894E-03
            5511            5575     76.5746E-03     78.2894E-03
            5504            5576     100.962E-03     101.439E-03
            5503            5576     100.962E-03     101.439E-03
            5513            5576     100.962E-03     101.439E-03
            5512            5576     100.962E-03     101.439E-03
            5506            5577     94.6863E-03     94.2974E-03
            5515            5577     94.6863E-03     94.2974E-03
            5505            5577     94.6863E-03     94.2974E-03
            5514            5577     94.6863E-03     94.2974E-03
            5506            5578     73.8957E-03     75.0630E-03
            5515            5578     73.8957E-03     75.0630E-03
            5516            5578     73.8957E-03     75.0630E-03
            5507            5578     73.8957E-03     75.0630E-03
            5516            5579     55.7142E-03     58.1377E-03
            5507            5579     55.7142E-03     58.1377E-03
            5517            5579     55.7142E-03     58.1377E-03
            5508            5579     55.7142E-03     58.1377E-03
            5509            5580     43.9194E-03     46.9779E-03
            5517            5580     43.9194E-03     46.9779E-03
            5508            5580     43.9194E-03     46.9779E-03
            5518            5580     43.9194E-03     46.9779E-03
            5510            5581     43.9194E-03     46.9779E-03
            5509            5581     43.9194E-03     46.9779E-03
            5519            5581     43.9194E-03     46.9779E-03
            5518            5581     43.9194E-03     46.9779E-03
            5511            5582     55.7142E-03     58.1377E-03
            5519            5582     55.7142E-03     58.1377E-03
            5510            5582     55.7142E-03     58.1377E-03
            5520            5582     55.7142E-03     58.1377E-03
            5511            5583     73.8957E-03     75.0630E-03
            5521            5583     73.8957E-03     75.0630E-03
            5512            5583     73.8957E-03     75.0630E-03
            5520            5583     73.8957E-03     75.0630E-03
            5512            5584     94.6863E-03     94.2974E-03
            5522            5584     94.6863E-03     94.2974E-03
            5521            5584     94.6863E-03     94.2974E-03
            5513            5584     94.6863E-03     94.2974E-03
            5524            5585     89.9662E-03     89.2262E-03
            5523            5585     89.9662E-03     89.2262E-03
            5515            5585     89.9662E-03     89.2262E-03
            5514            5585     89.9662E-03     89.2262E-03
            5525            5586     70.5619E-03     70.9044E-03
            5515            5586     70.5619E-03     70.9044E-03
            5516            5586     70.5619E-03     70.9044E-03
            5524            5586     70.5619E-03     70.9044E-03
            5516            5587     54.4983E-03     55.8439E-03
            5526            5587     54.4983E-03     55.8439E-03
            5525            5587     54.4983E-03     55.8439E-03
            5517            5587     54.4983E-03     55.8439E-03
            5517            5588     44.7278E-03     46.7606E-03
            5518            5588     44.7278E-03     46.7606E-03
            5527            5588     44.7278E-03     46.7606E-03
            5526            5588     44.7278E-03     46.7606E-03
            5519            5589     44.7278E-03     46.7606E-03
            5528            5589     44.7278E-03     46.7606E-03
            5527            5589     44.7278E-03     46.7606E-03
            5518            5589     44.7278E-03     46.7606E-03
            5529            5590     54.4983E-03     55.8439E-03
            5520            5590     54.4983E-03     55.8439E-03
            5528            5590     54.4983E-03     55.8439E-03
            5519            5590     54.4983E-03     55.8439E-03
            5521            5591     70.5619E-03     70.9044E-03
            5530            5591     70.5619E-03     70.9044E-03
            5520            5591     70.5619E-03     70.9044E-03
            5529            5591     70.5619E-03     70.9044E-03
            5530            5592     89.9662E-03     89.2262E-03
            5522            5592     89.9662E-03     89.2262E-03
            5531            5592     89.9662E-03     89.2262E-03
            5521            5592     89.9662E-03     89.2262E-03
            5533            5593     85.1092E-03     84.2769E-03
            5523            5593     85.1092E-03     84.2769E-03
            5524            5593     85.1092E-03     84.2769E-03
            5532            5593     85.1092E-03     84.2769E-03
            5533            5594     67.4102E-03     67.4234E-03
            5534            5594     67.4102E-03     67.4234E-03
            5525            5594     67.4102E-03     67.4234E-03
            5524            5594     67.4102E-03     67.4234E-03
            5534            5595     52.9303E-03     53.5260E-03
            5535            5595     52.9303E-03     53.5260E-03
            5526            5595     52.9303E-03     53.5260E-03
            5525            5595     52.9303E-03     53.5260E-03
            5526            5596     44.3630E-03     45.2682E-03
            5535            5596     44.3630E-03     45.2682E-03
            5536            5596     44.3630E-03     45.2682E-03
            5527            5596     44.3630E-03     45.2682E-03
            5528            5597     44.3630E-03     45.2682E-03
            5536            5597     44.3630E-03     45.2682E-03
            5537            5597     44.3630E-03     45.2682E-03
            5527            5597     44.3630E-03     45.2682E-03
            5529            5598     52.9303E-03     53.5260E-03
            5528            5598     52.9303E-03     53.5260E-03
            5538            5598     52.9303E-03     53.5260E-03
            5537            5598     52.9303E-03     53.5260E-03
            5529            5599     67.4102E-03     67.4234E-03
            5530            5599     67.4102E-03     67.4234E-03
            5538            5599     67.4102E-03     67.4234E-03
            5539            5599     67.4102E-03     67.4234E-03
            5531            5600     85.1092E-03     84.2769E-03
            5540            5600     85.1092E-03     84.2769E-03
            5530            5600     85.1092E-03     84.2769E-03
            5539            5600     85.1092E-03     84.2769E-03
            5542            5601     80.3027E-03     79.5446E-03
            5541            5601     80.3027E-03     79.5446E-03
            5533            5601     80.3027E-03     79.5446E-03
            5532            5601     80.3027E-03     79.5446E-03
            5534            5602     64.1435E-03     64.0220E-03
            5533            5602     64.1435E-03     64.0220E-03
            5542            5602     64.1435E-03     64.0220E-03
            5543            5602     64.1435E-03     64.0220E-03
            5544            5603     51.3398E-03     51.4568E-03
            5535            5603     51.3398E-03     51.4568E-03
            5543            5603     51.3398E-03     51.4568E-03
            5534            5603     51.3398E-03     51.4568E-03
            5536            5604     43.7781E-03     43.8132E-03
            5545            5604     43.7781E-03     43.8132E-03
            5535            5604     43.7781E-03     43.8132E-03
            5544            5604     43.7781E-03     43.8132E-03
            5546            5605     43.7781E-03     43.8132E-03
            5536            5605     43.7781E-03     43.8132E-03
            5545            5605     43.7781E-03     43.8132E-03
            5537            5605     43.7781E-03     43.8132E-03
            5547            5606     51.3398E-03     51.4568E-03
            5538            5606     51.3398E-03     51.4568E-03
            5546            5606     51.3398E-03     51.4568E-03
            5537            5606     51.3398E-03     51.4568E-03
            5547            5607     64.1435E-03     64.0220E-03
            5548            5607     64.1435E-03     64.0220E-03
            5539            5607     64.1435E-03     64.0220E-03
            5538            5607     64.1435E-03     64.0220E-03
            5539            5608     80.3027E-03     79.5446E-03
            5540            5608     80.3027E-03     79.5446E-03
            5548            5608     80.3027E-03     79.5446E-03
            5549            5608     80.3027E-03     79.5446E-03
            5542            5609     75.6228E-03     75.0645E-03
            5551            5609     75.6228E-03     75.0645E-03
            5550            5609     75.6228E-03     75.0645E-03
            5541            5609     75.6228E-03     75.0645E-03
            5552            5610     61.0654E-03     61.0749E-03
            5542            5610     61.0654E-03     61.0749E-03
            5543            5610     61.0654E-03     61.0749E-03
            5551            5610     61.0654E-03     61.0749E-03
            5552            5611     49.7148E-03     49.4558E-03
            5543            5611     49.7148E-03     49.4558E-03
            5553            5611     49.7148E-03     49.4558E-03
            5544            5611     49.7148E-03     49.4558E-03
            5544            5612     43.2049E-03     42.4149E-03
            5545            5612     43.2049E-03     42.4149E-03
            5553            5612     43.2049E-03     42.4149E-03
            5554            5612     43.2049E-03     42.4149E-03
            5554            5613     43.2049E-03     42.4149E-03
            5545            5613     43.2049E-03     42.4149E-03
            5546            5613     43.2049E-03     42.4149E-03
            5555            5613     43.2049E-03     42.4149E-03
            5546            5614     49.7148E-03     49.4558E-03
            5556            5614     49.7148E-03     49.4558E-03
            5547            5614     49.7148E-03     49.4558E-03
            5555            5614     49.7148E-03     49.4558E-03
            5547            5615     61.0654E-03     61.0749E-03
            5556            5615     61.0654E-03     61.0749E-03
            5548            5615     61.0654E-03     61.0749E-03
            5557            5615     61.0654E-03     61.0749E-03
            5548            5616     75.6228E-03     75.0645E-03
            5557            5616     75.6228E-03     75.0645E-03
            5558            5616     75.6228E-03     75.0645E-03
            5549            5616     75.6228E-03     75.0645E-03
            5551            5617     70.8131E-03     70.7484E-03
            5550            5617     70.8131E-03     70.7484E-03
            5559            5617     70.8131E-03     70.7484E-03
            5560            5617     70.8131E-03     70.7484E-03
            5560            5618     58.1447E-03     58.4129E-03
            5552            5618     58.1447E-03     58.4129E-03
            5561            5618     58.1447E-03     58.4129E-03
            5551            5618     58.1447E-03     58.4129E-03
            5561            5619     48.3520E-03     47.7769E-03
            5562            5619     48.3520E-03     47.7769E-03
            5552            5619     48.3520E-03     47.7769E-03
            5553            5619     48.3520E-03     47.7769E-03
            5562            5620     42.5132E-03     40.7289E-03
            5554            5620     42.5132E-03     40.7289E-03
            5563            5620     42.5132E-03     40.7289E-03
            5553            5620     42.5132E-03     40.7289E-03
            5554            5621     42.5132E-03     40.7289E-03
            5564            5621     42.5132E-03     40.7289E-03
            5563            5621     42.5132E-03     40.7289E-03
            5555            5621     42.5132E-03     40.7289E-03
            5555            5622     48.3520E-03     47.7769E-03
            5564            5622     48.3520E-03     47.7769E-03
            5556            5622     48.3520E-03     47.7769E-03
            5565            5622     48.3520E-03     47.7769E-03
            5566            5623     58.1447E-03     58.4129E-03
            5556            5623     58.1447E-03     58.4129E-03
            5557            5623     58.1447E-03     58.4129E-03
            5565            5623     58.1447E-03     58.4129E-03
            5557            5624     70.8131E-03     70.7484E-03
            5566            5624     70.8131E-03     70.7484E-03
            5558            5624     70.8131E-03     70.7484E-03
            5567            5624     70.8131E-03     70.7484E-03
            5568            5625     65.9291E-03     66.5444E-03
            5569            5625     65.9291E-03     66.5444E-03
            5560            5625     65.9291E-03     66.5444E-03
            5559            5625     65.9291E-03     66.5444E-03
            5560            5626     55.5617E-03     56.1806E-03
            5561            5626     55.5617E-03     56.1806E-03
            5570            5626     55.5617E-03     56.1806E-03
            5569            5626     55.5617E-03     56.1806E-03
            5571            5627     47.1360E-03     45.8378E-03
            5570            5627     47.1360E-03     45.8378E-03
            5562            5627     47.1360E-03     45.8378E-03
            5561            5627     47.1360E-03     45.8378E-03
            5563            5628     41.7468E-03     38.9199E-03
            5571            5628     41.7468E-03     38.9199E-03
            5572            5628     41.7468E-03     38.9199E-03
            5562            5628     41.7468E-03     38.9199E-03
            5563            5629     41.7468E-03     38.9199E-03
            5572            5629     41.7468E-03     38.9199E-03
            5573            5629     41.7468E-03     38.9199E-03
            5564            5629     41.7468E-03     38.9199E-03
            5574            5630     47.1360E-03     45.8378E-03
            5573            5630     47.1360E-03     45.8378E-03
            5565            5630     47.1360E-03     45.8378E-03
            5564            5630     47.1360E-03     45.8378E-03
            5575            5631     55.5617E-03     56.1806E-03
            5574            5631     55.5617E-03     56.1806E-03
            5565            5631     55.5617E-03     56.1806E-03
            5566            5631     55.5617E-03     56.1806E-03
            5575            5632     65.9291E-03     66.5444E-03
            5566            5632     65.9291E-03     66.5444E-03
            5567            5632     65.9291E-03     66.5444E-03
            5576            5632     65.9291E-03     66.5444E-03
            5569            5633     60.8832E-03     62.1172E-03
            5568            5633     60.8832E-03     62.1172E-03
            5577            5633     60.8832E-03     62.1172E-03
            5578            5633     60.8832E-03     62.1172E-03
            5569            5634     53.2826E-03     52.7998E-03
            5578            5634     53.2826E-03     52.7998E-03
            5579            5634     53.2826E-03     52.7998E-03
            5570            5634     53.2826E-03     52.7998E-03
            5580            5635     45.9913E-03     43.4792E-03
            5570            5635     45.9913E-03     43.4792E-03
            5579            5635     45.9913E-03     43.4792E-03
            5571            5635     45.9913E-03     43.4792E-03
            5572            5636     41.1656E-03     37.7757E-03
            5581            5636     41.1656E-03     37.7757E-03
            5571            5636     41.1656E-03     37.7757E-03
            5580            5636     41.1656E-03     37.7757E-03
            5581            5637     41.1656E-03     37.7757E-03
            5582            5637     41.1656E-03     37.7757E-03
            5572            5637     41.1656E-03     37.7757E-03
            5573            5637     41.1656E-03     37.7757E-03
            5573            5638     45.9913E-03     43.4792E-03
            5582            5638     45.9913E-03     43.4792E-03
            5574            5638     45.9913E-03     43.4792E-03
            5583            5638     45.9913E-03     43.4792E-03
            5583            5639     53.2826E-03     52.7998E-03
            5574            5639     53.2826E-03     52.7998E-03
            5575            5639     53.2826E-03     52.7998E-03
            5584            5639     53.2826E-03     52.7998E-03
            5576            5640     60.8832E-03     62.1172E-03
            5584            5640     60.8832E-03     62.1172E-03
            5585            5640     60.8832E-03     62.1172E-03
            5575            5640     60.8832E-03     62.1172E-03
            5586            5641     54.9536E-03     51.9788E-03
            5577            5641     54.9536E-03     51.9788E-03
            5587            5641     54.9536E-03     51.9788E-03
            5578            5641     54.9536E-03     51.9788E-03
            5578            5642     50.7398E-03     47.0938E-03
            5579            5642     50.7398E-03     47.0938E-03
            5588            5642     50.7398E-03     47.0938E-03
            5587            5642     50.7398E-03     47.0938E-03
            5579            5643     45.2633E-03     42.1036E-03
            5588            5643     45.2633E-03     42.1036E-03
            5580            5643     45.2633E-03     42.1036E-03
            5589            5643     45.2633E-03     42.1036E-03
            5589            5644     41.8637E-03     39.1692E-03
            5580            5644     41.8637E-03     39.1692E-03
            5581            5644     41.8637E-03     39.1692E-03
            5590            5644     41.8637E-03     39.1692E-03
            5591            5645     41.8637E-03     39.1692E-03
            5581            5645     41.8637E-03     39.1692E-03
            5582            5645     41.8637E-03     39.1692E-03
            5590            5645     41.8637E-03     39.1692E-03
            5582            5646     45.2633E-03     42.1036E-03
            5591            5646     45.2633E-03     42.1036E-03
            5583            5646     45.2633E-03     42.1036E-03
            5592            5646     45.2633E-03     42.1036E-03
            5593            5647     50.7398E-03     47.0938E-03
            5584            5647     50.7398E-03     47.0938E-03
            5592            5647     50.7398E-03     47.0938E-03
            5583            5647     50.7398E-03     47.0938E-03
            5585            5648     54.9536E-03     51.9788E-03
            5593            5648     54.9536E-03     51.9788E-03
            5584            5648     54.9536E-03     51.9788E-03
            5594            5648     54.9536E-03     51.9788E-03
            5595            5649     60.6277E-03     55.3785E-03
            5586            5649     60.6277E-03     55.3785E-03
            5596            5649     60.6277E-03     55.3785E-03
            5587            5649     60.6277E-03     55.3785E-03
            5587            5650     49.2973E-03     45.7966E-03
            5597            5650     49.2973E-03     45.7966E-03
            5596            5650     49.2973E-03     45.7966E-03
            5588            5650     49.2973E-03     45.7966E-03
            5597            5651     41.7207E-03     39.9861E-03
            5598            5651     41.7207E-03     39.9861E-03
            5589            5651     41.7207E-03     39.9861E-03
            5588            5651     41.7207E-03     39.9861E-03
            5599            5652     37.6095E-03     36.9171E-03
            5598            5652     37.6095E-03     36.9171E-03
            5590            5652     37.6095E-03     36.9171E-03
            5589            5652     37.6095E-03     36.9171E-03
            5600            5653     37.6095E-03     36.9171E-03
            5599            5653     37.6095E-03     36.9171E-03
            5590            5653     37.6095E-03     36.9171E-03
            5591            5653     37.6095E-03     36.9171E-03
            5591            5654     41.7207E-03     39.9861E-03
            5600            5654     41.7207E-03     39.9861E-03
            5601            5654     41.7207E-03     39.9861E-03
            5592            5654     41.7207E-03     39.9861E-03
            5593            5655     49.2973E-03     45.7966E-03
            5601            5655     49.2973E-03     45.7966E-03
            5602            5655     49.2973E-03     45.7966E-03
            5592            5655     49.2973E-03     45.7966E-03
            5603            5656     60.6277E-03     55.3785E-03
            5602            5656     60.6277E-03     55.3785E-03
            5594            5656     60.6277E-03     55.3785E-03
            5593            5656     60.6277E-03     55.3785E-03
            5595            5657     67.6289E-03     66.2989E-03
            5605            5657     67.6289E-03     66.2989E-03
            5596            5657     67.6289E-03     66.2989E-03
            5604            5657     67.6289E-03     66.2989E-03
            5596            5658     51.0622E-03     50.8565E-03
            5606            5658     51.0622E-03     50.8565E-03
            5597            5658     51.0622E-03     50.8565E-03
            5605            5658     51.0622E-03     50.8565E-03
            5607            5659     40.2063E-03     40.6849E-03
            5606            5659     40.2063E-03     40.6849E-03
            5597            5659     40.2063E-03     40.6849E-03
            5598            5659     40.2063E-03     40.6849E-03
            5599            5660     35.0700E-03     36.1505E-03
            5607            5660     35.0700E-03     36.1505E-03
            5608            5660     35.0700E-03     36.1505E-03
            5598            5660     35.0700E-03     36.1505E-03
            5600            5661     35.0700E-03     36.1505E-03
            5609            5661     35.0700E-03     36.1505E-03
            5599            5661     35.0700E-03     36.1505E-03
            5608            5661     35.0700E-03     36.1505E-03
            5600            5662     40.2063E-03     40.6849E-03
            5610            5662     40.2063E-03     40.6849E-03
            5601            5662     40.2063E-03     40.6849E-03
            5609            5662     40.2063E-03     40.6849E-03
            5610            5663     51.0622E-03     50.8565E-03
            5602            5663     51.0622E-03     50.8565E-03
            5611            5663     51.0622E-03     50.8565E-03
            5601            5663     51.0622E-03     50.8565E-03
            5602            5664     67.6289E-03     66.2989E-03
            5612            5664     67.6289E-03     66.2989E-03
            5603            5664     67.6289E-03     66.2989E-03
            5611            5664     67.6289E-03     66.2989E-03
            5604            5665     61.9011E-03     61.9755E-03
            5614            5665     61.9011E-03     61.9755E-03
            5613            5665     61.9011E-03     61.9755E-03
            5605            5665     61.9011E-03     61.9755E-03
            5606            5666     51.8342E-03     52.7256E-03
            5614            5666     51.8342E-03     52.7256E-03
            5605            5666     51.8342E-03     52.7256E-03
            5615            5666     51.8342E-03     52.7256E-03
            5616            5667     43.2799E-03     44.6831E-03
            5615            5667     43.2799E-03     44.6831E-03
            5607            5667     43.2799E-03     44.6831E-03
            5606            5667     43.2799E-03     44.6831E-03
            5608            5668     39.0786E-03     40.7391E-03
            5607            5668     39.0786E-03     40.7391E-03
            5617            5668     39.0786E-03     40.7391E-03
            5616            5668     39.0786E-03     40.7391E-03
            5609            5669     39.0786E-03     40.7391E-03
            5617            5669     39.0786E-03     40.7391E-03
            5608            5669     39.0786E-03     40.7391E-03
            5618            5669     39.0786E-03     40.7391E-03
            5619            5670     43.2799E-03     44.6831E-03
            5609            5670     43.2799E-03     44.6831E-03
            5618            5670     43.2799E-03     44.6831E-03
            5610            5670     43.2799E-03     44.6831E-03
            5619            5671     51.8342E-03     52.7256E-03
            5620            5671     51.8342E-03     52.7256E-03
            5611            5671     51.8342E-03     52.7256E-03
            5610            5671     51.8342E-03     52.7256E-03
            5612            5672     61.9011E-03     61.9755E-03
            5620            5672     61.9011E-03     61.9755E-03
            5621            5672     61.9011E-03     61.9755E-03
            5611            5672     61.9011E-03     61.9755E-03
            5613            5673     55.9167E-03     55.5959E-03
            5622            5673     55.9167E-03     55.5959E-03
            5614            5673     55.9167E-03     55.5959E-03
            5623            5673     55.9167E-03     55.5959E-03
            5624            5674     49.2184E-03     49.6595E-03
            5623            5674     49.2184E-03     49.6595E-03
            5614            5674     49.2184E-03     49.6595E-03
            5615            5674     49.2184E-03     49.6595E-03
            5615            5675     44.2153E-03     45.3919E-03
            5624            5675     44.2153E-03     45.3919E-03
            5625            5675     44.2153E-03     45.3919E-03
            5616            5675     44.2153E-03     45.3919E-03
            5625            5676     41.2334E-03     42.7040E-03
            5626            5676     41.2334E-03     42.7040E-03
            5617            5676     41.2334E-03     42.7040E-03
            5616            5676     41.2334E-03     42.7040E-03
            5618            5677     41.2334E-03     42.7040E-03
            5627            5677     41.2334E-03     42.7040E-03
            5626            5677     41.2334E-03     42.7040E-03
            5617            5677     41.2334E-03     42.7040E-03
            5628            5678     44.2153E-03     45.3919E-03
            5619            5678     44.2153E-03     45.3919E-03
            5618            5678     44.2153E-03     45.3919E-03
            5627            5678     44.2153E-03     45.3919E-03
            5629            5679     49.2184E-03     49.6595E-03
            5628            5679     49.2184E-03     49.6595E-03
            5619            5679     49.2184E-03     49.6595E-03
            5620            5679     49.2184E-03     49.6595E-03
            5630            5680     55.9167E-03     55.5959E-03
            5621            5680     55.9167E-03     55.5959E-03
            5629            5680     55.9167E-03     55.5959E-03
            5620            5680     55.9167E-03     55.5959E-03
            5632            5681     51.3893E-03     51.0055E-03
            5631            5681     51.3893E-03     51.0055E-03
            5623            5681     51.3893E-03     51.0055E-03
            5622            5681     51.3893E-03     51.0055E-03
            5624            5682     46.4165E-03     46.5662E-03
            5623            5682     46.4165E-03     46.5662E-03
            5633            5682     46.4165E-03     46.5662E-03
            5632            5682     46.4165E-03     46.5662E-03
            5633            5683     43.4272E-03     44.0297E-03
            5625            5683     43.4272E-03     44.0297E-03
            5624            5683     43.4272E-03     44.0297E-03
            5634            5683     43.4272E-03     44.0297E-03
            5626            5684     42.0269E-03     42.9261E-03
            5635            5684     42.0269E-03     42.9261E-03
            5625            5684     42.0269E-03     42.9261E-03
            5634            5684     42.0269E-03     42.9261E-03
            5636            5685     42.0269E-03     42.9261E-03
            5635            5685     42.0269E-03     42.9261E-03
            5626            5685     42.0269E-03     42.9261E-03
            5627            5685     42.0269E-03     42.9261E-03
            5628            5686     43.4272E-03     44.0297E-03
            5627            5686     43.4272E-03     44.0297E-03
            5636            5686     43.4272E-03     44.0297E-03
            5637            5686     43.4272E-03     44.0297E-03
            5638            5687     46.4165E-03     46.5662E-03
            5628            5687     46.4165E-03     46.5662E-03
            5637            5687     46.4165E-03     46.5662E-03
            5629            5687     46.4165E-03     46.5662E-03
            5629            5688     51.3893E-03     51.0055E-03
            5638            5688     51.3893E-03     51.0055E-03
            5630            5688     51.3893E-03     51.0055E-03
            5639            5688     51.3893E-03     51.0055E-03
            5640            5689     46.9395E-03     46.6547E-03
            5632            5689     46.9395E-03     46.6547E-03
            5631            5689     46.9395E-03     46.6547E-03
            5641            5689     46.9395E-03     46.6547E-03
            5633            5690     43.9237E-03     44.0160E-03
            5632            5690     43.9237E-03     44.0160E-03
            5641            5690     43.9237E-03     44.0160E-03
            5642            5690     43.9237E-03     44.0160E-03
            5634            5691     42.4593E-03     42.7107E-03
            5643            5691     42.4593E-03     42.7107E-03
            5642            5691     42.4593E-03     42.7107E-03
            5633            5691     42.4593E-03     42.7107E-03
            5643            5692     41.9550E-03     42.2359E-03
            5635            5692     41.9550E-03     42.2359E-03
            5634            5692     41.9550E-03     42.2359E-03
            5644            5692     41.9550E-03     42.2359E-03
            5636            5693     41.9550E-03     42.2359E-03
            5644            5693     41.9550E-03     42.2359E-03
            5635            5693     41.9550E-03     42.2359E-03
            5645            5693     41.9550E-03     42.2359E-03
            5645            5694     42.4593E-03     42.7107E-03
            5637            5694     42.4593E-03     42.7107E-03
            5636            5694     42.4593E-03     42.7107E-03
            5646            5694     42.4593E-03     42.7107E-03
            5647            5695     43.9237E-03     44.0160E-03
            5638            5695     43.9237E-03     44.0160E-03
            5646            5695     43.9237E-03     44.0160E-03
            5637            5695     43.9237E-03     44.0160E-03
            5638            5696     46.9395E-03     46.6547E-03
            5639            5696     46.9395E-03     46.6547E-03
            5647            5696     46.9395E-03     46.6547E-03
            5648            5696     46.9395E-03     46.6547E-03
            5640            5697     42.7506E-03     42.6352E-03
            5650            5697     42.7506E-03     42.6352E-03
            5649            5697     42.7506E-03     42.6352E-03
            5641            5697     42.7506E-03     42.6352E-03
            5642            5698     41.5374E-03     41.6419E-03
            5651            5698     41.5374E-03     41.6419E-03
            5650            5698     41.5374E-03     41.6419E-03
            5641            5698     41.5374E-03     41.6419E-03
            5643            5699     41.5171E-03     41.4658E-03
            5651            5699     41.5171E-03     41.4658E-03
            5652            5699     41.5171E-03     41.4658E-03
            5642            5699     41.5171E-03     41.4658E-03
            5652            5700     41.6464E-03     41.3865E-03
            5644            5700     41.6464E-03     41.3865E-03
            5643            5700     41.6464E-03     41.3865E-03
            5653            5700     41.6464E-03     41.3865E-03
            5644            5701     41.6464E-03     41.3865E-03
            5645            5701     41.6464E-03     41.3865E-03
            5653            5701     41.6464E-03     41.3865E-03
            5654            5701     41.6464E-03     41.3865E-03
            5646            5702     41.5171E-03     41.4658E-03
            5655            5702     41.5171E-03     41.4658E-03
            5645            5702     41.5171E-03     41.4658E-03
            5654            5702     41.5171E-03     41.4658E-03
            5647            5703     41.5374E-03     41.6419E-03
            5656            5703     41.5374E-03     41.6419E-03
            5655            5703     41.5374E-03     41.6419E-03
            5646            5703     41.5374E-03     41.6419E-03
            5648            5704     42.7506E-03     42.6352E-03
            5656            5704     42.7506E-03     42.6352E-03
            5647            5704     42.7506E-03     42.6352E-03
            5657            5704     42.7506E-03     42.6352E-03
            5659            5705     38.8249E-03     38.9948E-03
            5649            5705     38.8249E-03     38.9948E-03
            5658            5705     38.8249E-03     38.9948E-03
            5650            5705     38.8249E-03     38.9948E-03
            5660            5706     39.5590E-03     39.6983E-03
            5650            5706     39.5590E-03     39.6983E-03
            5659            5706     39.5590E-03     39.6983E-03
            5651            5706     39.5590E-03     39.6983E-03
            5652            5707     40.6206E-03     40.2442E-03
            5651            5707     40.6206E-03     40.2442E-03
            5661            5707     40.6206E-03     40.2442E-03
            5660            5707     40.6206E-03     40.2442E-03
            5662            5708     41.1867E-03     40.3461E-03
            5653            5708     41.1867E-03     40.3461E-03
            5652            5708     41.1867E-03     40.3461E-03
            5661            5708     41.1867E-03     40.3461E-03
            5663            5709     41.1867E-03     40.3461E-03
            5662            5709     41.1867E-03     40.3461E-03
            5654            5709     41.1867E-03     40.3461E-03
            5653            5709     41.1867E-03     40.3461E-03
            5663            5710     40.6206E-03     40.2442E-03
            5664            5710     40.6206E-03     40.2442E-03
            5655            5710     40.6206E-03     40.2442E-03
            5654            5710     40.6206E-03     40.2442E-03
            5656            5711     39.5590E-03     39.6983E-03
            5655            5711     39.5590E-03     39.6983E-03
            5664            5711     39.5590E-03     39.6983E-03
            5665            5711     39.5590E-03     39.6983E-03
            5657            5712     38.8249E-03     38.9948E-03
            5656            5712     38.8249E-03     38.9948E-03
            5666            5712     38.8249E-03     38.9948E-03
            5665            5712     38.8249E-03     38.9948E-03
            5659            5713     35.1576E-03     35.7193E-03
            5658            5713     35.1576E-03     35.7193E-03
            5667            5713     35.1576E-03     35.7193E-03
            5668            5713     35.1576E-03     35.7193E-03
            5660            5714     38.0618E-03     38.1613E-03
            5659            5714     38.0618E-03     38.1613E-03
            5669            5714     38.0618E-03     38.1613E-03
            5668            5714     38.0618E-03     38.1613E-03
            5660            5715     39.9226E-03     39.0373E-03
            5669            5715     39.9226E-03     39.0373E-03
            5670            5715     39.9226E-03     39.0373E-03
            5661            5715     39.9226E-03     39.0373E-03
            5671            5716     40.3644E-03     38.9687E-03
            5661            5716     40.3644E-03     38.9687E-03
            5662            5716     40.3644E-03     38.9687E-03
            5670            5716     40.3644E-03     38.9687E-03
            5662            5717     40.3644E-03     38.9687E-03
            5663            5717     40.3644E-03     38.9687E-03
            5671            5717     40.3644E-03     38.9687E-03
            5672            5717     40.3644E-03     38.9687E-03
            5673            5718     39.9226E-03     39.0373E-03
            5664            5718     39.9226E-03     39.0373E-03
            5663            5718     39.9226E-03     39.0373E-03
            5672            5718     39.9226E-03     39.0373E-03
            5665            5719     38.0618E-03     38.1613E-03
            5664            5719     38.0618E-03     38.1613E-03
            5674            5719     38.0618E-03     38.1613E-03
            5673            5719     38.0618E-03     38.1613E-03
            5674            5720     35.1576E-03     35.7193E-03
            5675            5720     35.1576E-03     35.7193E-03
            5665            5720     35.1576E-03     35.7193E-03
            5666            5720     35.1576E-03     35.7193E-03
            5676            5721     32.1245E-03     32.9255E-03
            5677            5721     32.1245E-03     32.9255E-03
            5668            5721     32.1245E-03     32.9255E-03
            5667            5721     32.1245E-03     32.9255E-03
            5669            5722     37.2150E-03     36.6597E-03
            5677            5722     37.2150E-03     36.6597E-03
            5678            5722     37.2150E-03     36.6597E-03
            5668            5722     37.2150E-03     36.6597E-03
            5678            5723     38.9422E-03     37.5414E-03
            5679            5723     38.9422E-03     37.5414E-03
            5669            5723     38.9422E-03     37.5414E-03
            5670            5723     38.9422E-03     37.5414E-03
            5679            5724     39.2527E-03     37.6053E-03
            5670            5724     39.2527E-03     37.6053E-03
            5680            5724     39.2527E-03     37.6053E-03
            5671            5724     39.2527E-03     37.6053E-03
            5681            5725     39.2527E-03     37.6053E-03
            5671            5725     39.2527E-03     37.6053E-03
            5680            5725     39.2527E-03     37.6053E-03
            5672            5725     39.2527E-03     37.6053E-03
            5673            5726     38.9422E-03     37.5414E-03
            5672            5726     38.9422E-03     37.5414E-03
            5682            5726     38.9422E-03     37.5414E-03
            5681            5726     38.9422E-03     37.5414E-03
            5683            5727     37.2150E-03     36.6597E-03
            5673            5727     37.2150E-03     36.6597E-03
            5682            5727     37.2150E-03     36.6597E-03
            5674            5727     37.2150E-03     36.6597E-03
            5675            5728     32.1245E-03     32.9255E-03
            5674            5728     32.1245E-03     32.9255E-03
            5683            5728     32.1245E-03     32.9255E-03
            5684            5728     32.1245E-03     32.9255E-03
            5686            5729     29.5650E-03     29.2540E-03
            5677            5729     29.5650E-03     29.2540E-03
            5685            5729     29.5650E-03     29.2540E-03
            5676            5729     29.5650E-03     29.2540E-03
            5687            5730     36.0151E-03     34.6527E-03
            5677            5730     36.0151E-03     34.6527E-03
            5686            5730     36.0151E-03     34.6527E-03
            5678            5730     36.0151E-03     34.6527E-03
            5687            5731     37.7444E-03     36.4264E-03
            5679            5731     37.7444E-03     36.4264E-03
            5688            5731     37.7444E-03     36.4264E-03
            5678            5731     37.7444E-03     36.4264E-03
            5688            5732     38.4154E-03     37.1796E-03
            5680            5732     38.4154E-03     37.1796E-03
            5679            5732     38.4154E-03     37.1796E-03
            5689            5732     38.4154E-03     37.1796E-03
            5689            5733     38.4154E-03     37.1796E-03
            5680            5733     38.4154E-03     37.1796E-03
            5690            5733     38.4154E-03     37.1796E-03
            5681            5733     38.4154E-03     37.1796E-03
            5681            5734     37.7444E-03     36.4264E-03
            5691            5734     37.7444E-03     36.4264E-03
            5690            5734     37.7444E-03     36.4264E-03
            5682            5734     37.7444E-03     36.4264E-03
            5691            5735     36.0151E-03     34.6527E-03
            5682            5735     36.0151E-03     34.6527E-03
            5683            5735     36.0151E-03     34.6527E-03
            5692            5735     36.0151E-03     34.6527E-03
            5693            5736     29.5650E-03     29.2540E-03
            5692            5736     29.5650E-03     29.2540E-03
            5684            5736     29.5650E-03     29.2540E-03
            5683            5736     29.5650E-03     29.2540E-03
            5694            5737     32.6947E-03     31.8082E-03
            5686            5737     32.6947E-03     31.8082E-03
            5695            5737     32.6947E-03     31.8082E-03
            5685            5737     32.6947E-03     31.8082E-03
            5687            5738     35.0582E-03     34.3558E-03
            5696            5738     35.0582E-03     34.3558E-03
            5695            5738     35.0582E-03     34.3558E-03
            5686            5738     35.0582E-03     34.3558E-03
            5697            5739     36.0937E-03     35.6071E-03
            5696            5739     36.0937E-03     35.6071E-03
            5688            5739     36.0937E-03     35.6071E-03
            5687            5739     36.0937E-03     35.6071E-03
            5698            5740     36.8564E-03     36.4807E-03
            5688            5740     36.8564E-03     36.4807E-03
            5689            5740     36.8564E-03     36.4807E-03
            5697            5740     36.8564E-03     36.4807E-03
            5689            5741     36.8564E-03     36.4807E-03
            5690            5741     36.8564E-03     36.4807E-03
            5699            5741     36.8564E-03     36.4807E-03
            5698            5741     36.8564E-03     36.4807E-03
            5691            5742     36.0937E-03     35.6071E-03
            5690            5742     36.0937E-03     35.6071E-03
            5699            5742     36.0937E-03     35.6071E-03
            5700            5742     36.0937E-03     35.6071E-03
            5701            5743     35.0582E-03     34.3558E-03
            5700            5743     35.0582E-03     34.3558E-03
            5692            5743     35.0582E-03     34.3558E-03
            5691            5743     35.0582E-03     34.3558E-03
            5702            5744     32.6947E-03     31.8082E-03
            5693            5744     32.6947E-03     31.8082E-03
            5701            5744     32.6947E-03     31.8082E-03
            5692            5744     32.6947E-03     31.8082E-03
            5695            5745     35.2038E-03     35.1051E-03
            5704            5745     35.2038E-03     35.1051E-03
            5694            5745     35.2038E-03     35.1051E-03
            5703            5745     35.2038E-03     35.1051E-03
            5695            5746     35.8519E-03     36.0981E-03
            5696            5746     35.8519E-03     36.0981E-03
            5705            5746     35.8519E-03     36.0981E-03
            5704            5746     35.8519E-03     36.0981E-03
            5696            5747     36.0760E-03     36.2249E-03
            5705            5747     36.0760E-03     36.2249E-03
            5697            5747     36.0760E-03     36.2249E-03
            5706            5747     36.0760E-03     36.2249E-03
            5706            5748     36.4178E-03     36.4993E-03
            5707            5748     36.4178E-03     36.4993E-03
            5698            5748     36.4178E-03     36.4993E-03
            5697            5748     36.4178E-03     36.4993E-03
            5707            5749     36.4178E-03     36.4993E-03
            5698            5749     36.4178E-03     36.4993E-03
            5699            5749     36.4178E-03     36.4993E-03
            5708            5749     36.4178E-03     36.4993E-03
            5708            5750     36.0760E-03     36.2249E-03
            5699            5750     36.0760E-03     36.2249E-03
            5700            5750     36.0760E-03     36.2249E-03
            5709            5750     36.0760E-03     36.2249E-03
            5710            5751     35.8519E-03     36.0981E-03
            5709            5751     35.8519E-03     36.0981E-03
            5700            5751     35.8519E-03     36.0981E-03
            5701            5751     35.8519E-03     36.0981E-03
            5710            5752     35.2038E-03     35.1051E-03
            5701            5752     35.2038E-03     35.1051E-03
            5702            5752     35.2038E-03     35.1051E-03
            5711            5752     35.2038E-03     35.1051E-03
            5704            5753     30.8102E-03     30.9386E-03
            5712            5753     30.8102E-03     30.9386E-03
            5713            5753     30.8102E-03     30.9386E-03
            5703            5753     30.8102E-03     30.9386E-03
            5704            5754     36.4836E-03     36.6181E-03
            5713            5754     36.4836E-03     36.6181E-03
            5714            5754     36.4836E-03     36.6181E-03
            5705            5754     36.4836E-03     36.6181E-03
            5714            5755     37.7840E-03     37.9049E-03
            5715            5755     37.7840E-03     37.9049E-03
            5705            5755     37.7840E-03     37.9049E-03
            5706            5755     37.7840E-03     37.9049E-03
            5706            5756     37.7135E-03     37.7758E-03
            5707            5756     37.7135E-03     37.7758E-03
            5715            5756     37.7135E-03     37.7758E-03
            5716            5756     37.7135E-03     37.7758E-03
            5708            5757     37.7135E-03     37.7758E-03
            5716            5757     37.7135E-03     37.7758E-03
            5717            5757     37.7135E-03     37.7758E-03
            5707            5757     37.7135E-03     37.7758E-03
            5717            5758     37.7840E-03     37.9049E-03
            5709            5758     37.7840E-03     37.9049E-03
            5718            5758     37.7840E-03     37.9049E-03
            5708            5758     37.7840E-03     37.9049E-03
            5719            5759     36.4836E-03     36.6181E-03
            5718            5759     36.4836E-03     36.6181E-03
            5710            5759     36.4836E-03     36.6181E-03
            5709            5759     36.4836E-03     36.6181E-03
            5711            5760     30.8102E-03     30.9386E-03
            5720            5760     30.8102E-03     30.9386E-03
            5719            5760     30.8102E-03     30.9386E-03
            5710            5760     30.8102E-03     30.9386E-03
            5713            5761     28.5457E-03     28.6555E-03
            5712            5761     28.5457E-03     28.6555E-03
            5721            5761     28.5457E-03     28.6555E-03
            5722            5761     28.5457E-03     28.6555E-03
            5722            5762     35.9590E-03     35.8036E-03
            5713            5762     35.9590E-03     35.8036E-03
            5714            5762     35.9590E-03     35.8036E-03
            5723            5762     35.9590E-03     35.8036E-03
            5724            5763     37.9712E-03     37.8969E-03
            5723            5763     37.9712E-03     37.8969E-03
            5714            5763     37.9712E-03     37.8969E-03
            5715            5763     37.9712E-03     37.8969E-03
            5724            5764     38.0308E-03     38.0020E-03
            5715            5764     38.0308E-03     38.0020E-03
            5716            5764     38.0308E-03     38.0020E-03
            5725            5764     38.0308E-03     38.0020E-03
            5725            5765     38.0308E-03     38.0020E-03
            5717            5765     38.0308E-03     38.0020E-03
            5716            5765     38.0308E-03     38.0020E-03
            5726            5765     38.0308E-03     38.0020E-03
            5718            5766     37.9712E-03     37.8969E-03
            5727            5766     37.9712E-03     37.8969E-03
            5726            5766     37.9712E-03     37.8969E-03
            5717            5766     37.9712E-03     37.8969E-03
            5718            5767     35.9590E-03     35.8036E-03
            5719            5767     35.9590E-03     35.8036E-03
            5728            5767     35.9590E-03     35.8036E-03
            5727            5767     35.9590E-03     35.8036E-03
            5729            5768     28.5457E-03     28.6555E-03
            5728            5768     28.5457E-03     28.6555E-03
            5720            5768     28.5457E-03     28.6555E-03
            5719            5768     28.5457E-03     28.6555E-03
            5721            5769     29.0132E-03     29.0214E-03
            5722            5769     29.0132E-03     29.0214E-03
            5730            5769     29.0132E-03     29.0214E-03
            5731            5769     29.0132E-03     29.0214E-03
            5722            5770     34.8714E-03     34.6850E-03
            5732            5770     34.8714E-03     34.6850E-03
            5731            5770     34.8714E-03     34.6850E-03
            5723            5770     34.8714E-03     34.6850E-03
            5732            5771     36.8138E-03     36.6646E-03
            5723            5771     36.8138E-03     36.6646E-03
            5724            5771     36.8138E-03     36.6646E-03
            5733            5771     36.8138E-03     36.6646E-03
            5725            5772     37.6651E-03     37.5902E-03
            5734            5772     37.6651E-03     37.5902E-03
            5724            5772     37.6651E-03     37.5902E-03
            5733            5772     37.6651E-03     37.5902E-03
            5734            5773     37.6651E-03     37.5902E-03
            5725            5773     37.6651E-03     37.5902E-03
            5726            5773     37.6651E-03     37.5902E-03
            5735            5773     37.6651E-03     37.5902E-03
            5735            5774     36.8138E-03     36.6646E-03
            5736            5774     36.8138E-03     36.6646E-03
            5727            5774     36.8138E-03     36.6646E-03
            5726            5774     36.8138E-03     36.6646E-03
            5727            5775     34.8714E-03     34.6850E-03
            5736            5775     34.8714E-03     34.6850E-03
            5728            5775     34.8714E-03     34.6850E-03
            5737            5775     34.8714E-03     34.6850E-03
            5738            5776     29.0132E-03     29.0214E-03
            5729            5776     29.0132E-03     29.0214E-03
            5728            5776     29.0132E-03     29.0214E-03
            5737            5776     29.0132E-03     29.0214E-03


  Minimum                            378.332E-18     364.449E-18
      At Element                            2249            2249
            Node                            2765            2765

  Maximum                            188.754E-03     179.548E-03
      At Element                            3958            3868
            Node                               8             182

           Total                         232.038         229.974


Field Output reported at element nodes for region: A320-1.Region_3
   Computation algorithm: EXTRAPOLATE_COMPUTE_AVERAGE
   Averaged at nodes
   Averaging regions: ODB_REGIONS

   Element Label      Node Label         S.Mises         S.Mises
                                          @Loc 1          @Loc 2
-----------------------------------------------------------------
            1760               1     7.59622E-15     8.33143E-15
               1               1     7.59622E-15     8.33143E-15
            3550               2     14.6357E-03     14.5505E-03
            1757               2     14.6357E-03     14.5505E-03
              29               2     14.6357E-03     14.5505E-03
               4               2     14.6357E-03     14.5505E-03
              28               3     3.61840E-03     5.73783E-03
             329               3     3.61840E-03     5.73783E-03
              25               4     915.583E-18     464.555E-18
              78               5     31.5164E-03     31.1391E-03
             379               5     31.5164E-03     31.1391E-03
            2348               5     31.5164E-03     31.1391E-03
            3501               5     31.5164E-03     31.1391E-03
             415               6     171.076E-03     184.742E-03
             378               6     171.076E-03     184.742E-03
            2343               7     35.2475E-03     33.9423E-03
            5288               7     35.2475E-03     33.9423E-03
             421               7     35.2475E-03     33.9423E-03
             384               7     35.2475E-03     33.9423E-03
             457               8     189.797E-03     220.453E-03
             420               8     189.797E-03     220.453E-03
             426               9     35.0345E-03     38.0177E-03
             505               9     35.0345E-03     38.0177E-03
            4106               9     35.0345E-03     38.0177E-03
            5283               9     35.0345E-03     38.0177E-03
             745              10     153.859E-03     163.076E-03
             462              10     153.859E-03     163.076E-03
             463              11     4.14293E-15     4.00786E-15
            6572              11     4.14293E-15     4.00786E-15
            4067              12     17.8209E-03     17.7626E-03
             468              12     17.8209E-03     17.7626E-03
            6567              12     17.8209E-03     17.7626E-03
             544              12     17.8209E-03     17.7626E-03
             504              13     3.57021E-03     6.18442E-03
            4307              13     3.57021E-03     6.18442E-03
             499              14     553.211E-18     339.381E-18
            6603              15     3.57021E-03     6.18442E-03
             784              15     3.57021E-03     6.18442E-03
            1781              17     3.61840E-03     5.73783E-03
            3850              17     3.61840E-03     5.73783E-03
            1784              18     405.059E-18     609.251E-18
            3801              21     171.076E-03     184.742E-03
            2384              21     171.076E-03     184.742E-03
            2379              22     189.797E-03     220.453E-03
            5324              22     189.797E-03     220.453E-03
            5319              25     153.859E-03     163.076E-03
            4346              25     153.859E-03     163.076E-03
            6608              27     933.035E-18     747.126E-18
            1760              29     6.51978E-15     7.38467E-15
               2              29     6.51978E-15     7.38467E-15
               1              29     6.51978E-15     7.38467E-15
            1759              29     6.51978E-15     7.38467E-15
            1759              30     6.65443E-15     6.59130E-15
               2              30     6.65443E-15     6.59130E-15
            1758              30     6.65443E-15     6.59130E-15
               3              30     6.65443E-15     6.59130E-15
               3              31     8.24880E-15     7.32060E-15
            1757              31     8.24880E-15     7.32060E-15
            1758              31     8.24880E-15     7.32060E-15
               4              31     8.24880E-15     7.32060E-15
               4              32     14.2588E-03     14.1558E-03
              29              32     14.2588E-03     14.1558E-03
               8              32     14.2588E-03     14.1558E-03
              79              32     14.2588E-03     14.1558E-03
               8              33     13.1057E-03     12.9878E-03
             129              33     13.1057E-03     12.9878E-03
              79              33     13.1057E-03     12.9878E-03
              12              33     13.1057E-03     12.9878E-03
              16              34     11.2092E-03     11.1106E-03
              12              34     11.2092E-03     11.1106E-03
             179              34     11.2092E-03     11.1106E-03
             129              34     11.2092E-03     11.1106E-03
              16              35     8.55341E-03     8.62770E-03
             229              35     8.55341E-03     8.62770E-03
              20              35     8.55341E-03     8.62770E-03
             179              35     8.55341E-03     8.62770E-03
              24              36     5.71124E-03     6.04803E-03
              20              36     5.71124E-03     6.04803E-03
             229              36     5.71124E-03     6.04803E-03
             279              36     5.71124E-03     6.04803E-03
             279              37     4.01154E-03     5.29262E-03
             329              37     4.01154E-03     5.29262E-03
              28              37     4.01154E-03     5.29262E-03
              24              37     4.01154E-03     5.29262E-03
              28              38     1.28046E-15     1.20840E-15
              27              38     1.28046E-15     1.20840E-15
              26              39     1.30916E-15     1.53825E-15
              27              39     1.30916E-15     1.53825E-15
              25              40     1.17670E-15     1.47576E-15
              26              40     1.17670E-15     1.47576E-15
              21              41     1.32777E-15     1.00285E-15
              25              41     1.32777E-15     1.00285E-15
              21              42     3.20711E-15     2.62267E-15
              17              42     3.20711E-15     2.62267E-15
              17              43     5.19589E-15     5.19833E-15
              13              43     5.19589E-15     5.19833E-15
               9              44     4.34358E-15     4.68093E-15
              13              44     4.34358E-15     4.68093E-15
               5              45     5.31431E-15     5.16308E-15
               9              45     5.31431E-15     5.16308E-15
               1              46     8.36419E-15     8.70516E-15
               5              46     8.36419E-15     8.70516E-15
              29              47     29.4473E-03     29.2065E-03
            3550              47     29.4473E-03     29.2065E-03
            3549              47     29.4473E-03     29.2065E-03
              30              47     29.4473E-03     29.2065E-03
            3549              48     29.5574E-03     29.4096E-03
              30              48     29.5574E-03     29.4096E-03
              31              48     29.5574E-03     29.4096E-03
            3548              48     29.5574E-03     29.4096E-03
            3547              49     29.4512E-03     29.3566E-03
            3548              49     29.4512E-03     29.3566E-03
              32              49     29.4512E-03     29.3566E-03
              31              49     29.4512E-03     29.3566E-03
            3547              50     29.3402E-03     29.3833E-03
            3546              50     29.3402E-03     29.3833E-03
              32              50     29.3402E-03     29.3833E-03
              33              50     29.3402E-03     29.3833E-03
              34              51     29.6334E-03     29.4592E-03
            3545              51     29.6334E-03     29.4592E-03
              33              51     29.6334E-03     29.4592E-03
            3546              51     29.6334E-03     29.4592E-03
              35              52     29.5182E-03     28.8743E-03
            3545              52     29.5182E-03     28.8743E-03
              34              52     29.5182E-03     28.8743E-03
            3544              52     29.5182E-03     28.8743E-03
            3544              53     29.6608E-03     29.3530E-03
            3543              53     29.6608E-03     29.3530E-03
              36              53     29.6608E-03     29.3530E-03
              35              53     29.6608E-03     29.3530E-03
              37              54     30.3758E-03     30.0518E-03
            3543              54     30.3758E-03     30.0518E-03
              36              54     30.3758E-03     30.0518E-03
            3542              54     30.3758E-03     30.0518E-03
              38              55     30.5931E-03     29.8911E-03
            3542              55     30.5931E-03     29.8911E-03
              37              55     30.5931E-03     29.8911E-03
            3541              55     30.5931E-03     29.8911E-03
              39              56     30.6422E-03     30.0217E-03
              38              56     30.6422E-03     30.0217E-03
            3540              56     30.6422E-03     30.0217E-03
            3541              56     30.6422E-03     30.0217E-03
            3540              57     30.5959E-03     30.0834E-03
              40              57     30.5959E-03     30.0834E-03
            3539              57     30.5959E-03     30.0834E-03
              39              57     30.5959E-03     30.0834E-03
            3539              58     30.4798E-03     30.2171E-03
              41              58     30.4798E-03     30.2171E-03
            3538              58     30.4798E-03     30.2171E-03
              40              58     30.4798E-03     30.2171E-03
            3537              59     30.3896E-03     30.4744E-03
            3538              59     30.3896E-03     30.4744E-03
              42              59     30.3896E-03     30.4744E-03
              41              59     30.3896E-03     30.4744E-03
            3537              60     30.2793E-03     30.4737E-03
              43              60     30.2793E-03     30.4737E-03
            3536              60     30.2793E-03     30.4737E-03
              42              60     30.2793E-03     30.4737E-03
              44              61     29.9172E-03     30.7663E-03
            3535              61     29.9172E-03     30.7663E-03
              43              61     29.9172E-03     30.7663E-03
            3536              61     29.9172E-03     30.7663E-03
            3535              62     30.6451E-03     30.9693E-03
            3534              62     30.6451E-03     30.9693E-03
              44              62     30.6451E-03     30.9693E-03
              45              62     30.6451E-03     30.9693E-03
            3534              63     30.5840E-03     29.6192E-03
            3533              63     30.5840E-03     29.6192E-03
              46              63     30.5840E-03     29.6192E-03
              45              63     30.5840E-03     29.6192E-03
              47              64     30.4277E-03     30.2643E-03
            3533              64     30.4277E-03     30.2643E-03
              46              64     30.4277E-03     30.2643E-03
            3532              64     30.4277E-03     30.2643E-03
              48              65     31.2069E-03     31.0780E-03
            3531              65     31.2069E-03     31.0780E-03
            3532              65     31.2069E-03     31.0780E-03
              47              65     31.2069E-03     31.0780E-03
            3531              66     31.6467E-03     30.3987E-03
              48              66     31.6467E-03     30.3987E-03
              49              66     31.6467E-03     30.3987E-03
            3530              66     31.6467E-03     30.3987E-03
              49              67     31.9363E-03     30.8179E-03
            3530              67     31.9363E-03     30.8179E-03
            3529              67     31.9363E-03     30.8179E-03
              50              67     31.9363E-03     30.8179E-03
              50              68     31.8194E-03     31.0250E-03
            3528              68     31.8194E-03     31.0250E-03
              51              68     31.8194E-03     31.0250E-03
            3529              68     31.8194E-03     31.0250E-03
            3528              69     31.6317E-03     31.2929E-03
            3527              69     31.6317E-03     31.2929E-03
              52              69     31.6317E-03     31.2929E-03
              51              69     31.6317E-03     31.2929E-03
              52              70     31.4685E-03     31.7589E-03
            3526              70     31.4685E-03     31.7589E-03
              53              70     31.4685E-03     31.7589E-03
            3527              70     31.4685E-03     31.7589E-03
            3525              71     31.2440E-03     31.7326E-03
              54              71     31.2440E-03     31.7326E-03
              53              71     31.2440E-03     31.7326E-03
            3526              71     31.2440E-03     31.7326E-03
              55              72     30.6171E-03     32.1674E-03
            3525              72     30.6171E-03     32.1674E-03
            3524              72     30.6171E-03     32.1674E-03
              54              72     30.6171E-03     32.1674E-03
              55              73     31.7383E-03     32.3628E-03
            3524              73     31.7383E-03     32.3628E-03
              56              73     31.7383E-03     32.3628E-03
            3523              73     31.7383E-03     32.3628E-03
              57              74     31.5764E-03     30.2970E-03
              56              74     31.5764E-03     30.2970E-03
            3522              74     31.5764E-03     30.2970E-03
            3523              74     31.5764E-03     30.2970E-03
            3521              75     31.2999E-03     31.4473E-03
            3522              75     31.2999E-03     31.4473E-03
              57              75     31.2999E-03     31.4473E-03
              58              75     31.2999E-03     31.4473E-03
              59              76     32.5577E-03     32.5556E-03
            3520              76     32.5577E-03     32.5556E-03
              58              76     32.5577E-03     32.5556E-03
            3521              76     32.5577E-03     32.5556E-03
              60              77     33.2904E-03     31.4790E-03
            3519              77     33.2904E-03     31.4790E-03
            3520              77     33.2904E-03     31.4790E-03
              59              77     33.2904E-03     31.4790E-03
            3518              78     33.7430E-03     32.2492E-03
            3519              78     33.7430E-03     32.2492E-03
              60              78     33.7430E-03     32.2492E-03
              61              78     33.7430E-03     32.2492E-03
            3517              79     33.6200E-03     32.5823E-03
              62              79     33.6200E-03     32.5823E-03
              61              79     33.6200E-03     32.5823E-03
            3518              79     33.6200E-03     32.5823E-03
            3517              80     33.3814E-03     33.0162E-03
            3516              80     33.3814E-03     33.0162E-03
              63              80     33.3814E-03     33.0162E-03
              62              80     33.3814E-03     33.0162E-03
            3516              81     33.1551E-03     33.6636E-03
            3515              81     33.1551E-03     33.6636E-03
              64              81     33.1551E-03     33.6636E-03
              63              81     33.1551E-03     33.6636E-03
              65              82     32.8165E-03     33.5672E-03
            3514              82     32.8165E-03     33.5672E-03
              64              82     32.8165E-03     33.5672E-03
            3515              82     32.8165E-03     33.5672E-03
            3514              83     31.8979E-03     34.1267E-03
            3513              83     31.8979E-03     34.1267E-03
              65              83     31.8979E-03     34.1267E-03
              66              83     31.8979E-03     34.1267E-03
              67              84     33.4129E-03     34.2304E-03
            3513              84     33.4129E-03     34.2304E-03
            3512              84     33.4129E-03     34.2304E-03
              66              84     33.4129E-03     34.2304E-03
              68              85     33.0557E-03     31.4760E-03
            3511              85     33.0557E-03     31.4760E-03
            3512              85     33.0557E-03     31.4760E-03
              67              85     33.0557E-03     31.4760E-03
              68              86     32.5638E-03     33.2396E-03
            3511              86     32.5638E-03     33.2396E-03
            3510              86     32.5638E-03     33.2396E-03
              69              86     32.5638E-03     33.2396E-03
            3509              87     34.4827E-03     34.7507E-03
            3510              87     34.4827E-03     34.7507E-03
              70              87     34.4827E-03     34.7507E-03
              69              87     34.4827E-03     34.7507E-03
              71              88     35.3840E-03     33.4472E-03
            3508              88     35.3840E-03     33.4472E-03
              70              88     35.3840E-03     33.4472E-03
            3509              88     35.3840E-03     33.4472E-03
            3508              89     35.9033E-03     34.6200E-03
              72              89     35.9033E-03     34.6200E-03
            3507              89     35.9033E-03     34.6200E-03
              71              89     35.9033E-03     34.6200E-03
            3507              90     35.4071E-03     35.0357E-03
              73              90     35.4071E-03     35.0357E-03
            3506              90     35.4071E-03     35.0357E-03
              72              90     35.4071E-03     35.0357E-03
              74              91     35.2891E-03     35.5003E-03
            3506              91     35.2891E-03     35.5003E-03
              73              91     35.2891E-03     35.5003E-03
            3505              91     35.2891E-03     35.5003E-03
            3505              92     34.7791E-03     35.3579E-03
              75              92     34.7791E-03     35.3579E-03
            3504              92     34.7791E-03     35.3579E-03
              74              92     34.7791E-03     35.3579E-03
              76              93     33.5251E-03     35.9741E-03
            3504              93     33.5251E-03     35.9741E-03
            3503              93     33.5251E-03     35.9741E-03
              75              93     33.5251E-03     35.9741E-03
              77              94     35.2247E-03     35.9183E-03
            3502              94     35.2247E-03     35.9183E-03
              76              94     35.2247E-03     35.9183E-03
            3503              94     35.2247E-03     35.9183E-03
            3501              95     34.5804E-03     32.6789E-03
              78              95     34.5804E-03     32.6789E-03
            3502              95     34.5804E-03     32.6789E-03
              77              95     34.5804E-03     32.6789E-03
             379              96     43.6277E-03     45.3933E-03
             385              96     43.6277E-03     45.3933E-03
              78              96     43.6277E-03     45.3933E-03
             128              96     43.6277E-03     45.3933E-03
             385              97     70.4527E-03     76.8052E-03
             391              97     70.4527E-03     76.8052E-03
             128              97     70.4527E-03     76.8052E-03
             178              97     70.4527E-03     76.8052E-03
             178              98     98.6257E-03     110.554E-03
             391              98     98.6257E-03     110.554E-03
             228              98     98.6257E-03     110.554E-03
             397              98     98.6257E-03     110.554E-03
             228              99     123.165E-03     142.558E-03
             403              99     123.165E-03     142.558E-03
             397              99     123.165E-03     142.558E-03
             278              99     123.165E-03     142.558E-03
             409             100     142.326E-03     166.999E-03
             278             100     142.326E-03     166.999E-03
             328             100     142.326E-03     166.999E-03
             403             100     142.326E-03     166.999E-03
             328             101     160.741E-03     180.385E-03
             378             101     160.741E-03     180.385E-03
             409             101     160.741E-03     180.385E-03
             415             101     160.741E-03     180.385E-03
             377             102     191.884E-03     184.903E-03
             378             102     191.884E-03     184.903E-03
             377             103     183.120E-03     172.652E-03
             376             103     183.120E-03     172.652E-03
             376             104     165.629E-03     170.548E-03
             375             104     165.629E-03     170.548E-03
             375             105     163.401E-03     159.671E-03
             374             105     163.401E-03     159.671E-03
             374             106     156.442E-03     156.331E-03
             373             106     156.442E-03     156.331E-03
             372             107     151.771E-03     148.854E-03
             373             107     151.771E-03     148.854E-03
             372             108     143.893E-03     146.325E-03
             371             108     143.893E-03     146.325E-03
             370             109     145.475E-03     137.368E-03
             371             109     145.475E-03     137.368E-03
             369             110     141.961E-03     134.717E-03
             370             110     141.961E-03     134.717E-03
             369             111     139.157E-03     155.396E-03
             368             111     139.157E-03     155.396E-03
             368             112     155.792E-03     150.337E-03
             367             112     155.792E-03     150.337E-03
             367             113     147.618E-03     139.319E-03
             366             113     147.618E-03     139.319E-03
             366             114     132.405E-03     136.542E-03
             365             114     132.405E-03     136.542E-03
             365             115     129.676E-03     126.699E-03
             364             115     129.676E-03     126.699E-03
             363             116     123.143E-03     122.881E-03
             364             116     123.143E-03     122.881E-03
             362             117     117.928E-03     117.174E-03
             363             117     117.928E-03     117.174E-03
             361             118     112.962E-03     110.914E-03
             362             118     112.962E-03     110.914E-03
             361             119     106.006E-03     107.376E-03
             360             119     106.006E-03     107.376E-03
             359             120     105.296E-03     99.5432E-03
             360             120     105.296E-03     99.5432E-03
             359             121     101.490E-03     95.8043E-03
             358             121     101.490E-03     95.8043E-03
             357             122     101.172E-03     112.911E-03
             358             122     101.172E-03     112.911E-03
             357             123     114.816E-03     111.138E-03
             356             123     114.816E-03     111.138E-03
             356             124     107.304E-03     101.263E-03
             355             124     107.304E-03     101.263E-03
             355             125     94.4145E-03     97.6806E-03
             354             125     94.4145E-03     97.6806E-03
             354             126     91.0270E-03     88.8522E-03
             353             126     91.0270E-03     88.8522E-03
             352             127     84.7493E-03     84.6502E-03
             353             127     84.7493E-03     84.6502E-03
             352             128     79.5376E-03     78.9455E-03
             351             128     79.5376E-03     78.9455E-03
             351             129     74.3201E-03     73.0740E-03
             350             129     74.3201E-03     73.0740E-03
             350             130     68.0207E-03     68.5240E-03
             349             130     68.0207E-03     68.5240E-03
             348             131     64.9851E-03     61.5022E-03
             349             131     64.9851E-03     61.5022E-03
             347             132     60.5528E-03     56.6477E-03
             348             132     60.5528E-03     56.6477E-03
             346             133     62.9415E-03     70.1947E-03
             347             133     62.9415E-03     70.1947E-03
             345             134     73.8599E-03     71.9590E-03
             346             134     73.8599E-03     71.9590E-03
             345             135     66.9921E-03     63.2201E-03
             344             135     66.9921E-03     63.2201E-03
             343             136     56.4361E-03     58.8356E-03
             344             136     56.4361E-03     58.8356E-03
             342             137     52.4051E-03     51.0333E-03
             343             137     52.4051E-03     51.0333E-03
             342             138     46.3932E-03     46.4556E-03
             341             138     46.3932E-03     46.4556E-03
             340             139     41.1935E-03     40.7651E-03
             341             139     41.1935E-03     40.7651E-03
             339             140     35.7325E-03     35.2889E-03
             340             140     35.7325E-03     35.2889E-03
             339             141     30.0715E-03     29.7303E-03
             338             141     30.0715E-03     29.7303E-03
             337             142     24.6932E-03     23.5506E-03
             338             142     24.6932E-03     23.5506E-03
             336             143     19.8664E-03     17.8005E-03
             337             143     19.8664E-03     17.8005E-03
             336             144     24.0536E-03     26.7246E-03
             335             144     24.0536E-03     26.7246E-03
             334             145     30.7402E-03     30.5724E-03
             335             145     30.7402E-03     30.5724E-03
             333             146     24.0040E-03     22.3002E-03
             334             146     24.0040E-03     22.3002E-03
             333             147     15.1802E-03     16.6665E-03
             332             147     15.1802E-03     16.6665E-03
             332             148     10.0941E-03     9.14495E-03
             331             148     10.0941E-03     9.14495E-03
             330             149     5.53267E-03     4.98554E-03
             331             149     5.53267E-03     4.98554E-03
             330             150     5.66367E-03     7.57180E-03
             329             150     5.66367E-03     7.57180E-03
            2348             151     32.9667E-03     35.1605E-03
             379             151     32.9667E-03     35.1605E-03
            2347             151     32.9667E-03     35.1605E-03
             380             151     32.9667E-03     35.1605E-03
             381             152     33.7692E-03     35.9392E-03
            2347             152     33.7692E-03     35.9392E-03
             380             152     33.7692E-03     35.9392E-03
            2346             152     33.7692E-03     35.9392E-03
            2345             153     33.9046E-03     35.2018E-03
             382             153     33.9046E-03     35.2018E-03
             381             153     33.9046E-03     35.2018E-03
            2346             153     33.9046E-03     35.2018E-03
            2345             154     37.2207E-03     35.7540E-03
             382             154     37.2207E-03     35.7540E-03
            2344             154     37.2207E-03     35.7540E-03
             383             154     37.2207E-03     35.7540E-03
             383             155     35.7129E-03     32.6637E-03
             384             155     35.7129E-03     32.6637E-03
            2343             155     35.7129E-03     32.6637E-03
            2344             155     35.7129E-03     32.6637E-03
             427             156     47.3523E-03     52.1543E-03
             390             156     47.3523E-03     52.1543E-03
             384             156     47.3523E-03     52.1543E-03
             421             156     47.3523E-03     52.1543E-03
             427             157     73.6014E-03     88.9289E-03
             390             157     73.6014E-03     88.9289E-03
             396             157     73.6014E-03     88.9289E-03
             433             157     73.6014E-03     88.9289E-03
             402             158     100.631E-03     124.973E-03
             396             158     100.631E-03     124.973E-03
             439             158     100.631E-03     124.973E-03
             433             158     100.631E-03     124.973E-03
             408             159     123.980E-03     162.079E-03
             439             159     123.980E-03     162.079E-03
             445             159     123.980E-03     162.079E-03
             402             159     123.980E-03     162.079E-03
             445             160     142.334E-03     194.000E-03
             414             160     142.334E-03     194.000E-03
             408             160     142.334E-03     194.000E-03
             451             160     142.334E-03     194.000E-03
             420             161     170.011E-03     213.374E-03
             414             161     170.011E-03     213.374E-03
             457             161     170.011E-03     213.374E-03
             451             161     170.011E-03     213.374E-03
             420             162     200.413E-03     192.520E-03
             419             162     200.413E-03     192.520E-03
             419             163     190.405E-03     181.666E-03
             418             163     190.405E-03     181.666E-03
             418             164     179.732E-03     175.170E-03
             417             164     179.732E-03     175.170E-03
             417             165     176.591E-03     167.289E-03
             416             165     176.591E-03     167.289E-03
             415             166     161.073E-03     171.858E-03
             416             166     161.073E-03     171.858E-03
             422             167     42.3105E-03     38.5675E-03
            5288             167     42.3105E-03     38.5675E-03
            5287             167     42.3105E-03     38.5675E-03
             421             167     42.3105E-03     38.5675E-03
            5287             168     43.0035E-03     41.8961E-03
            5286             168     43.0035E-03     41.8961E-03
             423             168     43.0035E-03     41.8961E-03
             422             168     43.0035E-03     41.8961E-03
            5286             169     40.7589E-03     42.0630E-03
             423             169     40.7589E-03     42.0630E-03
             424             169     40.7589E-03     42.0630E-03
            5285             169     40.7589E-03     42.0630E-03
            5284             170     41.1692E-03     40.4129E-03
             424             170     41.1692E-03     40.4129E-03
             425             170     41.1692E-03     40.4129E-03
            5285             170     41.1692E-03     40.4129E-03
             425             171     40.6954E-03     43.2436E-03
            5284             171     40.6954E-03     43.2436E-03
            5283             171     40.6954E-03     43.2436E-03
             426             171     40.6954E-03     43.2436E-03
             426             172     46.4997E-03     50.5031E-03
             432             172     46.4997E-03     50.5031E-03
             505             172     46.4997E-03     50.5031E-03
             545             172     46.4997E-03     50.5031E-03
             585             173     70.9193E-03     77.1713E-03
             545             173     70.9193E-03     77.1713E-03
             432             173     70.9193E-03     77.1713E-03
             438             173     70.9193E-03     77.1713E-03
             438             174     95.7546E-03     105.250E-03
             625             174     95.7546E-03     105.250E-03
             585             174     95.7546E-03     105.250E-03
             444             174     95.7546E-03     105.250E-03
             665             175     117.467E-03     133.040E-03
             625             175     117.467E-03     133.040E-03
             450             175     117.467E-03     133.040E-03
             444             175     117.467E-03     133.040E-03
             705             176     135.001E-03     155.225E-03
             456             176     135.001E-03     155.225E-03
             665             176     135.001E-03     155.225E-03
             450             176     135.001E-03     155.225E-03
             705             177     148.282E-03     163.297E-03
             745             177     148.282E-03     163.297E-03
             456             177     148.282E-03     163.297E-03
             462             177     148.282E-03     163.297E-03
             461             178     168.332E-03     160.931E-03
             462             178     168.332E-03     160.931E-03
             461             179     176.108E-03     163.277E-03
             460             179     176.108E-03     163.277E-03
             459             180     172.200E-03     181.911E-03
             460             180     172.200E-03     181.911E-03
             459             181     196.009E-03     180.947E-03
             458             181     196.009E-03     180.947E-03
             458             182     204.843E-03     198.199E-03
             457             182     204.843E-03     198.199E-03
            6572             183     3.85595E-15     3.85587E-15
             464             183     3.85595E-15     3.85587E-15
             463             183     3.85595E-15     3.85587E-15
            6571             183     3.85595E-15     3.85587E-15
             465             184     3.70640E-15     4.38713E-15
            6570             184     3.70640E-15     4.38713E-15
            6571             184     3.70640E-15     4.38713E-15
             464             184     3.70640E-15     4.38713E-15
             465             185     3.69375E-15     3.85250E-15
             466             185     3.69375E-15     3.85250E-15
            6570             185     3.69375E-15     3.85250E-15
            6569             185     3.69375E-15     3.85250E-15
            6569             186     4.09474E-15     3.40574E-15
             467             186     4.09474E-15     3.40574E-15
             466             186     4.09474E-15     3.40574E-15
            6568             186     4.09474E-15     3.40574E-15
             468             187     3.40213E-15     2.98939E-15
             467             187     3.40213E-15     2.98939E-15
            6567             187     3.40213E-15     2.98939E-15
            6568             187     3.40213E-15     2.98939E-15
             474             188     17.3927E-03     17.2910E-03
            4107             188     17.3927E-03     17.2910E-03
            4067             188     17.3927E-03     17.2910E-03
             468             188     17.3927E-03     17.2910E-03
             474             189     16.0706E-03     15.9601E-03
             480             189     16.0706E-03     15.9601E-03
            4147             189     16.0706E-03     15.9601E-03
            4107             189     16.0706E-03     15.9601E-03
             486             190     13.9560E-03     13.8023E-03
            4147             190     13.9560E-03     13.8023E-03
            4187             190     13.9560E-03     13.8023E-03
             480             190     13.9560E-03     13.8023E-03
            4187             191     10.9835E-03     10.7971E-03
             492             191     10.9835E-03     10.7971E-03
             486             191     10.9835E-03     10.7971E-03
            4227             191     10.9835E-03     10.7971E-03
             498             192     7.25150E-03     7.33027E-03
            4227             192     7.25150E-03     7.33027E-03
             492             192     7.25150E-03     7.33027E-03
            4267             192     7.25150E-03     7.33027E-03
            4307             193     4.42077E-03     5.87714E-03
             498             193     4.42077E-03     5.87714E-03
             504             193     4.42077E-03     5.87714E-03
            4267             193     4.42077E-03     5.87714E-03
             503             194     466.965E-18     444.325E-18
             504             194     466.965E-18     444.325E-18
             503             195     698.298E-18     467.226E-18
             502             195     698.298E-18     467.226E-18
             501             196     790.839E-18     489.103E-18
             502             196     790.839E-18     489.103E-18
             501             197     1.02359E-15     503.633E-18
             500             197     1.02359E-15     503.633E-18
             500             198     1.00298E-15     551.625E-18
             499             198     1.00298E-15     551.625E-18
             493             199     1.47868E-15     1.54812E-15
             499             199     1.47868E-15     1.54812E-15
             493             200     2.44765E-15     2.68047E-15
             487             200     2.44765E-15     2.68047E-15
             487             201     2.26483E-15     2.52715E-15
             481             201     2.26483E-15     2.52715E-15
             475             202     1.47536E-15     1.66934E-15
             481             202     1.47536E-15     1.66934E-15
             475             203     1.05845E-15     1.23112E-15
             469             203     1.05845E-15     1.23112E-15
             463             204     2.79878E-15     2.74446E-15
             469             204     2.79878E-15     2.74446E-15
            4105             205     33.7506E-03     33.0849E-03
            4106             205     33.7506E-03     33.0849E-03
             505             205     33.7506E-03     33.0849E-03
             506             205     33.7506E-03     33.0849E-03
             507             206     40.6226E-03     38.6618E-03
             506             206     40.6226E-03     38.6618E-03
            4105             206     40.6226E-03     38.6618E-03
            4104             206     40.6226E-03     38.6618E-03
             508             207     41.0948E-03     41.9635E-03
            4103             207     41.0948E-03     41.9635E-03
            4104             207     41.0948E-03     41.9635E-03
             507             207     41.0948E-03     41.9635E-03
             509             208     39.2654E-03     41.8661E-03
            4103             208     39.2654E-03     41.8661E-03
            4102             208     39.2654E-03     41.8661E-03
             508             208     39.2654E-03     41.8661E-03
            4101             209     40.3265E-03     41.1893E-03
             509             209     40.3265E-03     41.1893E-03
             510             209     40.3265E-03     41.1893E-03
            4102             209     40.3265E-03     41.1893E-03
             510             210     40.7626E-03     41.3221E-03
             511             210     40.7626E-03     41.3221E-03
            4100             210     40.7626E-03     41.3221E-03
            4101             210     40.7626E-03     41.3221E-03
             512             211     41.0266E-03     40.6226E-03
            4100             211     41.0266E-03     40.6226E-03
            4099             211     41.0266E-03     40.6226E-03
             511             211     41.0266E-03     40.6226E-03
            4099             212     41.3294E-03     40.1593E-03
             513             212     41.3294E-03     40.1593E-03
             512             212     41.3294E-03     40.1593E-03
            4098             212     41.3294E-03     40.1593E-03
            4097             213     41.5038E-03     39.7718E-03
            4098             213     41.5038E-03     39.7718E-03
             514             213     41.5038E-03     39.7718E-03
             513             213     41.5038E-03     39.7718E-03
            4097             214     40.9620E-03     38.8983E-03
            4096             214     40.9620E-03     38.8983E-03
             514             214     40.9620E-03     38.8983E-03
             515             214     40.9620E-03     38.8983E-03
            4095             215     40.1364E-03     40.2014E-03
             515             215     40.1364E-03     40.2014E-03
             516             215     40.1364E-03     40.2014E-03
            4096             215     40.1364E-03     40.2014E-03
             517             216     38.7598E-03     38.8940E-03
            4094             216     38.7598E-03     38.8940E-03
             516             216     38.7598E-03     38.8940E-03
            4095             216     38.7598E-03     38.8940E-03
            4093             217     39.1843E-03     37.5767E-03
             518             217     39.1843E-03     37.5767E-03
             517             217     39.1843E-03     37.5767E-03
            4094             217     39.1843E-03     37.5767E-03
            4092             218     39.3637E-03     40.0773E-03
            4093             218     39.3637E-03     40.0773E-03
             518             218     39.3637E-03     40.0773E-03
             519             218     39.3637E-03     40.0773E-03
             520             219     37.9231E-03     39.8914E-03
            4092             219     37.9231E-03     39.8914E-03
            4091             219     37.9231E-03     39.8914E-03
             519             219     37.9231E-03     39.8914E-03
            4090             220     38.5510E-03     39.3481E-03
             520             220     38.5510E-03     39.3481E-03
             521             220     38.5510E-03     39.3481E-03
            4091             220     38.5510E-03     39.3481E-03
            4089             221     38.7251E-03     39.3667E-03
             522             221     38.7251E-03     39.3667E-03
            4090             221     38.7251E-03     39.3667E-03
             521             221     38.7251E-03     39.3667E-03
            4089             222     38.8683E-03     38.8277E-03
             523             222     38.8683E-03     38.8277E-03
             522             222     38.8683E-03     38.8277E-03
            4088             222     38.8683E-03     38.8277E-03
             523             223     39.1535E-03     38.2911E-03
            4088             223     39.1535E-03     38.2911E-03
            4087             223     39.1535E-03     38.2911E-03
             524             223     39.1535E-03     38.2911E-03
             524             224     39.1631E-03     38.0185E-03
             525             224     39.1631E-03     38.0185E-03
            4087             224     39.1631E-03     38.0185E-03
            4086             224     39.1631E-03     38.0185E-03
            4085             225     39.2905E-03     37.7866E-03
             525             225     39.2905E-03     37.7866E-03
             526             225     39.2905E-03     37.7866E-03
            4086             225     39.2905E-03     37.7866E-03
            4085             226     38.9019E-03     37.3714E-03
            4084             226     38.9019E-03     37.3714E-03
             526             226     38.9019E-03     37.3714E-03
             527             226     38.9019E-03     37.3714E-03
            4084             227     38.4128E-03     38.1495E-03
             527             227     38.4128E-03     38.1495E-03
             528             227     38.4128E-03     38.1495E-03
            4083             227     38.4128E-03     38.1495E-03
             528             228     37.5145E-03     37.2536E-03
             529             228     37.5145E-03     37.2536E-03
            4083             228     37.5145E-03     37.2536E-03
            4082             228     37.5145E-03     37.2536E-03
             530             229     37.7396E-03     36.6033E-03
             529             229     37.7396E-03     36.6033E-03
            4081             229     37.7396E-03     36.6033E-03
            4082             229     37.7396E-03     36.6033E-03
             531             230     37.8370E-03     38.1042E-03
            4080             230     37.8370E-03     38.1042E-03
             530             230     37.8370E-03     38.1042E-03
            4081             230     37.8370E-03     38.1042E-03
            4080             231     37.0268E-03     37.8885E-03
            4079             231     37.0268E-03     37.8885E-03
             532             231     37.0268E-03     37.8885E-03
             531             231     37.0268E-03     37.8885E-03
            4078             232     37.4084E-03     37.5609E-03
             532             232     37.4084E-03     37.5609E-03
             533             232     37.4084E-03     37.5609E-03
            4079             232     37.4084E-03     37.5609E-03
             534             233     37.5356E-03     37.5769E-03
             533             233     37.5356E-03     37.5769E-03
            4077             233     37.5356E-03     37.5769E-03
            4078             233     37.5356E-03     37.5769E-03
            4076             234     37.6262E-03     37.3375E-03
             534             234     37.6262E-03     37.3375E-03
             535             234     37.6262E-03     37.3375E-03
            4077             234     37.6262E-03     37.3375E-03
             535             235     37.7486E-03     37.2092E-03
            4075             235     37.7486E-03     37.2092E-03
            4076             235     37.7486E-03     37.2092E-03
             536             235     37.7486E-03     37.2092E-03
            4075             236     37.7847E-03     37.1729E-03
             536             236     37.7847E-03     37.1729E-03
            4074             236     37.7847E-03     37.1729E-03
             537             236     37.7847E-03     37.1729E-03
            4074             237     37.7884E-03     37.0685E-03
            4073             237     37.7884E-03     37.0685E-03
             537             237     37.7884E-03     37.0685E-03
             538             237     37.7884E-03     37.0685E-03
            4072             238     37.5619E-03     37.1323E-03
             538             238     37.5619E-03     37.1323E-03
             539             238     37.5619E-03     37.1323E-03
            4073             238     37.5619E-03     37.1323E-03
             539             239     36.4405E-03     36.0763E-03
            4072             239     36.4405E-03     36.0763E-03
            4071             239     36.4405E-03     36.0763E-03
             540             239     36.4405E-03     36.0763E-03
            4070             240     35.9205E-03     35.2608E-03
             540             240     35.9205E-03     35.2608E-03
             541             240     35.9205E-03     35.2608E-03
            4071             240     35.9205E-03     35.2608E-03
             541             241     35.9900E-03     35.8108E-03
             542             241     35.9900E-03     35.8108E-03
            4070             241     35.9900E-03     35.8108E-03
            4069             241     35.9900E-03     35.8108E-03
            4068             242     35.7843E-03     35.7307E-03
            4069             242     35.7843E-03     35.7307E-03
             543             242     35.7843E-03     35.7307E-03
             542             242     35.7843E-03     35.7307E-03
            4068             243     35.7931E-03     35.5195E-03
             544             243     35.7931E-03     35.5195E-03
            4067             243     35.7931E-03     35.5195E-03
             543             243     35.7931E-03     35.5195E-03
            6567             244     17.3927E-03     17.2910E-03
            6573             244     17.3927E-03     17.2910E-03
             544             244     17.3927E-03     17.2910E-03
             584             244     17.3927E-03     17.2910E-03
            6573             245     16.0706E-03     15.9601E-03
             624             245     16.0706E-03     15.9601E-03
            6579             245     16.0706E-03     15.9601E-03
             584             245     16.0706E-03     15.9601E-03
            6579             246     13.9560E-03     13.8023E-03
             664             246     13.9560E-03     13.8023E-03
            6585             246     13.9560E-03     13.8023E-03
             624             246     13.9560E-03     13.8023E-03
             704             247     10.9835E-03     10.7971E-03
             664             247     10.9835E-03     10.7971E-03
            6591             247     10.9835E-03     10.7971E-03
            6585             247     10.9835E-03     10.7971E-03
            6597             248     7.25150E-03     7.33027E-03
             744             248     7.25150E-03     7.33027E-03
            6591             248     7.25150E-03     7.33027E-03
             704             248     7.25150E-03     7.33027E-03
             784             249     4.42077E-03     5.87714E-03
             744             249     4.42077E-03     5.87714E-03
            6603             249     4.42077E-03     5.87714E-03
            6597             249     4.42077E-03     5.87714E-03
             783             250     6.11074E-03     8.67983E-03
             784             250     6.11074E-03     8.67983E-03
             783             251     7.60138E-03     8.99042E-03
             782             251     7.60138E-03     8.99042E-03
             781             252     17.7755E-03     15.6733E-03
             782             252     17.7755E-03     15.6733E-03
             780             253     26.2868E-03     26.7005E-03
             781             253     26.2868E-03     26.7005E-03
             780             254     20.2186E-03     22.5938E-03
             779             254     20.2186E-03     22.5938E-03
             778             255     15.2241E-03     13.2871E-03
             779             255     15.2241E-03     13.2871E-03
             777             256     20.9262E-03     20.1218E-03
             778             256     20.9262E-03     20.1218E-03
             777             257     28.0626E-03     27.4599E-03
             776             257     28.0626E-03     27.4599E-03
             776             258     34.8579E-03     34.5056E-03
             775             258     34.8579E-03     34.5056E-03
             774             259     41.6038E-03     41.1273E-03
             775             259     41.6038E-03     41.1273E-03
             774             260     47.9883E-03     48.0649E-03
             773             260     47.9883E-03     48.0649E-03
             772             261     55.2509E-03     53.7978E-03
             773             261     55.2509E-03     53.7978E-03
             772             262     60.3780E-03     63.1493E-03
             771             262     60.3780E-03     63.1493E-03
             770             263     72.8919E-03     68.6128E-03
             771             263     72.8919E-03     68.6128E-03
             770             264     81.0030E-03     79.1388E-03
             769             264     81.0030E-03     79.1388E-03
             768             265     68.0475E-03     76.0452E-03
             769             265     68.0475E-03     76.0452E-03
             768             266     64.4146E-03     59.9826E-03
             767             266     64.4146E-03     59.9826E-03
             767             267     69.8462E-03     65.8490E-03
             766             267     69.8462E-03     65.8490E-03
             765             268     73.7686E-03     74.2462E-03
             766             268     73.7686E-03     74.2462E-03
             765             269     81.2915E-03     79.8077E-03
             764             269     81.2915E-03     79.8077E-03
             763             270     87.5171E-03     86.8607E-03
             764             270     87.5171E-03     86.8607E-03
             763             271     93.8740E-03     93.1820E-03
             762             271     93.8740E-03     93.1820E-03
             762             272     100.136E-03     99.9771E-03
             761             272     100.136E-03     99.9771E-03
             761             273     107.585E-03     105.135E-03
             760             273     107.585E-03     105.135E-03
             759             274     111.730E-03     115.745E-03
             760             274     111.730E-03     115.745E-03
             759             275     127.361E-03     119.955E-03
             758             275     127.361E-03     119.955E-03
             757             276     136.096E-03     131.908E-03
             758             276     136.096E-03     131.908E-03
             756             277     118.928E-03     133.126E-03
             757             277     118.928E-03     133.126E-03
             755             278     118.640E-03     111.908E-03
             756             278     118.640E-03     111.908E-03
             754             279     123.508E-03     116.542E-03
             755             279     123.508E-03     116.542E-03
             754             280     124.556E-03     126.117E-03
             753             280     124.556E-03     126.117E-03
             752             281     132.922E-03     130.580E-03
             753             281     132.922E-03     130.580E-03
             752             282     139.088E-03     138.166E-03
             751             282     139.088E-03     138.166E-03
             751             283     145.500E-03     145.137E-03
             750             283     145.500E-03     145.137E-03
             749             284     153.396E-03     149.952E-03
             750             284     153.396E-03     149.952E-03
             748             285     156.941E-03     161.933E-03
             749             285     156.941E-03     161.933E-03
             748             286     175.524E-03     165.263E-03
             747             286     175.524E-03     165.263E-03
             747             287     185.146E-03     178.783E-03
             746             287     185.146E-03     178.783E-03
             745             288     164.088E-03     178.091E-03
             746             288     164.088E-03     178.091E-03
            1782             306     1.28238E-15     1.65002E-15
            1781             306     1.28238E-15     1.65002E-15
            1783             307     790.533E-18     1.09591E-15
            1782             307     790.533E-18     1.09591E-15
            1784             308     595.023E-18     604.741E-18
            1783             308     595.023E-18     604.741E-18
            1760             412     4.13765E-15     4.97755E-15
            1764             412     4.13765E-15     4.97755E-15
            1764             413     1.65196E-15     1.81485E-15
            1768             413     1.65196E-15     1.81485E-15
            1772             414     3.69193E-15     3.52684E-15
            1768             414     3.69193E-15     3.52684E-15
            1776             415     5.10977E-15     4.59921E-15
            1772             415     5.10977E-15     4.59921E-15
            1776             416     2.88026E-15     2.29954E-15
            1780             416     2.88026E-15     2.29954E-15
            1780             417     1.08913E-15     1.23985E-15
            1784             417     1.08913E-15     1.23985E-15
            3800             418     4.01154E-03     5.29262E-03
            1777             418     4.01154E-03     5.29262E-03
            3850             418     4.01154E-03     5.29262E-03
            1781             418     4.01154E-03     5.29262E-03
            3800             419     5.71124E-03     6.04803E-03
            1777             419     5.71124E-03     6.04803E-03
            3750             419     5.71124E-03     6.04803E-03
            1773             419     5.71124E-03     6.04803E-03
            3700             420     8.55341E-03     8.62770E-03
            3750             420     8.55341E-03     8.62770E-03
            1769             420     8.55341E-03     8.62770E-03
            1773             420     8.55341E-03     8.62770E-03
            3650             421     11.2092E-03     11.1106E-03
            3700             421     11.2092E-03     11.1106E-03
            1769             421     11.2092E-03     11.1106E-03
            1765             421     11.2092E-03     11.1106E-03
            3650             422     13.1057E-03     12.9878E-03
            1765             422     13.1057E-03     12.9878E-03
            1761             422     13.1057E-03     12.9878E-03
            3600             422     13.1057E-03     12.9878E-03
            3600             423     14.2588E-03     14.1558E-03
            1761             423     14.2588E-03     14.1558E-03
            3550             423     14.2588E-03     14.1558E-03
            1757             423     14.2588E-03     14.1558E-03
            3801             440     191.884E-03     184.903E-03
            3802             440     191.884E-03     184.903E-03
            3803             441     183.120E-03     172.652E-03
            3802             441     183.120E-03     172.652E-03
            3804             442     165.629E-03     170.548E-03
            3803             442     165.629E-03     170.548E-03
            3805             443     163.401E-03     159.671E-03
            3804             443     163.401E-03     159.671E-03
            3806             444     156.442E-03     156.331E-03
            3805             444     156.442E-03     156.331E-03
            3807             445     151.771E-03     148.854E-03
            3806             445     151.771E-03     148.854E-03
            3808             446     143.893E-03     146.325E-03
            3807             446     143.893E-03     146.325E-03
            3808             447     145.475E-03     137.368E-03
            3809             447     145.475E-03     137.368E-03
            3809             448     141.961E-03     134.717E-03
            3810             448     141.961E-03     134.717E-03
            3811             449     139.157E-03     155.396E-03
            3810             449     139.157E-03     155.396E-03
            3812             450     155.792E-03     150.337E-03
            3811             450     155.792E-03     150.337E-03
            3813             451     147.618E-03     139.319E-03
            3812             451     147.618E-03     139.319E-03
            3813             452     132.405E-03     136.542E-03
            3814             452     132.405E-03     136.542E-03
            3814             453     129.676E-03     126.699E-03
            3815             453     129.676E-03     126.699E-03
            3816             454     123.143E-03     122.881E-03
            3815             454     123.143E-03     122.881E-03
            3816             455     117.928E-03     117.174E-03
            3817             455     117.928E-03     117.174E-03
            3817             456     112.962E-03     110.914E-03
            3818             456     112.962E-03     110.914E-03
            3819             457     106.006E-03     107.376E-03
            3818             457     106.006E-03     107.376E-03
            3819             458     105.296E-03     99.5432E-03
            3820             458     105.296E-03     99.5432E-03
            3821             459     101.490E-03     95.8043E-03
            3820             459     101.490E-03     95.8043E-03
            3821             460     101.172E-03     112.911E-03
            3822             460     101.172E-03     112.911E-03
            3823             461     114.816E-03     111.138E-03
            3822             461     114.816E-03     111.138E-03
            3824             462     107.304E-03     101.263E-03
            3823             462     107.304E-03     101.263E-03
            3825             463     94.4145E-03     97.6806E-03
            3824             463     94.4145E-03     97.6806E-03
            3825             464     91.0270E-03     88.8522E-03
            3826             464     91.0270E-03     88.8522E-03
            3827             465     84.7493E-03     84.6502E-03
            3826             465     84.7493E-03     84.6502E-03
            3828             466     79.5376E-03     78.9455E-03
            3827             466     79.5376E-03     78.9455E-03
            3829             467     74.3201E-03     73.0740E-03
            3828             467     74.3201E-03     73.0740E-03
            3829             468     68.0207E-03     68.5240E-03
            3830             468     68.0207E-03     68.5240E-03
            3830             469     64.9851E-03     61.5022E-03
            3831             469     64.9851E-03     61.5022E-03
            3832             470     60.5528E-03     56.6477E-03
            3831             470     60.5528E-03     56.6477E-03
            3833             471     62.9415E-03     70.1947E-03
            3832             471     62.9415E-03     70.1947E-03
            3834             472     73.8599E-03     71.9590E-03
            3833             472     73.8599E-03     71.9590E-03
            3834             473     66.9921E-03     63.2201E-03
            3835             473     66.9921E-03     63.2201E-03
            3836             474     56.4361E-03     58.8356E-03
            3835             474     56.4361E-03     58.8356E-03
            3836             475     52.4051E-03     51.0333E-03
            3837             475     52.4051E-03     51.0333E-03
            3837             476     46.3932E-03     46.4556E-03
            3838             476     46.3932E-03     46.4556E-03
            3838             477     41.1935E-03     40.7651E-03
            3839             477     41.1935E-03     40.7651E-03
            3839             478     35.7325E-03     35.2889E-03
            3840             478     35.7325E-03     35.2889E-03
            3841             479     30.0715E-03     29.7303E-03
            3840             479     30.0715E-03     29.7303E-03
            3842             480     24.6932E-03     23.5506E-03
            3841             480     24.6932E-03     23.5506E-03
            3843             481     19.8664E-03     17.8005E-03
            3842             481     19.8664E-03     17.8005E-03
            3844             482     24.0536E-03     26.7246E-03
            3843             482     24.0536E-03     26.7246E-03
            3845             483     30.7402E-03     30.5724E-03
            3844             483     30.7402E-03     30.5724E-03
            3846             484     24.0040E-03     22.3002E-03
            3845             484     24.0040E-03     22.3002E-03
            3846             485     15.1802E-03     16.6665E-03
            3847             485     15.1802E-03     16.6665E-03
            3848             486     10.0941E-03     9.14495E-03
            3847             486     10.0941E-03     9.14495E-03
            3849             487     5.53267E-03     4.98554E-03
            3848             487     5.53267E-03     4.98554E-03
            3850             488     5.66367E-03     7.57180E-03
            3849             488     5.66367E-03     7.57180E-03
            2354             514     43.6277E-03     45.3933E-03
            3501             514     43.6277E-03     45.3933E-03
            2348             514     43.6277E-03     45.3933E-03
            3551             514     43.6277E-03     45.3933E-03
            3601             515     70.4527E-03     76.8052E-03
            3551             515     70.4527E-03     76.8052E-03
            2354             515     70.4527E-03     76.8052E-03
            2360             515     70.4527E-03     76.8052E-03
            2366             516     98.6257E-03     110.554E-03
            3601             516     98.6257E-03     110.554E-03
            2360             516     98.6257E-03     110.554E-03
            3651             516     98.6257E-03     110.554E-03
            3701             517     123.165E-03     142.558E-03
            3651             517     123.165E-03     142.558E-03
            2366             517     123.165E-03     142.558E-03
            2372             517     123.165E-03     142.558E-03
            2372             518     142.326E-03     166.999E-03
            3701             518     142.326E-03     166.999E-03
            3751             518     142.326E-03     166.999E-03
            2378             518     142.326E-03     166.999E-03
            3751             519     160.741E-03     180.385E-03
            2378             519     160.741E-03     180.385E-03
            2384             519     160.741E-03     180.385E-03
            3801             519     160.741E-03     180.385E-03
            2384             520     161.073E-03     171.858E-03
            2383             520     161.073E-03     171.858E-03
            2383             521     176.591E-03     167.289E-03
            2382             521     176.591E-03     167.289E-03
            2381             522     179.732E-03     175.170E-03
            2382             522     179.732E-03     175.170E-03
            2380             523     190.405E-03     181.666E-03
            2381             523     190.405E-03     181.666E-03
            2380             524     200.413E-03     192.520E-03
            2379             524     200.413E-03     192.520E-03
            2379             525     170.011E-03     213.374E-03
            5324             525     170.011E-03     213.374E-03
            2373             525     170.011E-03     213.374E-03
            5318             525     170.011E-03     213.374E-03
            5312             526     142.334E-03     194.000E-03
            2367             526     142.334E-03     194.000E-03
            2373             526     142.334E-03     194.000E-03
            5318             526     142.334E-03     194.000E-03
            5306             527     123.980E-03     162.079E-03
            5312             527     123.980E-03     162.079E-03
            2361             527     123.980E-03     162.079E-03
            2367             527     123.980E-03     162.079E-03
            2361             528     100.631E-03     124.973E-03
            5306             528     100.631E-03     124.973E-03
            5300             528     100.631E-03     124.973E-03
            2355             528     100.631E-03     124.973E-03
            2349             529     73.6014E-03     88.9289E-03
            5294             529     73.6014E-03     88.9289E-03
            2355             529     73.6014E-03     88.9289E-03
            5300             529     73.6014E-03     88.9289E-03
            5288             530     47.3523E-03     52.1543E-03
            2349             530     47.3523E-03     52.1543E-03
            2343             530     47.3523E-03     52.1543E-03
            5294             530     47.3523E-03     52.1543E-03
            5320             625     168.332E-03     160.931E-03
            5319             625     168.332E-03     160.931E-03
            5321             626     176.108E-03     163.277E-03
            5320             626     176.108E-03     163.277E-03
            5321             627     172.200E-03     181.911E-03
            5322             627     172.200E-03     181.911E-03
            5323             628     196.009E-03     180.947E-03
            5322             628     196.009E-03     180.947E-03
            5324             629     204.843E-03     198.199E-03
            5323             629     204.843E-03     198.199E-03
            5283             630     46.4997E-03     50.5031E-03
            5289             630     46.4997E-03     50.5031E-03
            4106             630     46.4997E-03     50.5031E-03
            4146             630     46.4997E-03     50.5031E-03
            4186             631     70.9193E-03     77.1713E-03
            4146             631     70.9193E-03     77.1713E-03
            5289             631     70.9193E-03     77.1713E-03
            5295             631     70.9193E-03     77.1713E-03
            4186             632     95.7546E-03     105.250E-03
            5295             632     95.7546E-03     105.250E-03
            4226             632     95.7546E-03     105.250E-03
            5301             632     95.7546E-03     105.250E-03
            4226             633     117.467E-03     133.040E-03
            5307             633     117.467E-03     133.040E-03
            5301             633     117.467E-03     133.040E-03
            4266             633     117.467E-03     133.040E-03
            5313             634     135.001E-03     155.225E-03
            4266             634     135.001E-03     155.225E-03
            4306             634     135.001E-03     155.225E-03
            5307             634     135.001E-03     155.225E-03
            5319             635     148.282E-03     163.297E-03
            4306             635     148.282E-03     163.297E-03
            5313             635     148.282E-03     163.297E-03
            4346             635     148.282E-03     163.297E-03
            4346             636     164.088E-03     178.091E-03
            4345             636     164.088E-03     178.091E-03
            4345             637     185.146E-03     178.783E-03
            4344             637     185.146E-03     178.783E-03
            4344             638     175.524E-03     165.263E-03
            4343             638     175.524E-03     165.263E-03
            4342             639     156.941E-03     161.933E-03
            4343             639     156.941E-03     161.933E-03
            4341             640     153.396E-03     149.952E-03
            4342             640     153.396E-03     149.952E-03
            4341             641     145.500E-03     145.137E-03
            4340             641     145.500E-03     145.137E-03
            4339             642     139.088E-03     138.166E-03
            4340             642     139.088E-03     138.166E-03
            4338             643     132.922E-03     130.580E-03
            4339             643     132.922E-03     130.580E-03
            4337             644     124.556E-03     126.117E-03
            4338             644     124.556E-03     126.117E-03
            4336             645     123.508E-03     116.542E-03
            4337             645     123.508E-03     116.542E-03
            4335             646     118.640E-03     111.908E-03
            4336             646     118.640E-03     111.908E-03
            4335             647     118.928E-03     133.126E-03
            4334             647     118.928E-03     133.126E-03
            4333             648     136.096E-03     131.908E-03
            4334             648     136.096E-03     131.908E-03
            4332             649     127.361E-03     119.955E-03
            4333             649     127.361E-03     119.955E-03
            4332             650     111.730E-03     115.745E-03
            4331             650     111.730E-03     115.745E-03
            4330             651     107.585E-03     105.135E-03
            4331             651     107.585E-03     105.135E-03
            4329             652     100.136E-03     99.9771E-03
            4330             652     100.136E-03     99.9771E-03
            4328             653     93.8740E-03     93.1820E-03
            4329             653     93.8740E-03     93.1820E-03
            4328             654     87.5171E-03     86.8607E-03
            4327             654     87.5171E-03     86.8607E-03
            4326             655     81.2915E-03     79.8077E-03
            4327             655     81.2915E-03     79.8077E-03
            4326             656     73.7686E-03     74.2462E-03
            4325             656     73.7686E-03     74.2462E-03
            4324             657     69.8462E-03     65.8490E-03
            4325             657     69.8462E-03     65.8490E-03
            4324             658     64.4146E-03     59.9826E-03
            4323             658     64.4146E-03     59.9826E-03
            4323             659     68.0475E-03     76.0452E-03
            4322             659     68.0475E-03     76.0452E-03
            4321             660     81.0030E-03     79.1388E-03
            4322             660     81.0030E-03     79.1388E-03
            4320             661     72.8919E-03     68.6128E-03
            4321             661     72.8919E-03     68.6128E-03
            4320             662     60.3780E-03     63.1493E-03
            4319             662     60.3780E-03     63.1493E-03
            4319             663     55.2509E-03     53.7978E-03
            4318             663     55.2509E-03     53.7978E-03
            4318             664     47.9883E-03     48.0649E-03
            4317             664     47.9883E-03     48.0649E-03
            4317             665     41.6038E-03     41.1273E-03
            4316             665     41.6038E-03     41.1273E-03
            4316             666     34.8579E-03     34.5056E-03
            4315             666     34.8579E-03     34.5056E-03
            4315             667     28.0626E-03     27.4599E-03
            4314             667     28.0626E-03     27.4599E-03
            4314             668     20.9262E-03     20.1218E-03
            4313             668     20.9262E-03     20.1218E-03
            4313             669     15.2241E-03     13.2871E-03
            4312             669     15.2241E-03     13.2871E-03
            4312             670     20.2186E-03     22.5938E-03
            4311             670     20.2186E-03     22.5938E-03
            4310             671     26.2868E-03     26.7005E-03
            4311             671     26.2868E-03     26.7005E-03
            4309             672     17.7755E-03     15.6733E-03
            4310             672     17.7755E-03     15.6733E-03
            4308             673     7.60138E-03     8.99042E-03
            4309             673     7.60138E-03     8.99042E-03
            4308             674     6.11074E-03     8.67983E-03
            4307             674     6.11074E-03     8.67983E-03
            6604             765     719.994E-18     587.397E-18
            6603             765     719.994E-18     587.397E-18
            6605             766     829.739E-18     689.653E-18
            6604             766     829.739E-18     689.653E-18
            6606             767     632.366E-18     920.105E-18
            6605             767     632.366E-18     920.105E-18
            6607             768     1.02444E-15     1.08950E-15
            6606             768     1.02444E-15     1.08950E-15
            6608             769     1.26093E-15     966.831E-18
            6607             769     1.26093E-15     966.831E-18
            6578             825     3.99932E-15     3.45476E-15
            6572             825     3.99932E-15     3.45476E-15
            6584             826     3.56477E-15     2.15074E-15
            6578             826     3.56477E-15     2.15074E-15
            6584             827     3.15060E-15     2.04400E-15
            6590             827     3.15060E-15     2.04400E-15
            6596             828     3.16674E-15     2.63252E-15
            6590             828     3.16674E-15     2.63252E-15
            6596             829     1.81728E-15     1.55337E-15
            6602             829     1.81728E-15     1.55337E-15
            6608             830     755.719E-18     592.147E-18
            6602             830     755.719E-18     592.147E-18
               2             831     6.42259E-15     6.94824E-15
               5             831     6.42259E-15     6.94824E-15
               6             831     6.42259E-15     6.94824E-15
               1             831     6.42259E-15     6.94824E-15
               3             832     6.11003E-15     5.70170E-15
               6             832     6.11003E-15     5.70170E-15
               7             832     6.11003E-15     5.70170E-15
               2             832     6.11003E-15     5.70170E-15
               8             833     8.71451E-15     7.80971E-15
               3             833     8.71451E-15     7.80971E-15
               7             833     8.71451E-15     7.80971E-15
               4             833     8.71451E-15     7.80971E-15
               5             834     4.99268E-15     4.61539E-15
              10             834     4.99268E-15     4.61539E-15
               6             834     4.99268E-15     4.61539E-15
               9             834     4.99268E-15     4.61539E-15
              10             835     5.08261E-15     4.16953E-15
               6             835     5.08261E-15     4.16953E-15
               7             835     5.08261E-15     4.16953E-15
              11             835     5.08261E-15     4.16953E-15
               8             836     5.86276E-15     5.31602E-15
              11             836     5.86276E-15     5.31602E-15
               7             836     5.86276E-15     5.31602E-15
              12             836     5.86276E-15     5.31602E-15
               9             837     5.42516E-15     5.21121E-15
              13             837     5.42516E-15     5.21121E-15
              10             837     5.42516E-15     5.21121E-15
              14             837     5.42516E-15     5.21121E-15
              11             838     6.58181E-15     6.13514E-15
              14             838     6.58181E-15     6.13514E-15
              10             838     6.58181E-15     6.13514E-15
              15             838     6.58181E-15     6.13514E-15
              16             839     4.76508E-15     5.06106E-15
              15             839     4.76508E-15     5.06106E-15
              12             839     4.76508E-15     5.06106E-15
              11             839     4.76508E-15     5.06106E-15
              13             840     5.14087E-15     5.40107E-15
              17             840     5.14087E-15     5.40107E-15
              14             840     5.14087E-15     5.40107E-15
              18             840     5.14087E-15     5.40107E-15
              15             841     5.30143E-15     6.03896E-15
              18             841     5.30143E-15     6.03896E-15
              14             841     5.30143E-15     6.03896E-15
              19             841     5.30143E-15     6.03896E-15
              19             842     4.25199E-15     5.51894E-15
              20             842     4.25199E-15     5.51894E-15
              15             842     4.25199E-15     5.51894E-15
              16             842     4.25199E-15     5.51894E-15
              17             843     2.95868E-15     2.88996E-15
              21             843     2.95868E-15     2.88996E-15
              18             843     2.95868E-15     2.88996E-15
              22             843     2.95868E-15     2.88996E-15
              19             844     2.90389E-15     3.38867E-15
              22             844     2.90389E-15     3.38867E-15
              18             844     2.90389E-15     3.38867E-15
              23             844     2.90389E-15     3.38867E-15
              23             845     2.71533E-15     3.17536E-15
              24             845     2.71533E-15     3.17536E-15
              19             845     2.71533E-15     3.17536E-15
              20             845     2.71533E-15     3.17536E-15
              25             846     1.68342E-15     1.72621E-15
              21             846     1.68342E-15     1.72621E-15
              22             846     1.68342E-15     1.72621E-15
              26             846     1.68342E-15     1.72621E-15
              27             847     2.40063E-15     2.34059E-15
              22             847     2.40063E-15     2.34059E-15
              26             847     2.40063E-15     2.34059E-15
              23             847     2.40063E-15     2.34059E-15
              23             848     2.46108E-15     2.04239E-15
              27             848     2.46108E-15     2.04239E-15
              28             848     2.46108E-15     2.04239E-15
              24             848     2.46108E-15     2.04239E-15
              30             849     28.6805E-03     28.4375E-03
              80             849     28.6805E-03     28.4375E-03
              79             849     28.6805E-03     28.4375E-03
              29             849     28.6805E-03     28.4375E-03
              30             850     28.8126E-03     28.6324E-03
              81             850     28.8126E-03     28.6324E-03
              80             850     28.8126E-03     28.6324E-03
              31             850     28.8126E-03     28.6324E-03
              32             851     28.8136E-03     28.6608E-03
              81             851     28.8136E-03     28.6608E-03
              82             851     28.8136E-03     28.6608E-03
              31             851     28.8136E-03     28.6608E-03
              83             852     28.7604E-03     28.8576E-03
              82             852     28.7604E-03     28.8576E-03
              33             852     28.7604E-03     28.8576E-03
              32             852     28.7604E-03     28.8576E-03
              33             853     29.1928E-03     29.0101E-03
              34             853     29.1928E-03     29.0101E-03
              84             853     29.1928E-03     29.0101E-03
              83             853     29.1928E-03     29.0101E-03
              34             854     29.1708E-03     28.6295E-03
              35             854     29.1708E-03     28.6295E-03
              85             854     29.1708E-03     28.6295E-03
              84             854     29.1708E-03     28.6295E-03
              35             855     29.1190E-03     28.9784E-03
              86             855     29.1190E-03     28.9784E-03
              36             855     29.1190E-03     28.9784E-03
              85             855     29.1190E-03     28.9784E-03
              36             856     29.8118E-03     29.4889E-03
              87             856     29.8118E-03     29.4889E-03
              37             856     29.8118E-03     29.4889E-03
              86             856     29.8118E-03     29.4889E-03
              37             857     30.1852E-03     29.6155E-03
              88             857     30.1852E-03     29.6155E-03
              38             857     30.1852E-03     29.6155E-03
              87             857     30.1852E-03     29.6155E-03
              38             858     30.5020E-03     30.0773E-03
              88             858     30.5020E-03     30.0773E-03
              39             858     30.5020E-03     30.0773E-03
              89             858     30.5020E-03     30.0773E-03
              90             859     30.7733E-03     30.4614E-03
              39             859     30.7733E-03     30.4614E-03
              89             859     30.7733E-03     30.4614E-03
              40             859     30.7733E-03     30.4614E-03
              90             860     31.0498E-03     31.0026E-03
              41             860     31.0498E-03     31.0026E-03
              40             860     31.0498E-03     31.0026E-03
              91             860     31.0498E-03     31.0026E-03
              92             861     31.4628E-03     31.5387E-03
              41             861     31.4628E-03     31.5387E-03
              91             861     31.4628E-03     31.5387E-03
              42             861     31.4628E-03     31.5387E-03
              42             862     31.8154E-03     31.8417E-03
              93             862     31.8154E-03     31.8417E-03
              92             862     31.8154E-03     31.8417E-03
              43             862     31.8154E-03     31.8417E-03
              43             863     31.6832E-03     32.6457E-03
              44             863     31.6832E-03     32.6457E-03
              94             863     31.6832E-03     32.6457E-03
              93             863     31.6832E-03     32.6457E-03
              95             864     33.0745E-03     32.7703E-03
              94             864     33.0745E-03     32.7703E-03
              44             864     33.0745E-03     32.7703E-03
              45             864     33.0745E-03     32.7703E-03
              96             865     32.9593E-03     31.7913E-03
              46             865     32.9593E-03     31.7913E-03
              45             865     32.9593E-03     31.7913E-03
              95             865     32.9593E-03     31.7913E-03
              47             866     31.6836E-03     32.2914E-03
              46             866     31.6836E-03     32.2914E-03
              97             866     31.6836E-03     32.2914E-03
              96             866     31.6836E-03     32.2914E-03
              97             867     32.9128E-03     32.5507E-03
              47             867     32.9128E-03     32.5507E-03
              98             867     32.9128E-03     32.5507E-03
              48             867     32.9128E-03     32.5507E-03
              48             868     33.8998E-03     32.7455E-03
              98             868     33.8998E-03     32.7455E-03
              99             868     33.8998E-03     32.7455E-03
              49             868     33.8998E-03     32.7455E-03
              50             869     34.4670E-03     33.9483E-03
             100             869     34.4670E-03     33.9483E-03
              99             869     34.4670E-03     33.9483E-03
              49             869     34.4670E-03     33.9483E-03
             100             870     35.0899E-03     34.6213E-03
              50             870     35.0899E-03     34.6213E-03
             101             870     35.0899E-03     34.6213E-03
              51             870     35.0899E-03     34.6213E-03
             101             871     35.5964E-03     35.5756E-03
             102             871     35.5964E-03     35.5756E-03
              51             871     35.5964E-03     35.5756E-03
              52             871     35.5964E-03     35.5756E-03
              52             872     36.2024E-03     36.4201E-03
             102             872     36.2024E-03     36.4201E-03
             103             872     36.2024E-03     36.4201E-03
              53             872     36.2024E-03     36.4201E-03
             104             873     36.6098E-03     36.7604E-03
              53             873     36.6098E-03     36.7604E-03
              54             873     36.6098E-03     36.7604E-03
             103             873     36.6098E-03     36.7604E-03
              55             874     36.1619E-03     37.9262E-03
             105             874     36.1619E-03     37.9262E-03
             104             874     36.1619E-03     37.9262E-03
              54             874     36.1619E-03     37.9262E-03
              56             875     38.2615E-03     37.7419E-03
             105             875     38.2615E-03     37.7419E-03
              55             875     38.2615E-03     37.7419E-03
             106             875     38.2615E-03     37.7419E-03
              57             876     37.7549E-03     36.0827E-03
             107             876     37.7549E-03     36.0827E-03
             106             876     37.7549E-03     36.0827E-03
              56             876     37.7549E-03     36.0827E-03
             107             877     35.3683E-03     37.0745E-03
             108             877     35.3683E-03     37.0745E-03
              57             877     35.3683E-03     37.0745E-03
              58             877     35.3683E-03     37.0745E-03
              59             878     37.8003E-03     37.2503E-03
             109             878     37.8003E-03     37.2503E-03
             108             878     37.8003E-03     37.2503E-03
              58             878     37.8003E-03     37.2503E-03
              60             879     39.4781E-03     37.6289E-03
              59             879     39.4781E-03     37.6289E-03
             110             879     39.4781E-03     37.6289E-03
             109             879     39.4781E-03     37.6289E-03
             111             880     40.0107E-03     39.5970E-03
             110             880     40.0107E-03     39.5970E-03
              60             880     40.0107E-03     39.5970E-03
              61             880     40.0107E-03     39.5970E-03
              61             881     40.9998E-03     40.3874E-03
             112             881     40.9998E-03     40.3874E-03
             111             881     40.9998E-03     40.3874E-03
              62             881     40.9998E-03     40.3874E-03
              62             882     41.6500E-03     41.6800E-03
             112             882     41.6500E-03     41.6800E-03
             113             882     41.6500E-03     41.6800E-03
              63             882     41.6500E-03     41.6800E-03
              63             883     42.3386E-03     42.7170E-03
             113             883     42.3386E-03     42.7170E-03
              64             883     42.3386E-03     42.7170E-03
             114             883     42.3386E-03     42.7170E-03
              64             884     42.7099E-03     42.9660E-03
              65             884     42.7099E-03     42.9660E-03
             114             884     42.7099E-03     42.9660E-03
             115             884     42.7099E-03     42.9660E-03
              66             885     41.8626E-03     44.3883E-03
             116             885     41.8626E-03     44.3883E-03
             115             885     41.8626E-03     44.3883E-03
              65             885     41.8626E-03     44.3883E-03
             117             886     44.5750E-03     43.7538E-03
              66             886     44.5750E-03     43.7538E-03
              67             886     44.5750E-03     43.7538E-03
             116             886     44.5750E-03     43.7538E-03
              67             887     43.5489E-03     41.3960E-03
             117             887     43.5489E-03     41.3960E-03
             118             887     43.5489E-03     41.3960E-03
              68             887     43.5489E-03     41.3960E-03
             118             888     40.0883E-03     43.0419E-03
              68             888     40.0883E-03     43.0419E-03
              69             888     40.0883E-03     43.0419E-03
             119             888     40.0883E-03     43.0419E-03
             119             889     43.8873E-03     43.2941E-03
             120             889     43.8873E-03     43.2941E-03
              69             889     43.8873E-03     43.2941E-03
              70             889     43.8873E-03     43.2941E-03
             120             890     46.2654E-03     43.9762E-03
              70             890     46.2654E-03     43.9762E-03
             121             890     46.2654E-03     43.9762E-03
              71             890     46.2654E-03     43.9762E-03
              72             891     46.4762E-03     46.5978E-03
              71             891     46.4762E-03     46.5978E-03
             121             891     46.4762E-03     46.5978E-03
             122             891     46.4762E-03     46.5978E-03
             123             892     47.5274E-03     47.5683E-03
              73             892     47.5274E-03     47.5683E-03
              72             892     47.5274E-03     47.5683E-03
             122             892     47.5274E-03     47.5683E-03
              74             893     48.4636E-03     48.8252E-03
             123             893     48.4636E-03     48.8252E-03
              73             893     48.4636E-03     48.8252E-03
             124             893     48.4636E-03     48.8252E-03
              75             894     48.7280E-03     49.2064E-03
             125             894     48.7280E-03     49.2064E-03
             124             894     48.7280E-03     49.2064E-03
              74             894     48.7280E-03     49.2064E-03
              75             895     47.5256E-03     50.7085E-03
             126             895     47.5256E-03     50.7085E-03
             125             895     47.5256E-03     50.7085E-03
              76             895     47.5256E-03     50.7085E-03
             127             896     50.6909E-03     49.6176E-03
              76             896     50.6909E-03     49.6176E-03
             126             896     50.6909E-03     49.6176E-03
              77             896     50.6909E-03     49.6176E-03
              78             897     49.0857E-03     46.6267E-03
             127             897     49.0857E-03     46.6267E-03
             128             897     49.0857E-03     46.6267E-03
              77             897     49.0857E-03     46.6267E-03
              79             898     26.3706E-03     26.1457E-03
              80             898     26.3706E-03     26.1457E-03
             130             898     26.3706E-03     26.1457E-03
             129             898     26.3706E-03     26.1457E-03
              81             899     26.6020E-03     26.4473E-03
              80             899     26.6020E-03     26.4473E-03
             130             899     26.6020E-03     26.4473E-03
             131             899     26.6020E-03     26.4473E-03
              82             900     26.7681E-03     26.6261E-03
             131             900     26.7681E-03     26.6261E-03
             132             900     26.7681E-03     26.6261E-03
              81             900     26.7681E-03     26.6261E-03
              83             901     27.0031E-03     27.3106E-03
             132             901     27.0031E-03     27.3106E-03
             133             901     27.0031E-03     27.3106E-03
              82             901     27.0031E-03     27.3106E-03
             134             902     28.1343E-03     27.7160E-03
              83             902     28.1343E-03     27.7160E-03
             133             902     28.1343E-03     27.7160E-03
              84             902     28.1343E-03     27.7160E-03
              84             903     28.2145E-03     27.7602E-03
             134             903     28.2145E-03     27.7602E-03
              85             903     28.2145E-03     27.7602E-03
             135             903     28.2145E-03     27.7602E-03
             135             904     27.5792E-03     27.9891E-03
             136             904     27.5792E-03     27.9891E-03
              85             904     27.5792E-03     27.9891E-03
              86             904     27.5792E-03     27.9891E-03
              86             905     28.3917E-03     28.1699E-03
             137             905     28.3917E-03     28.1699E-03
             136             905     28.3917E-03     28.1699E-03
              87             905     28.3917E-03     28.1699E-03
             138             906     29.2754E-03     29.1567E-03
              88             906     29.2754E-03     29.1567E-03
             137             906     29.2754E-03     29.1567E-03
              87             906     29.2754E-03     29.1567E-03
              89             907     30.1972E-03     30.4337E-03
             139             907     30.1972E-03     30.4337E-03
              88             907     30.1972E-03     30.4337E-03
             138             907     30.1972E-03     30.4337E-03
             139             908     31.4161E-03     31.5407E-03
             140             908     31.4161E-03     31.5407E-03
              90             908     31.4161E-03     31.5407E-03
              89             908     31.4161E-03     31.5407E-03
             141             909     32.5695E-03     32.8391E-03
              90             909     32.5695E-03     32.8391E-03
             140             909     32.5695E-03     32.8391E-03
              91             909     32.5695E-03     32.8391E-03
              91             910     34.0979E-03     33.9800E-03
             142             910     34.0979E-03     33.9800E-03
             141             910     34.0979E-03     33.9800E-03
              92             910     34.0979E-03     33.9800E-03
              93             911     35.4561E-03     34.9040E-03
             143             911     35.4561E-03     34.9040E-03
              92             911     35.4561E-03     34.9040E-03
             142             911     35.4561E-03     34.9040E-03
             144             912     36.0285E-03     37.1631E-03
              93             912     36.0285E-03     37.1631E-03
              94             912     36.0285E-03     37.1631E-03
             143             912     36.0285E-03     37.1631E-03
             144             913     39.3952E-03     37.4188E-03
             145             913     39.3952E-03     37.4188E-03
              94             913     39.3952E-03     37.4188E-03
              95             913     39.3952E-03     37.4188E-03
              96             914     38.8912E-03     37.3707E-03
              95             914     38.8912E-03     37.3707E-03
             145             914     38.8912E-03     37.3707E-03
             146             914     38.8912E-03     37.3707E-03
             146             915     35.2523E-03     38.1607E-03
             147             915     35.2523E-03     38.1607E-03
              97             915     35.2523E-03     38.1607E-03
              96             915     35.2523E-03     38.1607E-03
              98             916     37.8741E-03     37.1573E-03
             148             916     37.8741E-03     37.1573E-03
             147             916     37.8741E-03     37.1573E-03
              97             916     37.8741E-03     37.1573E-03
              98             917     40.1774E-03     39.1915E-03
              99             917     40.1774E-03     39.1915E-03
             149             917     40.1774E-03     39.1915E-03
             148             917     40.1774E-03     39.1915E-03
              99             918     40.9925E-03     41.9522E-03
             150             918     40.9925E-03     41.9522E-03
             100             918     40.9925E-03     41.9522E-03
             149             918     40.9925E-03     41.9522E-03
             101             919     43.2158E-03     43.1449E-03
             100             919     43.2158E-03     43.1449E-03
             151             919     43.2158E-03     43.1449E-03
             150             919     43.2158E-03     43.1449E-03
             151             920     44.8721E-03     45.0935E-03
             152             920     44.8721E-03     45.0935E-03
             102             920     44.8721E-03     45.0935E-03
             101             920     44.8721E-03     45.0935E-03
             153             921     46.9048E-03     46.6407E-03
             102             921     46.9048E-03     46.6407E-03
             103             921     46.9048E-03     46.6407E-03
             152             921     46.9048E-03     46.6407E-03
             153             922     48.6160E-03     47.7002E-03
             154             922     48.6160E-03     47.7002E-03
             103             922     48.6160E-03     47.7002E-03
             104             922     48.6160E-03     47.7002E-03
             105             923     48.8341E-03     50.9654E-03
             155             923     48.8341E-03     50.9654E-03
             104             923     48.8341E-03     50.9654E-03
             154             923     48.8341E-03     50.9654E-03
             155             924     53.6720E-03     50.4712E-03
             106             924     53.6720E-03     50.4712E-03
             105             924     53.6720E-03     50.4712E-03
             156             924     53.6720E-03     50.4712E-03
             106             925     52.1421E-03     49.7986E-03
             157             925     52.1421E-03     49.7986E-03
             107             925     52.1421E-03     49.7986E-03
             156             925     52.1421E-03     49.7986E-03
             107             926     45.7551E-03     51.4751E-03
             108             926     45.7551E-03     51.4751E-03
             157             926     45.7551E-03     51.4751E-03
             158             926     45.7551E-03     51.4751E-03
             159             927     50.9670E-03     49.5767E-03
             158             927     50.9670E-03     49.5767E-03
             108             927     50.9670E-03     49.5767E-03
             109             927     50.9670E-03     49.5767E-03
             110             928     54.6484E-03     52.5021E-03
             160             928     54.6484E-03     52.5021E-03
             109             928     54.6484E-03     52.5021E-03
             159             928     54.6484E-03     52.5021E-03
             111             929     54.7242E-03     56.5490E-03
             160             929     54.7242E-03     56.5490E-03
             161             929     54.7242E-03     56.5490E-03
             110             929     54.7242E-03     56.5490E-03
             162             930     57.7421E-03     57.4134E-03
             111             930     57.7421E-03     57.4134E-03
             161             930     57.7421E-03     57.4134E-03
             112             930     57.7421E-03     57.4134E-03
             163             931     59.6212E-03     59.7820E-03
             112             931     59.6212E-03     59.7820E-03
             162             931     59.6212E-03     59.7820E-03
             113             931     59.6212E-03     59.7820E-03
             114             932     61.8586E-03     61.4999E-03
             113             932     61.8586E-03     61.4999E-03
             163             932     61.8586E-03     61.4999E-03
             164             932     61.8586E-03     61.4999E-03
             114             933     63.6964E-03     62.4690E-03
             115             933     63.6964E-03     62.4690E-03
             165             933     63.6964E-03     62.4690E-03
             164             933     63.6964E-03     62.4690E-03
             116             934     63.3886E-03     66.4915E-03
             165             934     63.3886E-03     66.4915E-03
             115             934     63.3886E-03     66.4915E-03
             166             934     63.3886E-03     66.4915E-03
             167             935     69.4671E-03     65.0637E-03
             116             935     69.4671E-03     65.0637E-03
             166             935     69.4671E-03     65.0637E-03
             117             935     69.4671E-03     65.0637E-03
             167             936     66.7918E-03     63.6685E-03
             118             936     66.7918E-03     63.6685E-03
             117             936     66.7918E-03     63.6685E-03
             168             936     66.7918E-03     63.6685E-03
             118             937     57.7572E-03     66.2534E-03
             119             937     57.7572E-03     66.2534E-03
             169             937     57.7572E-03     66.2534E-03
             168             937     57.7572E-03     66.2534E-03
             170             938     65.6528E-03     63.6005E-03
             120             938     65.6528E-03     63.6005E-03
             119             938     65.6528E-03     63.6005E-03
             169             938     65.6528E-03     63.6005E-03
             121             939     70.7523E-03     67.4607E-03
             170             939     70.7523E-03     67.4607E-03
             171             939     70.7523E-03     67.4607E-03
             120             939     70.7523E-03     67.4607E-03
             171             940     69.9836E-03     72.6077E-03
             172             940     69.9836E-03     72.6077E-03
             122             940     69.9836E-03     72.6077E-03
             121             940     69.9836E-03     72.6077E-03
             123             941     73.3226E-03     73.4745E-03
             172             941     73.3226E-03     73.4745E-03
             173             941     73.3226E-03     73.4745E-03
             122             941     73.3226E-03     73.4745E-03
             124             942     76.1465E-03     75.7081E-03
             173             942     76.1465E-03     75.7081E-03
             174             942     76.1465E-03     75.7081E-03
             123             942     76.1465E-03     75.7081E-03
             174             943     77.5986E-03     76.8949E-03
             125             943     77.5986E-03     76.8949E-03
             175             943     77.5986E-03     76.8949E-03
             124             943     77.5986E-03     76.8949E-03
             125             944     76.9799E-03     81.1429E-03
             176             944     76.9799E-03     81.1429E-03
             126             944     76.9799E-03     81.1429E-03
             175             944     76.9799E-03     81.1429E-03
             176             945     83.9514E-03     78.7714E-03
             126             945     83.9514E-03     78.7714E-03
             127             945     83.9514E-03     78.7714E-03
             177             945     83.9514E-03     78.7714E-03
             127             946     80.1524E-03     76.5057E-03
             128             946     80.1524E-03     76.5057E-03
             177             946     80.1524E-03     76.5057E-03
             178             946     80.1524E-03     76.5057E-03
             129             947     22.5496E-03     22.4930E-03
             180             947     22.5496E-03     22.4930E-03
             130             947     22.5496E-03     22.4930E-03
             179             947     22.5496E-03     22.4930E-03
             131             948     22.8747E-03     22.9838E-03
             181             948     22.8747E-03     22.9838E-03
             130             948     22.8747E-03     22.9838E-03
             180             948     22.8747E-03     22.9838E-03
             132             949     23.4355E-03     23.5677E-03
             182             949     23.4355E-03     23.5677E-03
             131             949     23.4355E-03     23.5677E-03
             181             949     23.4355E-03     23.5677E-03
             182             950     24.1568E-03     24.8064E-03
             133             950     24.1568E-03     24.8064E-03
             183             950     24.1568E-03     24.8064E-03
             132             950     24.1568E-03     24.8064E-03
             133             951     26.5479E-03     25.3322E-03
             183             951     26.5479E-03     25.3322E-03
             184             951     26.5479E-03     25.3322E-03
             134             951     26.5479E-03     25.3322E-03
             184             952     26.9595E-03     26.3377E-03
             185             952     26.9595E-03     26.3377E-03
             135             952     26.9595E-03     26.3377E-03
             134             952     26.9595E-03     26.3377E-03
             136             953     25.5778E-03     27.0863E-03
             135             953     25.5778E-03     27.0863E-03
             186             953     25.5778E-03     27.0863E-03
             185             953     25.5778E-03     27.0863E-03
             136             954     26.9507E-03     27.0925E-03
             137             954     26.9507E-03     27.0925E-03
             187             954     26.9507E-03     27.0925E-03
             186             954     26.9507E-03     27.0925E-03
             138             955     28.5498E-03     29.1123E-03
             188             955     28.5498E-03     29.1123E-03
             187             955     28.5498E-03     29.1123E-03
             137             955     28.5498E-03     29.1123E-03
             189             956     30.1660E-03     31.1483E-03
             139             956     30.1660E-03     31.1483E-03
             138             956     30.1660E-03     31.1483E-03
             188             956     30.1660E-03     31.1483E-03
             140             957     32.3707E-03     32.6186E-03
             190             957     32.3707E-03     32.6186E-03
             139             957     32.3707E-03     32.6186E-03
             189             957     32.3707E-03     32.6186E-03
             140             958     34.3810E-03     34.6481E-03
             190             958     34.3810E-03     34.6481E-03
             141             958     34.3810E-03     34.6481E-03
             191             958     34.3810E-03     34.6481E-03
             142             959     36.9454E-03     36.5713E-03
             141             959     36.9454E-03     36.5713E-03
             192             959     36.9454E-03     36.5713E-03
             191             959     36.9454E-03     36.5713E-03
             143             960     39.3638E-03     38.3760E-03
             193             960     39.3638E-03     38.3760E-03
             192             960     39.3638E-03     38.3760E-03
             142             960     39.3638E-03     38.3760E-03
             144             961     40.8583E-03     42.4817E-03
             143             961     40.8583E-03     42.4817E-03
             194             961     40.8583E-03     42.4817E-03
             193             961     40.8583E-03     42.4817E-03
             145             962     47.1801E-03     43.2504E-03
             194             962     47.1801E-03     43.2504E-03
             195             962     47.1801E-03     43.2504E-03
             144             962     47.1801E-03     43.2504E-03
             146             963     46.7207E-03     45.0406E-03
             196             963     46.7207E-03     45.0406E-03
             145             963     46.7207E-03     45.0406E-03
             195             963     46.7207E-03     45.0406E-03
             196             964     40.5770E-03     47.2964E-03
             146             964     40.5770E-03     47.2964E-03
             147             964     40.5770E-03     47.2964E-03
             197             964     40.5770E-03     47.2964E-03
             197             965     45.5264E-03     44.9097E-03
             198             965     45.5264E-03     44.9097E-03
             148             965     45.5264E-03     44.9097E-03
             147             965     45.5264E-03     44.9097E-03
             199             966     49.0638E-03     48.0309E-03
             148             966     49.0638E-03     48.0309E-03
             198             966     49.0638E-03     48.0309E-03
             149             966     49.0638E-03     48.0309E-03
             199             967     49.2996E-03     51.5278E-03
             149             967     49.2996E-03     51.5278E-03
             150             967     49.2996E-03     51.5278E-03
             200             967     49.2996E-03     51.5278E-03
             150             968     52.4711E-03     52.2547E-03
             201             968     52.4711E-03     52.2547E-03
             151             968     52.4711E-03     52.2547E-03
             200             968     52.4711E-03     52.2547E-03
             201             969     54.7465E-03     54.8602E-03
             151             969     54.7465E-03     54.8602E-03
             202             969     54.7465E-03     54.8602E-03
             152             969     54.7465E-03     54.8602E-03
             202             970     57.7779E-03     57.1453E-03
             153             970     57.7779E-03     57.1453E-03
             152             970     57.7779E-03     57.1453E-03
             203             970     57.7779E-03     57.1453E-03
             203             971     60.7602E-03     59.0947E-03
             154             971     60.7602E-03     59.0947E-03
             153             971     60.7602E-03     59.0947E-03
             204             971     60.7602E-03     59.0947E-03
             155             972     62.0489E-03     64.8983E-03
             205             972     62.0489E-03     64.8983E-03
             204             972     62.0489E-03     64.8983E-03
             154             972     62.0489E-03     64.8983E-03
             156             973     70.9452E-03     64.9528E-03
             205             973     70.9452E-03     64.9528E-03
             206             973     70.9452E-03     64.9528E-03
             155             973     70.9452E-03     64.9528E-03
             207             974     69.1101E-03     66.5146E-03
             157             974     69.1101E-03     66.5146E-03
             156             974     69.1101E-03     66.5146E-03
             206             974     69.1101E-03     66.5146E-03
             208             975     58.8556E-03     70.5452E-03
             157             975     58.8556E-03     70.5452E-03
             158             975     58.8556E-03     70.5452E-03
             207             975     58.8556E-03     70.5452E-03
             209             976     67.8246E-03     66.3911E-03
             159             976     67.8246E-03     66.3911E-03
             158             976     67.8246E-03     66.3911E-03
             208             976     67.8246E-03     66.3911E-03
             209             977     72.9971E-03     70.1011E-03
             210             977     72.9971E-03     70.1011E-03
             160             977     72.9971E-03     70.1011E-03
             159             977     72.9971E-03     70.1011E-03
             160             978     71.2070E-03     74.7022E-03
             211             978     71.2070E-03     74.7022E-03
             161             978     71.2070E-03     74.7022E-03
             210             978     71.2070E-03     74.7022E-03
             211             979     75.0000E-03     74.2577E-03
             212             979     75.0000E-03     74.2577E-03
             161             979     75.0000E-03     74.2577E-03
             162             979     75.0000E-03     74.2577E-03
             163             980     77.2156E-03     77.1488E-03
             213             980     77.2156E-03     77.1488E-03
             212             980     77.2156E-03     77.1488E-03
             162             980     77.2156E-03     77.1488E-03
             163             981     80.3881E-03     79.5455E-03
             164             981     80.3881E-03     79.5455E-03
             213             981     80.3881E-03     79.5455E-03
             214             981     80.3881E-03     79.5455E-03
             164             982     83.6812E-03     81.4274E-03
             214             982     83.6812E-03     81.4274E-03
             165             982     83.6812E-03     81.4274E-03
             215             982     83.6812E-03     81.4274E-03
             166             983     84.5802E-03     88.6714E-03
             165             983     84.5802E-03     88.6714E-03
             215             983     84.5802E-03     88.6714E-03
             216             983     84.5802E-03     88.6714E-03
             216             984     95.7948E-03     87.8673E-03
             217             984     95.7948E-03     87.8673E-03
             166             984     95.7948E-03     87.8673E-03
             167             984     95.7948E-03     87.8673E-03
             167             985     92.5255E-03     89.0768E-03
             168             985     92.5255E-03     89.0768E-03
             217             985     92.5255E-03     89.0768E-03
             218             985     92.5255E-03     89.0768E-03
             168             986     78.1388E-03     94.5165E-03
             169             986     78.1388E-03     94.5165E-03
             219             986     78.1388E-03     94.5165E-03
             218             986     78.1388E-03     94.5165E-03
             220             987     90.9043E-03     88.6090E-03
             169             987     90.9043E-03     88.6090E-03
             170             987     90.9043E-03     88.6090E-03
             219             987     90.9043E-03     88.6090E-03
             171             988     97.8745E-03     92.9165E-03
             220             988     97.8745E-03     92.9165E-03
             221             988     97.8745E-03     92.9165E-03
             170             988     97.8745E-03     92.9165E-03
             172             989     94.2077E-03     98.4923E-03
             221             989     94.2077E-03     98.4923E-03
             171             989     94.2077E-03     98.4923E-03
             222             989     94.2077E-03     98.4923E-03
             222             990     98.2863E-03     97.6949E-03
             173             990     98.2863E-03     97.6949E-03
             223             990     98.2863E-03     97.6949E-03
             172             990     98.2863E-03     97.6949E-03
             174             991     101.926E-03     100.214E-03
             224             991     101.926E-03     100.214E-03
             223             991     101.926E-03     100.214E-03
             173             991     101.926E-03     100.214E-03
             175             992     104.343E-03     102.250E-03
             225             992     104.343E-03     102.250E-03
             174             992     104.343E-03     102.250E-03
             224             992     104.343E-03     102.250E-03
             175             993     104.973E-03     109.934E-03
             176             993     104.973E-03     109.934E-03
             226             993     104.973E-03     109.934E-03
             225             993     104.973E-03     109.934E-03
             176             994     117.898E-03     108.251E-03
             226             994     117.898E-03     108.251E-03
             227             994     117.898E-03     108.251E-03
             177             994     117.898E-03     108.251E-03
             177             995     113.144E-03     108.932E-03
             227             995     113.144E-03     108.932E-03
             178             995     113.144E-03     108.932E-03
             228             995     113.144E-03     108.932E-03
             180             996     17.1810E-03     17.7077E-03
             179             996     17.1810E-03     17.7077E-03
             229             996     17.1810E-03     17.7077E-03
             230             996     17.1810E-03     17.7077E-03
             181             997     17.9620E-03     18.4228E-03
             230             997     17.9620E-03     18.4228E-03
             180             997     17.9620E-03     18.4228E-03
             231             997     17.9620E-03     18.4228E-03
             182             998     19.2237E-03     19.2259E-03
             231             998     19.2237E-03     19.2259E-03
             232             998     19.2237E-03     19.2259E-03
             181             998     19.2237E-03     19.2259E-03
             182             999     20.4607E-03     21.4864E-03
             232             999     20.4607E-03     21.4864E-03
             233             999     20.4607E-03     21.4864E-03
             183             999     20.4607E-03     21.4864E-03
             184            1000     24.3604E-03     22.3029E-03
             233            1000     24.3604E-03     22.3029E-03
             234            1000     24.3604E-03     22.3029E-03
             183            1000     24.3604E-03     22.3029E-03
             185            1001     25.1541E-03     24.6934E-03
             234            1001     25.1541E-03     24.6934E-03
             184            1001     25.1541E-03     24.6934E-03
             235            1001     25.1541E-03     24.6934E-03
             236            1002     23.4452E-03     27.2272E-03
             186            1002     23.4452E-03     27.2272E-03
             235            1002     23.4452E-03     27.2272E-03
             185            1002     23.4452E-03     27.2272E-03
             237            1003     26.3528E-03     26.9382E-03
             187            1003     26.3528E-03     26.9382E-03
             186            1003     26.3528E-03     26.9382E-03
             236            1003     26.3528E-03     26.9382E-03
             187            1004     28.5266E-03     29.1390E-03
             237            1004     28.5266E-03     29.1390E-03
             238            1004     28.5266E-03     29.1390E-03
             188            1004     28.5266E-03     29.1390E-03
             239            1005     30.0707E-03     31.3476E-03
             188            1005     30.0707E-03     31.3476E-03
             189            1005     30.0707E-03     31.3476E-03
             238            1005     30.0707E-03     31.3476E-03
             189            1006     33.0209E-03     33.0729E-03
             190            1006     33.0209E-03     33.0729E-03
             239            1006     33.0209E-03     33.0729E-03
             240            1006     33.0209E-03     33.0729E-03
             240            1007     35.6002E-03     36.2759E-03
             190            1007     35.6002E-03     36.2759E-03
             241            1007     35.6002E-03     36.2759E-03
             191            1007     35.6002E-03     36.2759E-03
             192            1008     39.2625E-03     39.3332E-03
             242            1008     39.2625E-03     39.3332E-03
             191            1008     39.2625E-03     39.3332E-03
             241            1008     39.2625E-03     39.3332E-03
             242            1009     42.7516E-03     42.2728E-03
             192            1009     42.7516E-03     42.2728E-03
             193            1009     42.7516E-03     42.2728E-03
             243            1009     42.7516E-03     42.2728E-03
             194            1010     44.9677E-03     48.4549E-03
             244            1010     44.9677E-03     48.4549E-03
             193            1010     44.9677E-03     48.4549E-03
             243            1010     44.9677E-03     48.4549E-03
             195            1011     54.3455E-03     49.1901E-03
             244            1011     54.3455E-03     49.1901E-03
             194            1011     54.3455E-03     49.1901E-03
             245            1011     54.3455E-03     49.1901E-03
             195            1012     54.3734E-03     53.1860E-03
             196            1012     54.3734E-03     53.1860E-03
             246            1012     54.3734E-03     53.1860E-03
             245            1012     54.3734E-03     53.1860E-03
             246            1013     46.4982E-03     58.7057E-03
             197            1013     46.4982E-03     58.7057E-03
             247            1013     46.4982E-03     58.7057E-03
             196            1013     46.4982E-03     58.7057E-03
             198            1014     54.2190E-03     54.1378E-03
             197            1014     54.2190E-03     54.1378E-03
             248            1014     54.2190E-03     54.1378E-03
             247            1014     54.2190E-03     54.1378E-03
             249            1015     58.0485E-03     56.1903E-03
             198            1015     58.0485E-03     56.1903E-03
             199            1015     58.0485E-03     56.1903E-03
             248            1015     58.0485E-03     56.1903E-03
             199            1016     56.4036E-03     59.7202E-03
             250            1016     56.4036E-03     59.7202E-03
             249            1016     56.4036E-03     59.7202E-03
             200            1016     56.4036E-03     59.7202E-03
             200            1017     60.0786E-03     59.9754E-03
             251            1017     60.0786E-03     59.9754E-03
             201            1017     60.0786E-03     59.9754E-03
             250            1017     60.0786E-03     59.9754E-03
             252            1018     62.5698E-03     63.7740E-03
             202            1018     62.5698E-03     63.7740E-03
             251            1018     62.5698E-03     63.7740E-03
             201            1018     62.5698E-03     63.7740E-03
             253            1019     66.5397E-03     67.0825E-03
             202            1019     66.5397E-03     67.0825E-03
             203            1019     66.5397E-03     67.0825E-03
             252            1019     66.5397E-03     67.0825E-03
             204            1020     70.6513E-03     69.9490E-03
             203            1020     70.6513E-03     69.9490E-03
             254            1020     70.6513E-03     69.9490E-03
             253            1020     70.6513E-03     69.9490E-03
             254            1021     72.6480E-03     78.2258E-03
             255            1021     72.6480E-03     78.2258E-03
             205            1021     72.6480E-03     78.2258E-03
             204            1021     72.6480E-03     78.2258E-03
             205            1022     85.8921E-03     78.1133E-03
             255            1022     85.8921E-03     78.1133E-03
             256            1022     85.8921E-03     78.1133E-03
             206            1022     85.8921E-03     78.1133E-03
             257            1023     84.7270E-03     82.8813E-03
             256            1023     84.7270E-03     82.8813E-03
             207            1023     84.7270E-03     82.8813E-03
             206            1023     84.7270E-03     82.8813E-03
             208            1024     71.6721E-03     91.7918E-03
             257            1024     71.6721E-03     91.7918E-03
             207            1024     71.6721E-03     91.7918E-03
             258            1024     71.6721E-03     91.7918E-03
             208            1025     84.5603E-03     83.8920E-03
             209            1025     84.5603E-03     83.8920E-03
             258            1025     84.5603E-03     83.8920E-03
             259            1025     84.5603E-03     83.8920E-03
             210            1026     89.7376E-03     85.3802E-03
             259            1026     89.7376E-03     85.3802E-03
             209            1026     89.7376E-03     85.3802E-03
             260            1026     89.7376E-03     85.3802E-03
             261            1027     84.5278E-03     89.9262E-03
             260            1027     84.5278E-03     89.9262E-03
             210            1027     84.5278E-03     89.9262E-03
             211            1027     84.5278E-03     89.9262E-03
             262            1028     88.6621E-03     88.3687E-03
             261            1028     88.6621E-03     88.3687E-03
             212            1028     88.6621E-03     88.3687E-03
             211            1028     88.6621E-03     88.3687E-03
             263            1029     90.8293E-03     92.5034E-03
             212            1029     90.8293E-03     92.5034E-03
             213            1029     90.8293E-03     92.5034E-03
             262            1029     90.8293E-03     92.5034E-03
             263            1030     94.8764E-03     95.8755E-03
             214            1030     94.8764E-03     95.8755E-03
             213            1030     94.8764E-03     95.8755E-03
             264            1030     94.8764E-03     95.8755E-03
             215            1031     99.4450E-03     98.5364E-03
             214            1031     99.4450E-03     98.5364E-03
             265            1031     99.4450E-03     98.5364E-03
             264            1031     99.4450E-03     98.5364E-03
             215            1032     101.102E-03     108.767E-03
             266            1032     101.102E-03     108.767E-03
             265            1032     101.102E-03     108.767E-03
             216            1032     101.102E-03     108.767E-03
             216            1033     118.036E-03     107.755E-03
             267            1033     118.036E-03     107.755E-03
             266            1033     118.036E-03     107.755E-03
             217            1033     118.036E-03     107.755E-03
             217            1034     115.638E-03     113.208E-03
             218            1034     115.638E-03     113.208E-03
             267            1034     115.638E-03     113.208E-03
             268            1034     115.638E-03     113.208E-03
             218            1035     97.2202E-03     124.883E-03
             219            1035     97.2202E-03     124.883E-03
             269            1035     97.2202E-03     124.883E-03
             268            1035     97.2202E-03     124.883E-03
             219            1036     114.733E-03     113.458E-03
             220            1036     114.733E-03     113.458E-03
             270            1036     114.733E-03     113.458E-03
             269            1036     114.733E-03     113.458E-03
             220            1037     121.587E-03     114.517E-03
             221            1037     121.587E-03     114.517E-03
             271            1037     121.587E-03     114.517E-03
             270            1037     121.587E-03     114.517E-03
             272            1038     113.139E-03     119.837E-03
             271            1038     113.139E-03     119.837E-03
             222            1038     113.139E-03     119.837E-03
             221            1038     113.139E-03     119.837E-03
             222            1039     117.224E-03     117.730E-03
             223            1039     117.224E-03     117.730E-03
             273            1039     117.224E-03     117.730E-03
             272            1039     117.224E-03     117.730E-03
             223            1040     121.480E-03     121.359E-03
             273            1040     121.480E-03     121.359E-03
             274            1040     121.480E-03     121.359E-03
             224            1040     121.480E-03     121.359E-03
             274            1041     124.655E-03     124.142E-03
             225            1041     124.655E-03     124.142E-03
             224            1041     124.655E-03     124.142E-03
             275            1041     124.655E-03     124.142E-03
             276            1042     126.292E-03     135.122E-03
             226            1042     126.292E-03     135.122E-03
             225            1042     126.292E-03     135.122E-03
             275            1042     126.292E-03     135.122E-03
             227            1043     146.168E-03     133.452E-03
             277            1043     146.168E-03     133.452E-03
             226            1043     146.168E-03     133.452E-03
             276            1043     146.168E-03     133.452E-03
             227            1044     142.449E-03     139.436E-03
             228            1044     142.449E-03     139.436E-03
             278            1044     142.449E-03     139.436E-03
             277            1044     142.449E-03     139.436E-03
             230            1045     11.4953E-03     12.1602E-03
             229            1045     11.4953E-03     12.1602E-03
             280            1045     11.4953E-03     12.1602E-03
             279            1045     11.4953E-03     12.1602E-03
             281            1046     12.2097E-03     12.1714E-03
             230            1046     12.2097E-03     12.1714E-03
             280            1046     12.2097E-03     12.1714E-03
             231            1046     12.2097E-03     12.1714E-03
             282            1047     14.0836E-03     13.4043E-03
             232            1047     14.0836E-03     13.4043E-03
             231            1047     14.0836E-03     13.4043E-03
             281            1047     14.0836E-03     13.4043E-03
             282            1048     16.3884E-03     18.1085E-03
             232            1048     16.3884E-03     18.1085E-03
             233            1048     16.3884E-03     18.1085E-03
             283            1048     16.3884E-03     18.1085E-03
             283            1049     22.7859E-03     20.6216E-03
             284            1049     22.7859E-03     20.6216E-03
             233            1049     22.7859E-03     20.6216E-03
             234            1049     22.7859E-03     20.6216E-03
             284            1050     24.3309E-03     24.4993E-03
             234            1050     24.3309E-03     24.4993E-03
             235            1050     24.3309E-03     24.4993E-03
             285            1050     24.3309E-03     24.4993E-03
             285            1051     22.2149E-03     27.9256E-03
             286            1051     22.2149E-03     27.9256E-03
             235            1051     22.2149E-03     27.9256E-03
             236            1051     22.2149E-03     27.9256E-03
             286            1052     26.2254E-03     26.4036E-03
             236            1052     26.2254E-03     26.4036E-03
             287            1052     26.2254E-03     26.4036E-03
             237            1052     26.2254E-03     26.4036E-03
             288            1053     27.9307E-03     28.1367E-03
             287            1053     27.9307E-03     28.1367E-03
             238            1053     27.9307E-03     28.1367E-03
             237            1053     27.9307E-03     28.1367E-03
             239            1054     29.3284E-03     30.9306E-03
             238            1054     29.3284E-03     30.9306E-03
             288            1054     29.3284E-03     30.9306E-03
             289            1054     29.3284E-03     30.9306E-03
             290            1055     33.3189E-03     33.8243E-03
             239            1055     33.3189E-03     33.8243E-03
             240            1055     33.3189E-03     33.8243E-03
             289            1055     33.3189E-03     33.8243E-03
             291            1056     36.6873E-03     38.4115E-03
             290            1056     36.6873E-03     38.4115E-03
             241            1056     36.6873E-03     38.4115E-03
             240            1056     36.6873E-03     38.4115E-03
             242            1057     41.4438E-03     42.7519E-03
             291            1057     41.4438E-03     42.7519E-03
             292            1057     41.4438E-03     42.7519E-03
             241            1057     41.4438E-03     42.7519E-03
             242            1058     46.2539E-03     46.6251E-03
             292            1058     46.2539E-03     46.6251E-03
             243            1058     46.2539E-03     46.6251E-03
             293            1058     46.2539E-03     46.6251E-03
             243            1059     48.8529E-03     54.5868E-03
             244            1059     48.8529E-03     54.5868E-03
             293            1059     48.8529E-03     54.5868E-03
             294            1059     48.8529E-03     54.5868E-03
             294            1060     60.6762E-03     56.1212E-03
             295            1060     60.6762E-03     56.1212E-03
             244            1060     60.6762E-03     56.1212E-03
             245            1060     60.6762E-03     56.1212E-03
             245            1061     61.3165E-03     61.1099E-03
             295            1061     61.3165E-03     61.1099E-03
             246            1061     61.3165E-03     61.1099E-03
             296            1061     61.3165E-03     61.1099E-03
             247            1062     52.1043E-03     67.7962E-03
             296            1062     52.1043E-03     67.7962E-03
             246            1062     52.1043E-03     67.7962E-03
             297            1062     52.1043E-03     67.7962E-03
             248            1063     61.0755E-03     60.9649E-03
             297            1063     61.0755E-03     60.9649E-03
             247            1063     61.0755E-03     60.9649E-03
             298            1063     61.0755E-03     60.9649E-03
             298            1064     63.6877E-03     61.8186E-03
             248            1064     63.6877E-03     61.8186E-03
             249            1064     63.6877E-03     61.8186E-03
             299            1064     63.6877E-03     61.8186E-03
             249            1065     60.9073E-03     65.9111E-03
             299            1065     60.9073E-03     65.9111E-03
             250            1065     60.9073E-03     65.9111E-03
             300            1065     60.9073E-03     65.9111E-03
             301            1066     65.9421E-03     67.0186E-03
             300            1066     65.9421E-03     67.0186E-03
             250            1066     65.9421E-03     67.0186E-03
             251            1066     65.9421E-03     67.0186E-03
             301            1067     68.9311E-03     72.2248E-03
             302            1067     68.9311E-03     72.2248E-03
             251            1067     68.9311E-03     72.2248E-03
             252            1067     68.9311E-03     72.2248E-03
             253            1068     73.8205E-03     76.6730E-03
             302            1068     73.8205E-03     76.6730E-03
             252            1068     73.8205E-03     76.6730E-03
             303            1068     73.8205E-03     76.6730E-03
             253            1069     79.2495E-03     80.1597E-03
             254            1069     79.2495E-03     80.1597E-03
             304            1069     79.2495E-03     80.1597E-03
             303            1069     79.2495E-03     80.1597E-03
             305            1070     81.0907E-03     90.2338E-03
             255            1070     81.0907E-03     90.2338E-03
             304            1070     81.0907E-03     90.2338E-03
             254            1070     81.0907E-03     90.2338E-03
             256            1071     97.4731E-03     90.7912E-03
             255            1071     97.4731E-03     90.7912E-03
             306            1071     97.4731E-03     90.7912E-03
             305            1071     97.4731E-03     90.7912E-03
             257            1072     97.4588E-03     97.0230E-03
             256            1072     97.4588E-03     97.0230E-03
             307            1072     97.4588E-03     97.0230E-03
             306            1072     97.4588E-03     97.0230E-03
             258            1073     82.5277E-03     107.983E-03
             257            1073     82.5277E-03     107.983E-03
             308            1073     82.5277E-03     107.983E-03
             307            1073     82.5277E-03     107.983E-03
             259            1074     97.2253E-03     96.9067E-03
             309            1074     97.2253E-03     96.9067E-03
             308            1074     97.2253E-03     96.9067E-03
             258            1074     97.2253E-03     96.9067E-03
             260            1075     100.543E-03     96.5872E-03
             310            1075     100.543E-03     96.5872E-03
             259            1075     100.543E-03     96.5872E-03
             309            1075     100.543E-03     96.5872E-03
             310            1076     93.3177E-03     101.696E-03
             261            1076     93.3177E-03     101.696E-03
             311            1076     93.3177E-03     101.696E-03
             260            1076     93.3177E-03     101.696E-03
             312            1077     99.1944E-03     100.794E-03
             262            1077     99.1944E-03     100.794E-03
             311            1077     99.1944E-03     100.794E-03
             261            1077     99.1944E-03     100.794E-03
             263            1078     101.670E-03     106.477E-03
             312            1078     101.670E-03     106.477E-03
             313            1078     101.670E-03     106.477E-03
             262            1078     101.670E-03     106.477E-03
             314            1079     106.589E-03     110.949E-03
             264            1079     106.589E-03     110.949E-03
             313            1079     106.589E-03     110.949E-03
             263            1079     106.589E-03     110.949E-03
             314            1080     112.585E-03     114.011E-03
             315            1080     112.585E-03     114.011E-03
             265            1080     112.585E-03     114.011E-03
             264            1080     112.585E-03     114.011E-03
             316            1081     113.644E-03     126.160E-03
             265            1081     113.644E-03     126.160E-03
             315            1081     113.644E-03     126.160E-03
             266            1081     113.644E-03     126.160E-03
             316            1082     134.534E-03     125.767E-03
             317            1082     134.534E-03     125.767E-03
             267            1082     134.534E-03     125.767E-03
             266            1082     134.534E-03     125.767E-03
             267            1083     133.862E-03     133.230E-03
             318            1083     133.862E-03     133.230E-03
             268            1083     133.862E-03     133.230E-03
             317            1083     133.862E-03     133.230E-03
             269            1084     112.920E-03     147.914E-03
             318            1084     112.920E-03     147.914E-03
             268            1084     112.920E-03     147.914E-03
             319            1084     112.920E-03     147.914E-03
             319            1085     132.842E-03     132.296E-03
             269            1085     132.842E-03     132.296E-03
             320            1085     132.842E-03     132.296E-03
             270            1085     132.842E-03     132.296E-03
             270            1086     136.998E-03     131.075E-03
             271            1086     136.998E-03     131.075E-03
             321            1086     136.998E-03     131.075E-03
             320            1086     136.998E-03     131.075E-03
             271            1087     125.981E-03     136.836E-03
             272            1087     125.981E-03     136.836E-03
             322            1087     125.981E-03     136.836E-03
             321            1087     125.981E-03     136.836E-03
             272            1088     131.673E-03     135.169E-03
             273            1088     131.673E-03     135.169E-03
             323            1088     131.673E-03     135.169E-03
             322            1088     131.673E-03     135.169E-03
             274            1089     136.274E-03     140.838E-03
             273            1089     136.274E-03     140.838E-03
             323            1089     136.274E-03     140.838E-03
             324            1089     136.274E-03     140.838E-03
             275            1090     141.040E-03     143.754E-03
             324            1090     141.040E-03     143.754E-03
             274            1090     141.040E-03     143.754E-03
             325            1090     141.040E-03     143.754E-03
             275            1091     142.119E-03     156.982E-03
             276            1091     142.119E-03     156.982E-03
             325            1091     142.119E-03     156.982E-03
             326            1091     142.119E-03     156.982E-03
             277            1092     166.698E-03     156.121E-03
             276            1092     166.698E-03     156.121E-03
             326            1092     166.698E-03     156.121E-03
             327            1092     166.698E-03     156.121E-03
             277            1093     165.485E-03     164.704E-03
             278            1093     165.485E-03     164.704E-03
             328            1093     165.485E-03     164.704E-03
             327            1093     165.485E-03     164.704E-03
             280            1094     7.28197E-03     8.42001E-03
             330            1094     7.28197E-03     8.42001E-03
             279            1094     7.28197E-03     8.42001E-03
             329            1094     7.28197E-03     8.42001E-03
             281            1095     7.32056E-03     6.70540E-03
             331            1095     7.32056E-03     6.70540E-03
             280            1095     7.32056E-03     6.70540E-03
             330            1095     7.32056E-03     6.70540E-03
             281            1096     10.6623E-03     9.67507E-03
             332            1096     10.6623E-03     9.67507E-03
             282            1096     10.6623E-03     9.67507E-03
             331            1096     10.6623E-03     9.67507E-03
             333            1097     14.7617E-03     16.6170E-03
             283            1097     14.7617E-03     16.6170E-03
             282            1097     14.7617E-03     16.6170E-03
             332            1097     14.7617E-03     16.6170E-03
             283            1098     23.2173E-03     21.3656E-03
             333            1098     23.2173E-03     21.3656E-03
             284            1098     23.2173E-03     21.3656E-03
             334            1098     23.2173E-03     21.3656E-03
             285            1099     27.7035E-03     27.8619E-03
             334            1099     27.7035E-03     27.8619E-03
             335            1099     27.7035E-03     27.8619E-03
             284            1099     27.7035E-03     27.8619E-03
             285            1100     23.0836E-03     27.4598E-03
             335            1100     23.0836E-03     27.4598E-03
             286            1100     23.0836E-03     27.4598E-03
             336            1100     23.0836E-03     27.4598E-03
             287            1101     22.9887E-03     21.7512E-03
             286            1101     22.9887E-03     21.7512E-03
             336            1101     22.9887E-03     21.7512E-03
             337            1101     22.9887E-03     21.7512E-03
             287            1102     25.9138E-03     25.3986E-03
             288            1102     25.9138E-03     25.3986E-03
             338            1102     25.9138E-03     25.3986E-03
             337            1102     25.9138E-03     25.3986E-03
             338            1103     29.4431E-03     30.2292E-03
             288            1103     29.4431E-03     30.2292E-03
             289            1103     29.4431E-03     30.2292E-03
             339            1103     29.4431E-03     30.2292E-03
             289            1104     34.5943E-03     34.8935E-03
             340            1104     34.5943E-03     34.8935E-03
             290            1104     34.5943E-03     34.8935E-03
             339            1104     34.5943E-03     34.8935E-03
             291            1105     39.3053E-03     40.2212E-03
             340            1105     39.3053E-03     40.2212E-03
             290            1105     39.3053E-03     40.2212E-03
             341            1105     39.3053E-03     40.2212E-03
             341            1106     44.4936E-03     45.5394E-03
             342            1106     44.4936E-03     45.5394E-03
             291            1106     44.4936E-03     45.5394E-03
             292            1106     44.4936E-03     45.5394E-03
             293            1107     50.2884E-03     49.9459E-03
             342            1107     50.2884E-03     49.9459E-03
             292            1107     50.2884E-03     49.9459E-03
             343            1107     50.2884E-03     49.9459E-03
             344            1108     53.6577E-03     58.1310E-03
             294            1108     53.6577E-03     58.1310E-03
             293            1108     53.6577E-03     58.1310E-03
             343            1108     53.6577E-03     58.1310E-03
             294            1109     65.3635E-03     61.6583E-03
             344            1109     65.3635E-03     61.6583E-03
             295            1109     65.3635E-03     61.6583E-03
             345            1109     65.3635E-03     61.6583E-03
             346            1110     69.3699E-03     68.5549E-03
             295            1110     69.3699E-03     68.5549E-03
             345            1110     69.3699E-03     68.5549E-03
             296            1110     69.3699E-03     68.5549E-03
             297            1111     58.8713E-03     70.4828E-03
             346            1111     58.8713E-03     70.4828E-03
             347            1111     58.8713E-03     70.4828E-03
             296            1111     58.8713E-03     70.4828E-03
             298            1112     62.0946E-03     59.9151E-03
             297            1112     62.0946E-03     59.9151E-03
             347            1112     62.0946E-03     59.9151E-03
             348            1112     62.0946E-03     59.9151E-03
             298            1113     65.0945E-03     62.7650E-03
             348            1113     65.0945E-03     62.7650E-03
             349            1113     65.0945E-03     62.7650E-03
             299            1113     65.0945E-03     62.7650E-03
             350            1114     65.3201E-03     68.5679E-03
             300            1114     65.3201E-03     68.5679E-03
             349            1114     65.3201E-03     68.5679E-03
             299            1114     65.3201E-03     68.5679E-03
             350            1115     71.4590E-03     71.7989E-03
             351            1115     71.4590E-03     71.7989E-03
             300            1115     71.4590E-03     71.7989E-03
             301            1115     71.4590E-03     71.7989E-03
             302            1116     75.7850E-03     77.6193E-03
             351            1116     75.7850E-03     77.6193E-03
             301            1116     75.7850E-03     77.6193E-03
             352            1116     75.7850E-03     77.6193E-03
             353            1117     80.9966E-03     82.9608E-03
             302            1117     80.9966E-03     82.9608E-03
             352            1117     80.9966E-03     82.9608E-03
             303            1117     80.9966E-03     82.9608E-03
             304            1118     87.2437E-03     86.9254E-03
             303            1118     87.2437E-03     86.9254E-03
             354            1118     87.2437E-03     86.9254E-03
             353            1118     87.2437E-03     86.9254E-03
             305            1119     89.7181E-03     96.6237E-03
             304            1119     89.7181E-03     96.6237E-03
             354            1119     89.7181E-03     96.6237E-03
             355            1119     89.7181E-03     96.6237E-03
             355            1120     104.898E-03     99.3514E-03
             305            1120     104.898E-03     99.3514E-03
             356            1120     104.898E-03     99.3514E-03
             306            1120     104.898E-03     99.3514E-03
             306            1121     109.075E-03     107.361E-03
             356            1121     109.075E-03     107.361E-03
             307            1121     109.075E-03     107.361E-03
             357            1121     109.075E-03     107.361E-03
             307            1122     94.2607E-03     113.067E-03
             357            1122     94.2607E-03     113.067E-03
             358            1122     94.2607E-03     113.067E-03
             308            1122     94.2607E-03     113.067E-03
             359            1123     101.789E-03     98.7038E-03
             309            1123     101.789E-03     98.7038E-03
             308            1123     101.789E-03     98.7038E-03
             358            1123     101.789E-03     98.7038E-03
             360            1124     104.635E-03     100.467E-03
             359            1124     104.635E-03     100.467E-03
             310            1124     104.635E-03     100.467E-03
             309            1124     104.635E-03     100.467E-03
             360            1125     101.415E-03     107.084E-03
             311            1125     101.415E-03     107.084E-03
             310            1125     101.415E-03     107.084E-03
             361            1125     101.415E-03     107.084E-03
             361            1126     108.461E-03     108.823E-03
             312            1126     108.461E-03     108.823E-03
             362            1126     108.461E-03     108.823E-03
             311            1126     108.461E-03     108.823E-03
             362            1127     112.358E-03     115.099E-03
             312            1127     112.358E-03     115.099E-03
             313            1127     112.358E-03     115.099E-03
             363            1127     112.358E-03     115.099E-03
             363            1128     117.575E-03     120.445E-03
             364            1128     117.575E-03     120.445E-03
             313            1128     117.575E-03     120.445E-03
             314            1128     117.575E-03     120.445E-03
             364            1129     124.264E-03     123.965E-03
             365            1129     124.264E-03     123.965E-03
             314            1129     124.264E-03     123.965E-03
             315            1129     124.264E-03     123.965E-03
             316            1130     125.849E-03     135.169E-03
             315            1130     125.849E-03     135.169E-03
             366            1130     125.849E-03     135.169E-03
             365            1130     125.849E-03     135.169E-03
             316            1131     144.503E-03     137.115E-03
             317            1131     144.503E-03     137.115E-03
             367            1131     144.503E-03     137.115E-03
             366            1131     144.503E-03     137.115E-03
             317            1132     148.874E-03     146.257E-03
             318            1132     148.874E-03     146.257E-03
             367            1132     148.874E-03     146.257E-03
             368            1132     148.874E-03     146.257E-03
             318            1133     129.466E-03     155.414E-03
             369            1133     129.466E-03     155.414E-03
             319            1133     129.466E-03     155.414E-03
             368            1133     129.466E-03     155.414E-03
             320            1134     140.987E-03     137.123E-03
             319            1134     140.987E-03     137.123E-03
             369            1134     140.987E-03     137.123E-03
             370            1134     140.987E-03     137.123E-03
             320            1135     143.844E-03     137.950E-03
             321            1135     143.844E-03     137.950E-03
             370            1135     143.844E-03     137.950E-03
             371            1135     143.844E-03     137.950E-03
             322            1136     137.538E-03     145.334E-03
             371            1136     137.538E-03     145.334E-03
             372            1136     137.538E-03     145.334E-03
             321            1136     137.538E-03     145.334E-03
             322            1137     145.122E-03     146.137E-03
             373            1137     145.122E-03     146.137E-03
             323            1137     145.122E-03     146.137E-03
             372            1137     145.122E-03     146.137E-03
             323            1138     149.614E-03     153.226E-03
             373            1138     149.614E-03     153.226E-03
             374            1138     149.614E-03     153.226E-03
             324            1138     149.614E-03     153.226E-03
             325            1139     156.168E-03     156.330E-03
             324            1139     156.168E-03     156.330E-03
             375            1139     156.168E-03     156.330E-03
             374            1139     156.168E-03     156.330E-03
             375            1140     157.398E-03     168.646E-03
             326            1140     157.398E-03     168.646E-03
             376            1140     157.398E-03     168.646E-03
             325            1140     157.398E-03     168.646E-03
             326            1141     179.115E-03     170.133E-03
             377            1141     179.115E-03     170.133E-03
             376            1141     179.115E-03     170.133E-03
             327            1141     179.115E-03     170.133E-03
             378            1142     183.766E-03     180.433E-03
             327            1142     183.766E-03     180.433E-03
             377            1142     183.766E-03     180.433E-03
             328            1142     183.766E-03     180.433E-03
             379            1143     45.6635E-03     49.2602E-03
             385            1143     45.6635E-03     49.2602E-03
             380            1143     45.6635E-03     49.2602E-03
             386            1143     45.6635E-03     49.2602E-03
             380            1144     49.7590E-03     50.5912E-03
             387            1144     49.7590E-03     50.5912E-03
             381            1144     49.7590E-03     50.5912E-03
             386            1144     49.7590E-03     50.5912E-03
             388            1145     50.4888E-03     51.2010E-03
             381            1145     50.4888E-03     51.2010E-03
             382            1145     50.4888E-03     51.2010E-03
             387            1145     50.4888E-03     51.2010E-03
             383            1146     53.6942E-03     51.7974E-03
             388            1146     53.6942E-03     51.7974E-03
             382            1146     53.6942E-03     51.7974E-03
             389            1146     53.6942E-03     51.7974E-03
             390            1147     51.6593E-03     49.0949E-03
             383            1147     51.6593E-03     49.0949E-03
             384            1147     51.6593E-03     49.0949E-03
             389            1147     51.6593E-03     49.0949E-03
             386            1148     72.5319E-03     78.8069E-03
             385            1148     72.5319E-03     78.8069E-03
             391            1148     72.5319E-03     78.8069E-03
             392            1148     72.5319E-03     78.8069E-03
             387            1149     82.0210E-03     80.2114E-03
             393            1149     82.0210E-03     80.2114E-03
             386            1149     82.0210E-03     80.2114E-03
             392            1149     82.0210E-03     80.2114E-03
             394            1150     85.5906E-03     85.7016E-03
             388            1150     85.5906E-03     85.7016E-03
             393            1150     85.5906E-03     85.7016E-03
             387            1150     85.5906E-03     85.7016E-03
             389            1151     88.8164E-03     86.4244E-03
             395            1151     88.8164E-03     86.4244E-03
             394            1151     88.8164E-03     86.4244E-03
             388            1151     88.8164E-03     86.4244E-03
             390            1152     84.9677E-03     82.5117E-03
             389            1152     84.9677E-03     82.5117E-03
             395            1152     84.9677E-03     82.5117E-03
             396            1152     84.9677E-03     82.5117E-03
             397            1153     99.2130E-03     108.614E-03
             391            1153     99.2130E-03     108.614E-03
             392            1153     99.2130E-03     108.614E-03
             398            1153     99.2130E-03     108.614E-03
             393            1154     113.062E-03     109.154E-03
             399            1154     113.062E-03     109.154E-03
             392            1154     113.062E-03     109.154E-03
             398            1154     113.062E-03     109.154E-03
             394            1155     120.916E-03     119.260E-03
             393            1155     120.916E-03     119.260E-03
             400            1155     120.916E-03     119.260E-03
             399            1155     120.916E-03     119.260E-03
             401            1156     125.221E-03     120.344E-03
             400            1156     125.221E-03     120.344E-03
             395            1156     125.221E-03     120.344E-03
             394            1156     125.221E-03     120.344E-03
             401            1157     119.004E-03     114.990E-03
             402            1157     119.004E-03     114.990E-03
             396            1157     119.004E-03     114.990E-03
             395            1157     119.004E-03     114.990E-03
             398            1158     122.442E-03     137.320E-03
             404            1158     122.442E-03     137.320E-03
             403            1158     122.442E-03     137.320E-03
             397            1158     122.442E-03     137.320E-03
             404            1159     140.094E-03     135.783E-03
             398            1159     140.094E-03     135.783E-03
             405            1159     140.094E-03     135.783E-03
             399            1159     140.094E-03     135.783E-03
             399            1160     149.980E-03     144.900E-03
             405            1160     149.980E-03     144.900E-03
             400            1160     149.980E-03     144.900E-03
             406            1160     149.980E-03     144.900E-03
             406            1161     155.417E-03     145.482E-03
             407            1161     155.417E-03     145.482E-03
             400            1161     155.417E-03     145.482E-03
             401            1161     155.417E-03     145.482E-03
             407            1162     148.243E-03     143.210E-03
             402            1162     148.243E-03     143.210E-03
             401            1162     148.243E-03     143.210E-03
             408            1162     148.243E-03     143.210E-03
             403            1163     140.815E-03     160.633E-03
             404            1163     140.815E-03     160.633E-03
             409            1163     140.815E-03     160.633E-03
             410            1163     140.815E-03     160.633E-03
             411            1164     161.439E-03     157.534E-03
             404            1164     161.439E-03     157.534E-03
             410            1164     161.439E-03     157.534E-03
             405            1164     161.439E-03     157.534E-03
             412            1165     167.757E-03     165.248E-03
             411            1165     167.757E-03     165.248E-03
             406            1165     167.757E-03     165.248E-03
             405            1165     167.757E-03     165.248E-03
             412            1166     174.491E-03     166.444E-03
             407            1166     174.491E-03     166.444E-03
             413            1166     174.491E-03     166.444E-03
             406            1166     174.491E-03     166.444E-03
             408            1167     171.028E-03     167.551E-03
             414            1167     171.028E-03     167.551E-03
             407            1167     171.028E-03     167.551E-03
             413            1167     171.028E-03     167.551E-03
             410            1168     154.770E-03     170.730E-03
             415            1168     154.770E-03     170.730E-03
             416            1168     154.770E-03     170.730E-03
             409            1168     154.770E-03     170.730E-03
             410            1169     173.557E-03     166.960E-03
             416            1169     173.557E-03     166.960E-03
             411            1169     173.557E-03     166.960E-03
             417            1169     173.557E-03     166.960E-03
             411            1170     176.505E-03     175.093E-03
             412            1170     176.505E-03     175.093E-03
             417            1170     176.505E-03     175.093E-03
             418            1170     176.505E-03     175.093E-03
             412            1171     185.765E-03     179.636E-03
             419            1171     185.765E-03     179.636E-03
             413            1171     185.765E-03     179.636E-03
             418            1171     185.765E-03     179.636E-03
             420            1172     190.831E-03     185.842E-03
             419            1172     190.831E-03     185.842E-03
             413            1172     190.831E-03     185.842E-03
             414            1172     190.831E-03     185.842E-03
             421            1173     56.6721E-03     53.7810E-03
             428            1173     56.6721E-03     53.7810E-03
             427            1173     56.6721E-03     53.7810E-03
             422            1173     56.6721E-03     53.7810E-03
             423            1174     58.2636E-03     56.0441E-03
             428            1174     58.2636E-03     56.0441E-03
             422            1174     58.2636E-03     56.0441E-03
             429            1174     58.2636E-03     56.0441E-03
             423            1175     53.6477E-03     57.5826E-03
             424            1175     53.6477E-03     57.5826E-03
             429            1175     53.6477E-03     57.5826E-03
             430            1175     53.6477E-03     57.5826E-03
             424            1176     55.8419E-03     53.8404E-03
             425            1176     55.8419E-03     53.8404E-03
             431            1176     55.8419E-03     53.8404E-03
             430            1176     55.8419E-03     53.8404E-03
             432            1177     53.8733E-03     54.6342E-03
             426            1177     53.8733E-03     54.6342E-03
             431            1177     53.8733E-03     54.6342E-03
             425            1177     53.8733E-03     54.6342E-03
             433            1178     87.9084E-03     85.1640E-03
             427            1178     87.9084E-03     85.1640E-03
             434            1178     87.9084E-03     85.1640E-03
             428            1178     87.9084E-03     85.1640E-03
             428            1179     92.0928E-03     86.7832E-03
             434            1179     92.0928E-03     86.7832E-03
             429            1179     92.0928E-03     86.7832E-03
             435            1179     92.0928E-03     86.7832E-03
             429            1180     82.6647E-03     91.5282E-03
             435            1180     82.6647E-03     91.5282E-03
             430            1180     82.6647E-03     91.5282E-03
             436            1180     82.6647E-03     91.5282E-03
             430            1181     87.2460E-03     82.6495E-03
             437            1181     87.2460E-03     82.6495E-03
             436            1181     87.2460E-03     82.6495E-03
             431            1181     87.2460E-03     82.6495E-03
             437            1182     81.9322E-03     79.3849E-03
             431            1182     81.9322E-03     79.3849E-03
             432            1182     81.9322E-03     79.3849E-03
             438            1182     81.9322E-03     79.3849E-03
             439            1183     121.315E-03     116.763E-03
             433            1183     121.315E-03     116.763E-03
             434            1183     121.315E-03     116.763E-03
             440            1183     121.315E-03     116.763E-03
             440            1184     128.091E-03     117.097E-03
             434            1184     128.091E-03     117.097E-03
             441            1184     128.091E-03     117.097E-03
             435            1184     128.091E-03     117.097E-03
             441            1185     113.224E-03     124.668E-03
             436            1185     113.224E-03     124.668E-03
             435            1185     113.224E-03     124.668E-03
             442            1185     113.224E-03     124.668E-03
             437            1186     119.672E-03     111.885E-03
             443            1186     119.672E-03     111.885E-03
             436            1186     119.672E-03     111.885E-03
             442            1186     119.672E-03     111.885E-03
             444            1187     110.729E-03     106.416E-03
             437            1187     110.729E-03     106.416E-03
             443            1187     110.729E-03     106.416E-03
             438            1187     110.729E-03     106.416E-03
             446            1188     150.714E-03     145.577E-03
             439            1188     150.714E-03     145.577E-03
             440            1188     150.714E-03     145.577E-03
             445            1188     150.714E-03     145.577E-03
             447            1189     157.776E-03     140.069E-03
             440            1189     157.776E-03     140.069E-03
             446            1189     157.776E-03     140.069E-03
             441            1189     157.776E-03     140.069E-03
             447            1190     136.250E-03     150.823E-03
             448            1190     136.250E-03     150.823E-03
             442            1190     136.250E-03     150.823E-03
             441            1190     136.250E-03     150.823E-03
             442            1191     147.034E-03     135.114E-03
             448            1191     147.034E-03     135.114E-03
             449            1191     147.034E-03     135.114E-03
             443            1191     147.034E-03     135.114E-03
             443            1192     136.902E-03     132.547E-03
             449            1192     136.902E-03     132.547E-03
             444            1192     136.902E-03     132.547E-03
             450            1192     136.902E-03     132.547E-03
             445            1193     173.921E-03     171.961E-03
             452            1193     173.921E-03     171.961E-03
             451            1193     173.921E-03     171.961E-03
             446            1193     173.921E-03     171.961E-03
             446            1194     178.558E-03     161.368E-03
             453            1194     178.558E-03     161.368E-03
             447            1194     178.558E-03     161.368E-03
             452            1194     178.558E-03     161.368E-03
             453            1195     149.659E-03     171.542E-03
             448            1195     149.659E-03     171.542E-03
             454            1195     149.659E-03     171.542E-03
             447            1195     149.659E-03     171.542E-03
             448            1196     165.327E-03     153.473E-03
             454            1196     165.327E-03     153.473E-03
             455            1196     165.327E-03     153.473E-03
             449            1196     165.327E-03     153.473E-03
             456            1197     157.310E-03     154.499E-03
             450            1197     157.310E-03     154.499E-03
             449            1197     157.310E-03     154.499E-03
             455            1197     157.310E-03     154.499E-03
             451            1198     194.552E-03     191.580E-03
             452            1198     194.552E-03     191.580E-03
             458            1198     194.552E-03     191.580E-03
             457            1198     194.552E-03     191.580E-03
             453            1199     191.548E-03     177.182E-03
             459            1199     191.548E-03     177.182E-03
             458            1199     191.548E-03     177.182E-03
             452            1199     191.548E-03     177.182E-03
             460            1200     163.337E-03     181.365E-03
             459            1200     163.337E-03     181.365E-03
             453            1200     163.337E-03     181.365E-03
             454            1200     163.337E-03     181.365E-03
             454            1201     174.031E-03     162.867E-03
             460            1201     174.031E-03     162.867E-03
             461            1201     174.031E-03     162.867E-03
             455            1201     174.031E-03     162.867E-03
             455            1202     166.897E-03     162.462E-03
             462            1202     166.897E-03     162.462E-03
             456            1202     166.897E-03     162.462E-03
             461            1202     166.897E-03     162.462E-03
             469            1203     3.66038E-15     3.86165E-15
             464            1203     3.66038E-15     3.86165E-15
             470            1203     3.66038E-15     3.86165E-15
             463            1203     3.66038E-15     3.86165E-15
             470            1204     5.08178E-15     5.89371E-15
             464            1204     5.08178E-15     5.89371E-15
             465            1204     5.08178E-15     5.89371E-15
             471            1204     5.08178E-15     5.89371E-15
             465            1205     4.60141E-15     5.37908E-15
             471            1205     4.60141E-15     5.37908E-15
             466            1205     4.60141E-15     5.37908E-15
             472            1205     4.60141E-15     5.37908E-15
             467            1206     3.27095E-15     3.17768E-15
             472            1206     3.27095E-15     3.17768E-15
             473            1206     3.27095E-15     3.17768E-15
             466            1206     3.27095E-15     3.17768E-15
             467            1207     2.67304E-15     2.55308E-15
             468            1207     2.67304E-15     2.55308E-15
             474            1207     2.67304E-15     2.55308E-15
             473            1207     2.67304E-15     2.55308E-15
             476            1208     2.23991E-15     2.23567E-15
             469            1208     2.23991E-15     2.23567E-15
             475            1208     2.23991E-15     2.23567E-15
             470            1208     2.23991E-15     2.23567E-15
             471            1209     3.22607E-15     3.38487E-15
             470            1209     3.22607E-15     3.38487E-15
             477            1209     3.22607E-15     3.38487E-15
             476            1209     3.22607E-15     3.38487E-15
             477            1210     2.64092E-15     3.20425E-15
             472            1210     2.64092E-15     3.20425E-15
             478            1210     2.64092E-15     3.20425E-15
             471            1210     2.64092E-15     3.20425E-15
             473            1211     2.24884E-15     2.33879E-15
             478            1211     2.24884E-15     2.33879E-15
             472            1211     2.24884E-15     2.33879E-15
             479            1211     2.24884E-15     2.33879E-15
             473            1212     2.39077E-15     2.51382E-15
             480            1212     2.39077E-15     2.51382E-15
             479            1212     2.39077E-15     2.51382E-15
             474            1212     2.39077E-15     2.51382E-15
             475            1213     1.72312E-15     1.65205E-15
             481            1213     1.72312E-15     1.65205E-15
             476            1213     1.72312E-15     1.65205E-15
             482            1213     1.72312E-15     1.65205E-15
             482            1214     2.11567E-15     1.62701E-15
             477            1214     2.11567E-15     1.62701E-15
             476            1214     2.11567E-15     1.62701E-15
             483            1214     2.11567E-15     1.62701E-15
             483            1215     2.65442E-15     2.05964E-15
             484            1215     2.65442E-15     2.05964E-15
             478            1215     2.65442E-15     2.05964E-15
             477            1215     2.65442E-15     2.05964E-15
             484            1216     2.74020E-15     2.57321E-15
             485            1216     2.74020E-15     2.57321E-15
             478            1216     2.74020E-15     2.57321E-15
             479            1216     2.74020E-15     2.57321E-15
             486            1217     2.13820E-15     2.55294E-15
             479            1217     2.13820E-15     2.55294E-15
             485            1217     2.13820E-15     2.55294E-15
             480            1217     2.13820E-15     2.55294E-15
             482            1218     2.06415E-15     2.14872E-15
             488            1218     2.06415E-15     2.14872E-15
             481            1218     2.06415E-15     2.14872E-15
             487            1218     2.06415E-15     2.14872E-15
             488            1219     2.42261E-15     1.95136E-15
             489            1219     2.42261E-15     1.95136E-15
             483            1219     2.42261E-15     1.95136E-15
             482            1219     2.42261E-15     1.95136E-15
             490            1220     3.15981E-15     2.55789E-15
             483            1220     3.15981E-15     2.55789E-15
             484            1220     3.15981E-15     2.55789E-15
             489            1220     3.15981E-15     2.55789E-15
             485            1221     2.87963E-15     2.60873E-15
             484            1221     2.87963E-15     2.60873E-15
             491            1221     2.87963E-15     2.60873E-15
             490            1221     2.87963E-15     2.60873E-15
             486            1222     1.90027E-15     2.03983E-15
             492            1222     1.90027E-15     2.03983E-15
             491            1222     1.90027E-15     2.03983E-15
             485            1222     1.90027E-15     2.03983E-15
             493            1223     2.75462E-15     2.80463E-15
             494            1223     2.75462E-15     2.80463E-15
             487            1223     2.75462E-15     2.80463E-15
             488            1223     2.75462E-15     2.80463E-15
             495            1224     2.55002E-15     2.26971E-15
             494            1224     2.55002E-15     2.26971E-15
             488            1224     2.55002E-15     2.26971E-15
             489            1224     2.55002E-15     2.26971E-15
             490            1225     2.15492E-15     2.02465E-15
             495            1225     2.15492E-15     2.02465E-15
             489            1225     2.15492E-15     2.02465E-15
             496            1225     2.15492E-15     2.02465E-15
             496            1226     1.89123E-15     1.80087E-15
             497            1226     1.89123E-15     1.80087E-15
             491            1226     1.89123E-15     1.80087E-15
             490            1226     1.89123E-15     1.80087E-15
             492            1227     1.15736E-15     1.06883E-15
             491            1227     1.15736E-15     1.06883E-15
             498            1227     1.15736E-15     1.06883E-15
             497            1227     1.15736E-15     1.06883E-15
             500            1228     2.08427E-15     1.85918E-15
             493            1228     2.08427E-15     1.85918E-15
             499            1228     2.08427E-15     1.85918E-15
             494            1228     2.08427E-15     1.85918E-15
             495            1229     1.86869E-15     1.37863E-15
             500            1229     1.86869E-15     1.37863E-15
             501            1229     1.86869E-15     1.37863E-15
             494            1229     1.86869E-15     1.37863E-15
             495            1230     1.29201E-15     1.03847E-15
             501            1230     1.29201E-15     1.03847E-15
             502            1230     1.29201E-15     1.03847E-15
             496            1230     1.29201E-15     1.03847E-15
             502            1231     1.22231E-15     1.20803E-15
             496            1231     1.22231E-15     1.20803E-15
             503            1231     1.22231E-15     1.20803E-15
             497            1231     1.22231E-15     1.20803E-15
             498            1232     740.202E-18     777.511E-18
             503            1232     740.202E-18     777.511E-18
             497            1232     740.202E-18     777.511E-18
             504            1232     740.202E-18     777.511E-18
             546            1233     45.0520E-03     46.4720E-03
             505            1233     45.0520E-03     46.4720E-03
             545            1233     45.0520E-03     46.4720E-03
             506            1233     45.0520E-03     46.4720E-03
             507            1234     52.7338E-03     50.1428E-03
             546            1234     52.7338E-03     50.1428E-03
             547            1234     52.7338E-03     50.1428E-03
             506            1234     52.7338E-03     50.1428E-03
             508            1235     54.0101E-03     52.9358E-03
             507            1235     54.0101E-03     52.9358E-03
             547            1235     54.0101E-03     52.9358E-03
             548            1235     54.0101E-03     52.9358E-03
             509            1236     50.7259E-03     53.7362E-03
             549            1236     50.7259E-03     53.7362E-03
             508            1236     50.7259E-03     53.7362E-03
             548            1236     50.7259E-03     53.7362E-03
             509            1237     51.6624E-03     52.0451E-03
             510            1237     51.6624E-03     52.0451E-03
             549            1237     51.6624E-03     52.0451E-03
             550            1237     51.6624E-03     52.0451E-03
             550            1238     51.2675E-03     51.7131E-03
             551            1238     51.2675E-03     51.7131E-03
             511            1238     51.2675E-03     51.7131E-03
             510            1238     51.2675E-03     51.7131E-03
             511            1239     50.4413E-03     50.5118E-03
             551            1239     50.4413E-03     50.5118E-03
             552            1239     50.4413E-03     50.5118E-03
             512            1239     50.4413E-03     50.5118E-03
             552            1240     49.6699E-03     49.0106E-03
             513            1240     49.6699E-03     49.0106E-03
             512            1240     49.6699E-03     49.0106E-03
             553            1240     49.6699E-03     49.0106E-03
             514            1241     48.5633E-03     48.0543E-03
             513            1241     48.5633E-03     48.0543E-03
             554            1241     48.5633E-03     48.0543E-03
             553            1241     48.5633E-03     48.0543E-03
             554            1242     47.9140E-03     45.7589E-03
             555            1242     47.9140E-03     45.7589E-03
             515            1242     47.9140E-03     45.7589E-03
             514            1242     47.9140E-03     45.7589E-03
             515            1243     45.9647E-03     45.3796E-03
             555            1243     45.9647E-03     45.3796E-03
             556            1243     45.9647E-03     45.3796E-03
             516            1243     45.9647E-03     45.3796E-03
             556            1244     43.2372E-03     45.2384E-03
             557            1244     43.2372E-03     45.2384E-03
             517            1244     43.2372E-03     45.2384E-03
             516            1244     43.2372E-03     45.2384E-03
             557            1245     46.1512E-03     44.0920E-03
             558            1245     46.1512E-03     44.0920E-03
             518            1245     46.1512E-03     44.0920E-03
             517            1245     46.1512E-03     44.0920E-03
             519            1246     46.7611E-03     46.0016E-03
             558            1246     46.7611E-03     46.0016E-03
             518            1246     46.7611E-03     46.0016E-03
             559            1246     46.7611E-03     46.0016E-03
             560            1247     44.1528E-03     46.2254E-03
             520            1247     44.1528E-03     46.2254E-03
             519            1247     44.1528E-03     46.2254E-03
             559            1247     44.1528E-03     46.2254E-03
             560            1248     44.6063E-03     44.8216E-03
             561            1248     44.6063E-03     44.8216E-03
             521            1248     44.6063E-03     44.8216E-03
             520            1248     44.6063E-03     44.8216E-03
             562            1249     44.1372E-03     44.3834E-03
             561            1249     44.1372E-03     44.3834E-03
             521            1249     44.1372E-03     44.3834E-03
             522            1249     44.1372E-03     44.3834E-03
             562            1250     43.3907E-03     43.5337E-03
             523            1250     43.3907E-03     43.5337E-03
             563            1250     43.3907E-03     43.5337E-03
             522            1250     43.3907E-03     43.5337E-03
             524            1251     42.8538E-03     42.4167E-03
             563            1251     42.8538E-03     42.4167E-03
             564            1251     42.8538E-03     42.4167E-03
             523            1251     42.8538E-03     42.4167E-03
             524            1252     42.1400E-03     41.4636E-03
             564            1252     42.1400E-03     41.4636E-03
             565            1252     42.1400E-03     41.4636E-03
             525            1252     42.1400E-03     41.4636E-03
             525            1253     41.4141E-03     40.6327E-03
             566            1253     41.4141E-03     40.6327E-03
             526            1253     41.4141E-03     40.6327E-03
             565            1253     41.4141E-03     40.6327E-03
             526            1254     40.7722E-03     39.4024E-03
             527            1254     40.7722E-03     39.4024E-03
             567            1254     40.7722E-03     39.4024E-03
             566            1254     40.7722E-03     39.4024E-03
             527            1255     39.6824E-03     39.2714E-03
             568            1255     39.6824E-03     39.2714E-03
             567            1255     39.6824E-03     39.2714E-03
             528            1255     39.6824E-03     39.2714E-03
             529            1256     38.4863E-03     38.9938E-03
             569            1256     38.4863E-03     38.9938E-03
             528            1256     38.4863E-03     38.9938E-03
             568            1256     38.4863E-03     38.9938E-03
             570            1257     39.8361E-03     38.5114E-03
             529            1257     39.8361E-03     38.5114E-03
             530            1257     39.8361E-03     38.5114E-03
             569            1257     39.8361E-03     38.5114E-03
             570            1258     39.9561E-03     39.5756E-03
             530            1258     39.9561E-03     39.5756E-03
             571            1258     39.9561E-03     39.5756E-03
             531            1258     39.9561E-03     39.5756E-03
             572            1259     38.4288E-03     39.4248E-03
             531            1259     38.4288E-03     39.4248E-03
             532            1259     38.4288E-03     39.4248E-03
             571            1259     38.4288E-03     39.4248E-03
             532            1260     38.5323E-03     38.5527E-03
             573            1260     38.5323E-03     38.5527E-03
             572            1260     38.5323E-03     38.5527E-03
             533            1260     38.5323E-03     38.5527E-03
             574            1261     38.1658E-03     38.2198E-03
             573            1261     38.1658E-03     38.2198E-03
             534            1261     38.1658E-03     38.2198E-03
             533            1261     38.1658E-03     38.2198E-03
             574            1262     37.7360E-03     37.6775E-03
             575            1262     37.7360E-03     37.6775E-03
             534            1262     37.7360E-03     37.6775E-03
             535            1262     37.7360E-03     37.6775E-03
             535            1263     37.4729E-03     37.1336E-03
             536            1263     37.4729E-03     37.1336E-03
             575            1263     37.4729E-03     37.1336E-03
             576            1263     37.4729E-03     37.1336E-03
             537            1264     37.2257E-03     36.7737E-03
             536            1264     37.2257E-03     36.7737E-03
             576            1264     37.2257E-03     36.7737E-03
             577            1264     37.2257E-03     36.7737E-03
             577            1265     36.9559E-03     36.3663E-03
             538            1265     36.9559E-03     36.3663E-03
             578            1265     36.9559E-03     36.3663E-03
             537            1265     36.9559E-03     36.3663E-03
             578            1266     36.6161E-03     36.2042E-03
             538            1266     36.6161E-03     36.2042E-03
             539            1266     36.6161E-03     36.2042E-03
             579            1266     36.6161E-03     36.2042E-03
             580            1267     35.5632E-03     35.3040E-03
             579            1267     35.5632E-03     35.3040E-03
             540            1267     35.5632E-03     35.3040E-03
             539            1267     35.5632E-03     35.3040E-03
             581            1268     35.1837E-03     34.6133E-03
             580            1268     35.1837E-03     34.6133E-03
             540            1268     35.1837E-03     34.6133E-03
             541            1268     35.1837E-03     34.6133E-03
             541            1269     35.2236E-03     35.0221E-03
             582            1269     35.2236E-03     35.0221E-03
             581            1269     35.2236E-03     35.0221E-03
             542            1269     35.2236E-03     35.0221E-03
             542            1270     34.9354E-03     34.9238E-03
             543            1270     34.9354E-03     34.9238E-03
             583            1270     34.9354E-03     34.9238E-03
             582            1270     34.9354E-03     34.9238E-03
             543            1271     34.9272E-03     34.6365E-03
             544            1271     34.9272E-03     34.6365E-03
             584            1271     34.9272E-03     34.6365E-03
             583            1271     34.9272E-03     34.6365E-03
             545            1272     69.5911E-03     75.7097E-03
             546            1272     69.5911E-03     75.7097E-03
             586            1272     69.5911E-03     75.7097E-03
             585            1272     69.5911E-03     75.7097E-03
             586            1273     79.7074E-03     76.0397E-03
             547            1273     79.7074E-03     76.0397E-03
             587            1273     79.7074E-03     76.0397E-03
             546            1273     79.7074E-03     76.0397E-03
             588            1274     83.0422E-03     77.6157E-03
             547            1274     83.0422E-03     77.6157E-03
             548            1274     83.0422E-03     77.6157E-03
             587            1274     83.0422E-03     77.6157E-03
             548            1275     75.7215E-03     79.4462E-03
             588            1275     75.7215E-03     79.4462E-03
             549            1275     75.7215E-03     79.4462E-03
             589            1275     75.7215E-03     79.4462E-03
             589            1276     75.9447E-03     74.6926E-03
             590            1276     75.9447E-03     74.6926E-03
             549            1276     75.9447E-03     74.6926E-03
             550            1276     75.9447E-03     74.6926E-03
             550            1277     73.8453E-03     73.4235E-03
             591            1277     73.8453E-03     73.4235E-03
             551            1277     73.8453E-03     73.4235E-03
             590            1277     73.8453E-03     73.4235E-03
             551            1278     71.1373E-03     71.3696E-03
             591            1278     71.1373E-03     71.3696E-03
             552            1278     71.1373E-03     71.3696E-03
             592            1278     71.1373E-03     71.3696E-03
             552            1279     68.8166E-03     68.5599E-03
             593            1279     68.8166E-03     68.5599E-03
             592            1279     68.8166E-03     68.5599E-03
             553            1279     68.8166E-03     68.5599E-03
             593            1280     65.3102E-03     67.4063E-03
             594            1280     65.3102E-03     67.4063E-03
             553            1280     65.3102E-03     67.4063E-03
             554            1280     65.3102E-03     67.4063E-03
             554            1281     65.1432E-03     62.5646E-03
             594            1281     65.1432E-03     62.5646E-03
             555            1281     65.1432E-03     62.5646E-03
             595            1281     65.1432E-03     62.5646E-03
             555            1282     60.7672E-03     59.1792E-03
             595            1282     60.7672E-03     59.1792E-03
             596            1282     60.7672E-03     59.1792E-03
             556            1282     60.7672E-03     59.1792E-03
             597            1283     54.8384E-03     61.6962E-03
             596            1283     54.8384E-03     61.6962E-03
             556            1283     54.8384E-03     61.6962E-03
             557            1283     54.8384E-03     61.6962E-03
             598            1284     62.5735E-03     59.7967E-03
             597            1284     62.5735E-03     59.7967E-03
             558            1284     62.5735E-03     59.7967E-03
             557            1284     62.5735E-03     59.7967E-03
             558            1285     64.4612E-03     60.3716E-03
             599            1285     64.4612E-03     60.3716E-03
             559            1285     64.4612E-03     60.3716E-03
             598            1285     64.4612E-03     60.3716E-03
             599            1286     58.5600E-03     60.9525E-03
             600            1286     58.5600E-03     60.9525E-03
             559            1286     58.5600E-03     60.9525E-03
             560            1286     58.5600E-03     60.9525E-03
             600            1287     58.1862E-03     57.0107E-03
             561            1287     58.1862E-03     57.0107E-03
             560            1287     58.1862E-03     57.0107E-03
             601            1287     58.1862E-03     57.0107E-03
             561            1288     56.2913E-03     55.5642E-03
             602            1288     56.2913E-03     55.5642E-03
             562            1288     56.2913E-03     55.5642E-03
             601            1288     56.2913E-03     55.5642E-03
             603            1289     53.7285E-03     53.9274E-03
             563            1289     53.7285E-03     53.9274E-03
             602            1289     53.7285E-03     53.9274E-03
             562            1289     53.7285E-03     53.9274E-03
             564            1290     51.9136E-03     51.8332E-03
             563            1290     51.9136E-03     51.8332E-03
             603            1290     51.9136E-03     51.8332E-03
             604            1290     51.9136E-03     51.8332E-03
             605            1291     49.7314E-03     49.8675E-03
             564            1291     49.7314E-03     49.8675E-03
             565            1291     49.7314E-03     49.8675E-03
             604            1291     49.7314E-03     49.8675E-03
             606            1292     47.3074E-03     48.3186E-03
             605            1292     47.3074E-03     48.3186E-03
             566            1292     47.3074E-03     48.3186E-03
             565            1292     47.3074E-03     48.3186E-03
             606            1293     46.2779E-03     45.2821E-03
             566            1293     46.2779E-03     45.2821E-03
             567            1293     46.2779E-03     45.2821E-03
             607            1293     46.2779E-03     45.2821E-03
             607            1294     43.8175E-03     43.1374E-03
             568            1294     43.8175E-03     43.1374E-03
             608            1294     43.8175E-03     43.1374E-03
             567            1294     43.8175E-03     43.1374E-03
             609            1295     41.2477E-03     44.2454E-03
             608            1295     41.2477E-03     44.2454E-03
             569            1295     41.2477E-03     44.2454E-03
             568            1295     41.2477E-03     44.2454E-03
             570            1296     45.1251E-03     43.4808E-03
             569            1296     45.1251E-03     43.4808E-03
             609            1296     45.1251E-03     43.4808E-03
             610            1296     45.1251E-03     43.4808E-03
             570            1297     45.6373E-03     43.4396E-03
             611            1297     45.6373E-03     43.4396E-03
             571            1297     45.6373E-03     43.4396E-03
             610            1297     45.6373E-03     43.4396E-03
             571            1298     41.9234E-03     43.1014E-03
             612            1298     41.9234E-03     43.1014E-03
             572            1298     41.9234E-03     43.1014E-03
             611            1298     41.9234E-03     43.1014E-03
             613            1299     41.1803E-03     40.6680E-03
             612            1299     41.1803E-03     40.6680E-03
             572            1299     41.1803E-03     40.6680E-03
             573            1299     41.1803E-03     40.6680E-03
             574            1300     39.7232E-03     39.6207E-03
             573            1300     39.7232E-03     39.6207E-03
             613            1300     39.7232E-03     39.6207E-03
             614            1300     39.7232E-03     39.6207E-03
             574            1301     38.0712E-03     38.4090E-03
             614            1301     38.0712E-03     38.4090E-03
             615            1301     38.0712E-03     38.4090E-03
             575            1301     38.0712E-03     38.4090E-03
             616            1302     36.8694E-03     37.0396E-03
             576            1302     36.8694E-03     37.0396E-03
             575            1302     36.8694E-03     37.0396E-03
             615            1302     36.8694E-03     37.0396E-03
             616            1303     35.6874E-03     35.8446E-03
             576            1303     35.6874E-03     35.8446E-03
             617            1303     35.6874E-03     35.8446E-03
             577            1303     35.6874E-03     35.8446E-03
             617            1304     34.7569E-03     34.6657E-03
             577            1304     34.7569E-03     34.6657E-03
             618            1304     34.7569E-03     34.6657E-03
             578            1304     34.7569E-03     34.6657E-03
             619            1305     33.9844E-03     33.7439E-03
             618            1305     33.9844E-03     33.7439E-03
             578            1305     33.9844E-03     33.7439E-03
             579            1305     33.9844E-03     33.7439E-03
             580            1306     33.0044E-03     33.1806E-03
             620            1306     33.0044E-03     33.1806E-03
             619            1306     33.0044E-03     33.1806E-03
             579            1306     33.0044E-03     33.1806E-03
             621            1307     33.0760E-03     32.7311E-03
             620            1307     33.0760E-03     32.7311E-03
             580            1307     33.0760E-03     32.7311E-03
             581            1307     33.0760E-03     32.7311E-03
             622            1308     33.0928E-03     32.7007E-03
             581            1308     33.0928E-03     32.7007E-03
             582            1308     33.0928E-03     32.7007E-03
             621            1308     33.0928E-03     32.7007E-03
             622            1309     32.4449E-03     32.4627E-03
             623            1309     32.4449E-03     32.4627E-03
             583            1309     32.4449E-03     32.4627E-03
             582            1309     32.4449E-03     32.4627E-03
             624            1310     32.2924E-03     31.9962E-03
             584            1310     32.2924E-03     31.9962E-03
             623            1310     32.2924E-03     31.9962E-03
             583            1310     32.2924E-03     31.9962E-03
             625            1311     95.2675E-03     107.184E-03
             585            1311     95.2675E-03     107.184E-03
             626            1311     95.2675E-03     107.184E-03
             586            1311     95.2675E-03     107.184E-03
             586            1312     109.814E-03     105.796E-03
             627            1312     109.814E-03     105.796E-03
             626            1312     109.814E-03     105.796E-03
             587            1312     109.814E-03     105.796E-03
             588            1313     114.034E-03     104.192E-03
             587            1313     114.034E-03     104.192E-03
             628            1313     114.034E-03     104.192E-03
             627            1313     114.034E-03     104.192E-03
             629            1314     100.591E-03     105.388E-03
             628            1314     100.591E-03     105.388E-03
             588            1314     100.591E-03     105.388E-03
             589            1314     100.591E-03     105.388E-03
             630            1315     99.3108E-03     96.8253E-03
             629            1315     99.3108E-03     96.8253E-03
             589            1315     99.3108E-03     96.8253E-03
             590            1315     99.3108E-03     96.8253E-03
             590            1316     95.5262E-03     94.4073E-03
             631            1316     95.5262E-03     94.4073E-03
             591            1316     95.5262E-03     94.4073E-03
             630            1316     95.5262E-03     94.4073E-03
             631            1317     91.6678E-03     91.5470E-03
             591            1317     91.6678E-03     91.5470E-03
             632            1317     91.6678E-03     91.5470E-03
             592            1317     91.6678E-03     91.5470E-03
             632            1318     88.8270E-03     88.1315E-03
             633            1318     88.8270E-03     88.1315E-03
             593            1318     88.8270E-03     88.1315E-03
             592            1318     88.8270E-03     88.1315E-03
             634            1319     84.3583E-03     88.4393E-03
             594            1319     84.3583E-03     88.4393E-03
             633            1319     84.3583E-03     88.4393E-03
             593            1319     84.3583E-03     88.4393E-03
             594            1320     86.2935E-03     82.7913E-03
             595            1320     86.2935E-03     82.7913E-03
             634            1320     86.2935E-03     82.7913E-03
             635            1320     86.2935E-03     82.7913E-03
             595            1321     80.0047E-03     78.3777E-03
             636            1321     80.0047E-03     78.3777E-03
             635            1321     80.0047E-03     78.3777E-03
             596            1321     80.0047E-03     78.3777E-03
             596            1322     69.7185E-03     83.8017E-03
             637            1322     69.7185E-03     83.8017E-03
             636            1322     69.7185E-03     83.8017E-03
             597            1322     69.7185E-03     83.8017E-03
             597            1323     82.2545E-03     79.3340E-03
             598            1323     82.2545E-03     79.3340E-03
             638            1323     82.2545E-03     79.3340E-03
             637            1323     82.2545E-03     79.3340E-03
             639            1324     84.6245E-03     77.2037E-03
             598            1324     84.6245E-03     77.2037E-03
             638            1324     84.6245E-03     77.2037E-03
             599            1324     84.6245E-03     77.2037E-03
             600            1325     73.8162E-03     77.2279E-03
             640            1325     73.8162E-03     77.2279E-03
             639            1325     73.8162E-03     77.2279E-03
             599            1325     73.8162E-03     77.2279E-03
             640            1326     72.0622E-03     70.2608E-03
             600            1326     72.0622E-03     70.2608E-03
             601            1326     72.0622E-03     70.2608E-03
             641            1326     72.0622E-03     70.2608E-03
             601            1327     68.6184E-03     67.4584E-03
             642            1327     68.6184E-03     67.4584E-03
             602            1327     68.6184E-03     67.4584E-03
             641            1327     68.6184E-03     67.4584E-03
             603            1328     64.5091E-03     64.8091E-03
             602            1328     64.5091E-03     64.8091E-03
             642            1328     64.5091E-03     64.8091E-03
             643            1328     64.5091E-03     64.8091E-03
             644            1329     61.8711E-03     61.6593E-03
             604            1329     61.8711E-03     61.6593E-03
             643            1329     61.8711E-03     61.6593E-03
             603            1329     61.8711E-03     61.6593E-03
             645            1330     58.9086E-03     59.1448E-03
             605            1330     58.9086E-03     59.1448E-03
             644            1330     58.9086E-03     59.1448E-03
             604            1330     58.9086E-03     59.1448E-03
             605            1331     55.3274E-03     57.9845E-03
             645            1331     55.3274E-03     57.9845E-03
             606            1331     55.3274E-03     57.9845E-03
             646            1331     55.3274E-03     57.9845E-03
             607            1332     54.8320E-03     53.9483E-03
             606            1332     54.8320E-03     53.9483E-03
             646            1332     54.8320E-03     53.9483E-03
             647            1332     54.8320E-03     53.9483E-03
             608            1333     50.9275E-03     50.4846E-03
             647            1333     50.9275E-03     50.4846E-03
             648            1333     50.9275E-03     50.4846E-03
             607            1333     50.9275E-03     50.4846E-03
             608            1334     45.7819E-03     53.0109E-03
             648            1334     45.7819E-03     53.0109E-03
             609            1334     45.7819E-03     53.0109E-03
             649            1334     45.7819E-03     53.0109E-03
             609            1335     52.3698E-03     50.5836E-03
             649            1335     52.3698E-03     50.5836E-03
             610            1335     52.3698E-03     50.5836E-03
             650            1335     52.3698E-03     50.5836E-03
             610            1336     52.8223E-03     48.3704E-03
             651            1336     52.8223E-03     48.3704E-03
             650            1336     52.8223E-03     48.3704E-03
             611            1336     52.8223E-03     48.3704E-03
             612            1337     45.7792E-03     47.4637E-03
             611            1337     45.7792E-03     47.4637E-03
             652            1337     45.7792E-03     47.4637E-03
             651            1337     45.7792E-03     47.4637E-03
             652            1338     43.9373E-03     42.9831E-03
             653            1338     43.9373E-03     42.9831E-03
             613            1338     43.9373E-03     42.9831E-03
             612            1338     43.9373E-03     42.9831E-03
             614            1339     41.2929E-03     40.8779E-03
             653            1339     41.2929E-03     40.8779E-03
             654            1339     41.2929E-03     40.8779E-03
             613            1339     41.2929E-03     40.8779E-03
             654            1340     38.4145E-03     38.7631E-03
             615            1340     38.4145E-03     38.7631E-03
             614            1340     38.4145E-03     38.7631E-03
             655            1340     38.4145E-03     38.7631E-03
             616            1341     36.1530E-03     36.5505E-03
             655            1341     36.1530E-03     36.5505E-03
             615            1341     36.1530E-03     36.5505E-03
             656            1341     36.1530E-03     36.5505E-03
             657            1342     33.8413E-03     34.7801E-03
             656            1342     33.8413E-03     34.7801E-03
             616            1342     33.8413E-03     34.7801E-03
             617            1342     33.8413E-03     34.7801E-03
             617            1343     31.9125E-03     32.7466E-03
             657            1343     31.9125E-03     32.7466E-03
             658            1343     31.9125E-03     32.7466E-03
             618            1343     31.9125E-03     32.7466E-03
             658            1344     30.4902E-03     30.7601E-03
             659            1344     30.4902E-03     30.7601E-03
             619            1344     30.4902E-03     30.7601E-03
             618            1344     30.4902E-03     30.7601E-03
             619            1345     29.4422E-03     30.3487E-03
             620            1345     29.4422E-03     30.3487E-03
             660            1345     29.4422E-03     30.3487E-03
             659            1345     29.4422E-03     30.3487E-03
             621            1346     30.1254E-03     29.8081E-03
             660            1346     30.1254E-03     29.8081E-03
             620            1346     30.1254E-03     29.8081E-03
             661            1346     30.1254E-03     29.8081E-03
             661            1347     29.7102E-03     28.9817E-03
             621            1347     29.7102E-03     28.9817E-03
             662            1347     29.7102E-03     28.9817E-03
             622            1347     29.7102E-03     28.9817E-03
             663            1348     28.1661E-03     28.5579E-03
             662            1348     28.1661E-03     28.5579E-03
             622            1348     28.1661E-03     28.5579E-03
             623            1348     28.1661E-03     28.5579E-03
             663            1349     27.9987E-03     27.8310E-03
             624            1349     27.9987E-03     27.8310E-03
             664            1349     27.9987E-03     27.8310E-03
             623            1349     27.9987E-03     27.8310E-03
             626            1350     117.949E-03     137.291E-03
             665            1350     117.949E-03     137.291E-03
             625            1350     117.949E-03     137.291E-03
             666            1350     117.949E-03     137.291E-03
             627            1351     136.966E-03     134.219E-03
             626            1351     136.966E-03     134.219E-03
             666            1351     136.966E-03     134.219E-03
             667            1351     136.966E-03     134.219E-03
             668            1352     140.332E-03     127.460E-03
             628            1352     140.332E-03     127.460E-03
             627            1352     140.332E-03     127.460E-03
             667            1352     140.332E-03     127.460E-03
             628            1353     120.027E-03     128.986E-03
             668            1353     120.027E-03     128.986E-03
             629            1353     120.027E-03     128.986E-03
             669            1353     120.027E-03     128.986E-03
             670            1354     117.730E-03     116.835E-03
             669            1354     117.730E-03     116.835E-03
             630            1354     117.730E-03     116.835E-03
             629            1354     117.730E-03     116.835E-03
             631            1355     112.473E-03     113.393E-03
             671            1355     112.473E-03     113.393E-03
             670            1355     112.473E-03     113.393E-03
             630            1355     112.473E-03     113.393E-03
             631            1356     107.543E-03     109.356E-03
             672            1356     107.543E-03     109.356E-03
             671            1356     107.543E-03     109.356E-03
             632            1356     107.543E-03     109.356E-03
             633            1357     104.692E-03     104.488E-03
             673            1357     104.692E-03     104.488E-03
             672            1357     104.692E-03     104.488E-03
             632            1357     104.692E-03     104.488E-03
             633            1358     99.8683E-03     106.126E-03
             634            1358     99.8683E-03     106.126E-03
             673            1358     99.8683E-03     106.126E-03
             674            1358     99.8683E-03     106.126E-03
             675            1359     105.817E-03     100.507E-03
             674            1359     105.817E-03     100.507E-03
             635            1359     105.817E-03     100.507E-03
             634            1359     105.817E-03     100.507E-03
             676            1360     99.3476E-03     98.6708E-03
             635            1360     99.3476E-03     98.6708E-03
             675            1360     99.3476E-03     98.6708E-03
             636            1360     99.3476E-03     98.6708E-03
             637            1361     84.4436E-03     108.623E-03
             676            1361     84.4436E-03     108.623E-03
             636            1361     84.4436E-03     108.623E-03
             677            1361     84.4436E-03     108.623E-03
             677            1362     100.472E-03     98.5128E-03
             637            1362     100.472E-03     98.5128E-03
             678            1362     100.472E-03     98.5128E-03
             638            1362     100.472E-03     98.5128E-03
             639            1363     102.259E-03     92.6454E-03
             678            1363     102.259E-03     92.6454E-03
             638            1363     102.259E-03     92.6454E-03
             679            1363     102.259E-03     92.6454E-03
             680            1364     86.3001E-03     93.0133E-03
             679            1364     86.3001E-03     93.0133E-03
             639            1364     86.3001E-03     93.0133E-03
             640            1364     86.3001E-03     93.0133E-03
             681            1365     83.5823E-03     83.2328E-03
             641            1365     83.5823E-03     83.2328E-03
             680            1365     83.5823E-03     83.2328E-03
             640            1365     83.5823E-03     83.2328E-03
             682            1366     78.8980E-03     79.1537E-03
             642            1366     78.8980E-03     79.1537E-03
             681            1366     78.8980E-03     79.1537E-03
             641            1366     78.8980E-03     79.1537E-03
             682            1367     73.2313E-03     75.2479E-03
             642            1367     73.2313E-03     75.2479E-03
             643            1367     73.2313E-03     75.2479E-03
             683            1367     73.2313E-03     75.2479E-03
             643            1368     70.0661E-03     70.6591E-03
             684            1368     70.0661E-03     70.6591E-03
             644            1368     70.0661E-03     70.6591E-03
             683            1368     70.0661E-03     70.6591E-03
             685            1369     66.6125E-03     67.0414E-03
             645            1369     66.6125E-03     67.0414E-03
             684            1369     66.6125E-03     67.0414E-03
             644            1369     66.6125E-03     67.0414E-03
             645            1370     62.4707E-03     66.2440E-03
             686            1370     62.4707E-03     66.2440E-03
             685            1370     62.4707E-03     66.2440E-03
             646            1370     62.4707E-03     66.2440E-03
             686            1371     64.0120E-03     62.1940E-03
             687            1371     64.0120E-03     62.1940E-03
             647            1371     64.0120E-03     62.1940E-03
             646            1371     64.0120E-03     62.1940E-03
             688            1372     59.5432E-03     59.7942E-03
             648            1372     59.5432E-03     59.7942E-03
             687            1372     59.5432E-03     59.7942E-03
             647            1372     59.5432E-03     59.7942E-03
             648            1373     51.2028E-03     64.5846E-03
             649            1373     51.2028E-03     64.5846E-03
             689            1373     51.2028E-03     64.5846E-03
             688            1373     51.2028E-03     64.5846E-03
             690            1374     59.6156E-03     58.4134E-03
             650            1374     59.6156E-03     58.4134E-03
             689            1374     59.6156E-03     58.4134E-03
             649            1374     59.6156E-03     58.4134E-03
             650            1375     59.5933E-03     53.6587E-03
             690            1375     59.5933E-03     53.6587E-03
             691            1375     59.5933E-03     53.6587E-03
             651            1375     59.5933E-03     53.6587E-03
             652            1376     49.0655E-03     52.7871E-03
             691            1376     49.0655E-03     52.7871E-03
             692            1376     49.0655E-03     52.7871E-03
             651            1376     49.0655E-03     52.7871E-03
             692            1377     46.2887E-03     45.8412E-03
             652            1377     46.2887E-03     45.8412E-03
             693            1377     46.2887E-03     45.8412E-03
             653            1377     46.2887E-03     45.8412E-03
             693            1378     42.3697E-03     42.2584E-03
             654            1378     42.3697E-03     42.2584E-03
             653            1378     42.3697E-03     42.2584E-03
             694            1378     42.3697E-03     42.2584E-03
             654            1379     38.1023E-03     38.7531E-03
             655            1379     38.1023E-03     38.7531E-03
             694            1379     38.1023E-03     38.7531E-03
             695            1379     38.1023E-03     38.7531E-03
             696            1380     35.0530E-03     35.1530E-03
             695            1380     35.0530E-03     35.1530E-03
             656            1380     35.0530E-03     35.1530E-03
             655            1380     35.0530E-03     35.1530E-03
             697            1381     31.8024E-03     32.9468E-03
             696            1381     31.8024E-03     32.9468E-03
             657            1381     31.8024E-03     32.9468E-03
             656            1381     31.8024E-03     32.9468E-03
             658            1382     29.5093E-03     30.7061E-03
             698            1382     29.5093E-03     30.7061E-03
             657            1382     29.5093E-03     30.7061E-03
             697            1382     29.5093E-03     30.7061E-03
             659            1383     27.3763E-03     28.2538E-03
             658            1383     27.3763E-03     28.2538E-03
             699            1383     27.3763E-03     28.2538E-03
             698            1383     27.3763E-03     28.2538E-03
             659            1384     25.1404E-03     27.7065E-03
             700            1384     25.1404E-03     27.7065E-03
             699            1384     25.1404E-03     27.7065E-03
             660            1384     25.1404E-03     27.7065E-03
             700            1385     26.0432E-03     25.7379E-03
             701            1385     26.0432E-03     25.7379E-03
             661            1385     26.0432E-03     25.7379E-03
             660            1385     26.0432E-03     25.7379E-03
             661            1386     25.3400E-03     24.0213E-03
             702            1386     25.3400E-03     24.0213E-03
             662            1386     25.3400E-03     24.0213E-03
             701            1386     25.3400E-03     24.0213E-03
             663            1387     22.5248E-03     23.7433E-03
             702            1387     22.5248E-03     23.7433E-03
             662            1387     22.5248E-03     23.7433E-03
             703            1387     22.5248E-03     23.7433E-03
             703            1388     21.9850E-03     22.1852E-03
             663            1388     21.9850E-03     22.1852E-03
             664            1388     21.9850E-03     22.1852E-03
             704            1388     21.9850E-03     22.1852E-03
             706            1389     135.701E-03     160.247E-03
             705            1389     135.701E-03     160.247E-03
             666            1389     135.701E-03     160.247E-03
             665            1389     135.701E-03     160.247E-03
             666            1390     158.516E-03     157.964E-03
             667            1390     158.516E-03     157.964E-03
             707            1390     158.516E-03     157.964E-03
             706            1390     158.516E-03     157.964E-03
             707            1391     159.952E-03     148.773E-03
             667            1391     159.952E-03     148.773E-03
             708            1391     159.952E-03     148.773E-03
             668            1391     159.952E-03     148.773E-03
             669            1392     134.779E-03     149.579E-03
             668            1392     134.779E-03     149.579E-03
             708            1392     134.779E-03     149.579E-03
             709            1392     134.779E-03     149.579E-03
             669            1393     133.103E-03     135.021E-03
             710            1393     133.103E-03     135.021E-03
             670            1393     133.103E-03     135.021E-03
             709            1393     133.103E-03     135.021E-03
             670            1394     126.119E-03     131.029E-03
             671            1394     126.119E-03     131.029E-03
             711            1394     126.119E-03     131.029E-03
             710            1394     126.119E-03     131.029E-03
             671            1395     120.090E-03     125.631E-03
             672            1395     120.090E-03     125.631E-03
             712            1395     120.090E-03     125.631E-03
             711            1395     120.090E-03     125.631E-03
             672            1396     116.854E-03     118.872E-03
             712            1396     116.854E-03     118.872E-03
             673            1396     116.854E-03     118.872E-03
             713            1396     116.854E-03     118.872E-03
             713            1397     110.004E-03     119.748E-03
             674            1397     110.004E-03     119.748E-03
             714            1397     110.004E-03     119.748E-03
             673            1397     110.004E-03     119.748E-03
             675            1398     118.418E-03     113.465E-03
             714            1398     118.418E-03     113.465E-03
             715            1398     118.418E-03     113.465E-03
             674            1398     118.418E-03     113.465E-03
             716            1399     114.107E-03     113.817E-03
             676            1399     114.107E-03     113.817E-03
             715            1399     114.107E-03     113.817E-03
             675            1399     114.107E-03     113.817E-03
             677            1400     97.0052E-03     127.547E-03
             717            1400     97.0052E-03     127.547E-03
             676            1400     97.0052E-03     127.547E-03
             716            1400     97.0052E-03     127.547E-03
             718            1401     115.371E-03     115.004E-03
             717            1401     115.371E-03     115.004E-03
             678            1401     115.371E-03     115.004E-03
             677            1401     115.371E-03     115.004E-03
             719            1402     115.984E-03     107.503E-03
             718            1402     115.984E-03     107.503E-03
             679            1402     115.984E-03     107.503E-03
             678            1402     115.984E-03     107.503E-03
             679            1403     96.3467E-03     107.140E-03
             719            1403     96.3467E-03     107.140E-03
             720            1403     96.3467E-03     107.140E-03
             680            1403     96.3467E-03     107.140E-03
             681            1404     93.7475E-03     95.2417E-03
             721            1404     93.7475E-03     95.2417E-03
             720            1404     93.7475E-03     95.2417E-03
             680            1404     93.7475E-03     95.2417E-03
             722            1405     87.6707E-03     90.4887E-03
             721            1405     87.6707E-03     90.4887E-03
             682            1405     87.6707E-03     90.4887E-03
             681            1405     87.6707E-03     90.4887E-03
             683            1406     80.8888E-03     85.1994E-03
             682            1406     80.8888E-03     85.1994E-03
             723            1406     80.8888E-03     85.1994E-03
             722            1406     80.8888E-03     85.1994E-03
             723            1407     76.8176E-03     79.4149E-03
             724            1407     76.8176E-03     79.4149E-03
             683            1407     76.8176E-03     79.4149E-03
             684            1407     76.8176E-03     79.4149E-03
             684            1408     72.3697E-03     74.1357E-03
             725            1408     72.3697E-03     74.1357E-03
             724            1408     72.3697E-03     74.1357E-03
             685            1408     72.3697E-03     74.1357E-03
             685            1409     66.9575E-03     72.2125E-03
             726            1409     66.9575E-03     72.2125E-03
             725            1409     66.9575E-03     72.2125E-03
             686            1409     66.9575E-03     72.2125E-03
             687            1410     69.5948E-03     67.6073E-03
             726            1410     69.5948E-03     67.6073E-03
             686            1410     69.5948E-03     67.6073E-03
             727            1410     69.5948E-03     67.6073E-03
             687            1411     66.5096E-03     66.5384E-03
             727            1411     66.5096E-03     66.5384E-03
             728            1411     66.5096E-03     66.5384E-03
             688            1411     66.5096E-03     66.5384E-03
             688            1412     56.6463E-03     73.9686E-03
             689            1412     56.6463E-03     73.9686E-03
             728            1412     56.6463E-03     73.9686E-03
             729            1412     56.6463E-03     73.9686E-03
             689            1413     66.5988E-03     66.5179E-03
             729            1413     66.5988E-03     66.5179E-03
             690            1413     66.5988E-03     66.5179E-03
             730            1413     66.5988E-03     66.5179E-03
             691            1414     66.0053E-03     60.6087E-03
             731            1414     66.0053E-03     60.6087E-03
             690            1414     66.0053E-03     60.6087E-03
             730            1414     66.0053E-03     60.6087E-03
             732            1415     52.5364E-03     58.7353E-03
             731            1415     52.5364E-03     58.7353E-03
             691            1415     52.5364E-03     58.7353E-03
             692            1415     52.5364E-03     58.7353E-03
             692            1416     49.1040E-03     49.5346E-03
             733            1416     49.1040E-03     49.5346E-03
             732            1416     49.1040E-03     49.5346E-03
             693            1416     49.1040E-03     49.5346E-03
             734            1417     43.5250E-03     44.6575E-03
             693            1417     43.5250E-03     44.6575E-03
             694            1417     43.5250E-03     44.6575E-03
             733            1417     43.5250E-03     44.6575E-03
             694            1418     37.7918E-03     39.4953E-03
             735            1418     37.7918E-03     39.4953E-03
             734            1418     37.7918E-03     39.4953E-03
             695            1418     37.7918E-03     39.4953E-03
             735            1419     33.6780E-03     34.1427E-03
             695            1419     33.6780E-03     34.1427E-03
             696            1419     33.6780E-03     34.1427E-03
             736            1419     33.6780E-03     34.1427E-03
             697            1420     29.2257E-03     30.3997E-03
             696            1420     29.2257E-03     30.3997E-03
             737            1420     29.2257E-03     30.3997E-03
             736            1420     29.2257E-03     30.3997E-03
             738            1421     26.8501E-03     27.5019E-03
             697            1421     26.8501E-03     27.5019E-03
             737            1421     26.8501E-03     27.5019E-03
             698            1421     26.8501E-03     27.5019E-03
             699            1422     25.1204E-03     25.4502E-03
             698            1422     25.1204E-03     25.4502E-03
             738            1422     25.1204E-03     25.4502E-03
             739            1422     25.1204E-03     25.4502E-03
             699            1423     21.2344E-03     25.7526E-03
             740            1423     21.2344E-03     25.7526E-03
             739            1423     21.2344E-03     25.7526E-03
             700            1423     21.2344E-03     25.7526E-03
             700            1424     22.0084E-03     22.3937E-03
             740            1424     22.0084E-03     22.3937E-03
             701            1424     22.0084E-03     22.3937E-03
             741            1424     22.0084E-03     22.3937E-03
             701            1425     20.6228E-03     18.2389E-03
             742            1425     20.6228E-03     18.2389E-03
             702            1425     20.6228E-03     18.2389E-03
             741            1425     20.6228E-03     18.2389E-03
             702            1426     15.6001E-03     16.9758E-03
             743            1426     15.6001E-03     16.9758E-03
             742            1426     15.6001E-03     16.9758E-03
             703            1426     15.6001E-03     16.9758E-03
             704            1427     14.7747E-03     15.1664E-03
             703            1427     14.7747E-03     15.1664E-03
             744            1427     14.7747E-03     15.1664E-03
             743            1427     14.7747E-03     15.1664E-03
             705            1428     153.649E-03     173.405E-03
             746            1428     153.649E-03     173.405E-03
             745            1428     153.649E-03     173.405E-03
             706            1428     153.649E-03     173.405E-03
             747            1429     176.653E-03     173.705E-03
             746            1429     176.653E-03     173.705E-03
             706            1429     176.653E-03     173.705E-03
             707            1429     176.653E-03     173.705E-03
             747            1430     171.837E-03     162.475E-03
             748            1430     171.837E-03     162.475E-03
             708            1430     171.837E-03     162.475E-03
             707            1430     171.837E-03     162.475E-03
             708            1431     149.185E-03     160.305E-03
             748            1431     149.185E-03     160.305E-03
             749            1431     149.185E-03     160.305E-03
             709            1431     149.185E-03     160.305E-03
             710            1432     146.936E-03     146.745E-03
             749            1432     146.936E-03     146.745E-03
             750            1432     146.936E-03     146.745E-03
             709            1432     146.936E-03     146.745E-03
             750            1433     138.963E-03     142.241E-03
             711            1433     138.963E-03     142.241E-03
             751            1433     138.963E-03     142.241E-03
             710            1433     138.963E-03     142.241E-03
             752            1434     132.550E-03     135.736E-03
             711            1434     132.550E-03     135.736E-03
             751            1434     132.550E-03     135.736E-03
             712            1434     132.550E-03     135.736E-03
             753            1435     127.638E-03     128.177E-03
             713            1435     127.638E-03     128.177E-03
             712            1435     127.638E-03     128.177E-03
             752            1435     127.638E-03     128.177E-03
             714            1436     119.274E-03     125.881E-03
             754            1436     119.274E-03     125.881E-03
             713            1436     119.274E-03     125.881E-03
             753            1436     119.274E-03     125.881E-03
             754            1437     122.937E-03     117.765E-03
             714            1437     122.937E-03     117.765E-03
             755            1437     122.937E-03     117.765E-03
             715            1437     122.937E-03     117.765E-03
             756            1438     119.213E-03     115.578E-03
             715            1438     119.213E-03     115.578E-03
             716            1438     119.213E-03     115.578E-03
             755            1438     119.213E-03     115.578E-03
             756            1439     110.763E-03     133.384E-03
             716            1439     110.763E-03     133.384E-03
             757            1439     110.763E-03     133.384E-03
             717            1439     110.763E-03     133.384E-03
             717            1440     129.188E-03     127.286E-03
             718            1440     129.188E-03     127.286E-03
             758            1440     129.188E-03     127.286E-03
             757            1440     129.188E-03     127.286E-03
             718            1441     124.648E-03     117.630E-03
             758            1441     124.648E-03     117.630E-03
             759            1441     124.648E-03     117.630E-03
             719            1441     124.648E-03     117.630E-03
             719            1442     106.359E-03     114.554E-03
             759            1442     106.359E-03     114.554E-03
             720            1442     106.359E-03     114.554E-03
             760            1442     106.359E-03     114.554E-03
             721            1443     103.165E-03     102.974E-03
             761            1443     103.165E-03     102.974E-03
             720            1443     103.165E-03     102.974E-03
             760            1443     103.165E-03     102.974E-03
             721            1444     95.9424E-03     97.9179E-03
             762            1444     95.9424E-03     97.9179E-03
             761            1444     95.9424E-03     97.9179E-03
             722            1444     95.9424E-03     97.9179E-03
             762            1445     89.3317E-03     91.5440E-03
             723            1445     89.3317E-03     91.5440E-03
             722            1445     89.3317E-03     91.5440E-03
             763            1445     89.3317E-03     91.5440E-03
             764            1446     83.7446E-03     85.2834E-03
             723            1446     83.7446E-03     85.2834E-03
             763            1446     83.7446E-03     85.2834E-03
             724            1446     83.7446E-03     85.2834E-03
             765            1447     78.1386E-03     78.7299E-03
             724            1447     78.1386E-03     78.7299E-03
             764            1447     78.1386E-03     78.7299E-03
             725            1447     78.1386E-03     78.7299E-03
             725            1448     71.1600E-03     74.4969E-03
             765            1448     71.1600E-03     74.4969E-03
             766            1448     71.1600E-03     74.4969E-03
             726            1448     71.1600E-03     74.4969E-03
             767            1449     70.3813E-03     67.7208E-03
             766            1449     70.3813E-03     67.7208E-03
             726            1449     70.3813E-03     67.7208E-03
             727            1449     70.3813E-03     67.7208E-03
             728            1450     66.7598E-03     64.2794E-03
             768            1450     66.7598E-03     64.2794E-03
             767            1450     66.7598E-03     64.2794E-03
             727            1450     66.7598E-03     64.2794E-03
             769            1451     63.7304E-03     76.5392E-03
             728            1451     63.7304E-03     76.5392E-03
             768            1451     63.7304E-03     76.5392E-03
             729            1451     63.7304E-03     76.5392E-03
             770            1452     75.6958E-03     74.9865E-03
             729            1452     75.6958E-03     74.9865E-03
             769            1452     75.6958E-03     74.9865E-03
             730            1452     75.6958E-03     74.9865E-03
             770            1453     71.0805E-03     66.7108E-03
             730            1453     71.0805E-03     66.7108E-03
             771            1453     71.0805E-03     66.7108E-03
             731            1453     71.0805E-03     66.7108E-03
             731            1454     57.4311E-03     62.3658E-03
             772            1454     57.4311E-03     62.3658E-03
             732            1454     57.4311E-03     62.3658E-03
             771            1454     57.4311E-03     62.3658E-03
             732            1455     53.0258E-03     52.6796E-03
             772            1455     53.0258E-03     52.6796E-03
             773            1455     53.0258E-03     52.6796E-03
             733            1455     53.0258E-03     52.6796E-03
             773            1456     46.1171E-03     47.1202E-03
             774            1456     46.1171E-03     47.1202E-03
             734            1456     46.1171E-03     47.1202E-03
             733            1456     46.1171E-03     47.1202E-03
             734            1457     39.7577E-03     40.6687E-03
             775            1457     39.7577E-03     40.6687E-03
             735            1457     39.7577E-03     40.6687E-03
             774            1457     39.7577E-03     40.6687E-03
             735            1458     33.9360E-03     34.2824E-03
             776            1458     33.9360E-03     34.2824E-03
             736            1458     33.9360E-03     34.2824E-03
             775            1458     33.9360E-03     34.2824E-03
             777            1459     27.9418E-03     28.3056E-03
             776            1459     27.9418E-03     28.3056E-03
             737            1459     27.9418E-03     28.3056E-03
             736            1459     27.9418E-03     28.3056E-03
             737            1460     23.0212E-03     22.7696E-03
             777            1460     23.0212E-03     22.7696E-03
             738            1460     23.0212E-03     22.7696E-03
             778            1460     23.0212E-03     22.7696E-03
             779            1461     19.6972E-03     18.4942E-03
             778            1461     19.6972E-03     18.4942E-03
             738            1461     19.6972E-03     18.4942E-03
             739            1461     19.6972E-03     18.4942E-03
             779            1462     19.9842E-03     23.7770E-03
             780            1462     19.9842E-03     23.7770E-03
             739            1462     19.9842E-03     23.7770E-03
             740            1462     19.9842E-03     23.7770E-03
             741            1463     23.3817E-03     24.0659E-03
             780            1463     23.3817E-03     24.0659E-03
             740            1463     23.3817E-03     24.0659E-03
             781            1463     23.3817E-03     24.0659E-03
             781            1464     18.0165E-03     15.4520E-03
             782            1464     18.0165E-03     15.4520E-03
             742            1464     18.0165E-03     15.4520E-03
             741            1464     18.0165E-03     15.4520E-03
             782            1465     9.64037E-03     10.8814E-03
             743            1465     9.64037E-03     10.8814E-03
             742            1465     9.64037E-03     10.8814E-03
             783            1465     9.64037E-03     10.8814E-03
             743            1466     8.58204E-03     10.0328E-03
             744            1466     8.58204E-03     10.0328E-03
             783            1466     8.58204E-03     10.0328E-03
             784            1466     8.58204E-03     10.0328E-03
            1761            2351     7.04086E-15     6.34286E-15
            1757            2351     7.04086E-15     6.34286E-15
            1762            2351     7.04086E-15     6.34286E-15
            1758            2351     7.04086E-15     6.34286E-15
            1759            2352     4.23764E-15     4.17586E-15
            1758            2352     4.23764E-15     4.17586E-15
            1763            2352     4.23764E-15     4.17586E-15
            1762            2352     4.23764E-15     4.17586E-15
            1760            2353     4.05001E-15     4.78281E-15
            1759            2353     4.05001E-15     4.78281E-15
            1763            2353     4.05001E-15     4.78281E-15
            1764            2353     4.05001E-15     4.78281E-15
            1765            2354     5.71791E-15     5.45964E-15
            1762            2354     5.71791E-15     5.45964E-15
            1766            2354     5.71791E-15     5.45964E-15
            1761            2354     5.71791E-15     5.45964E-15
            1766            2355     3.48649E-15     3.32855E-15
            1767            2355     3.48649E-15     3.32855E-15
            1762            2355     3.48649E-15     3.32855E-15
            1763            2355     3.48649E-15     3.32855E-15
            1767            2356     1.87002E-15     1.95736E-15
            1768            2356     1.87002E-15     1.95736E-15
            1763            2356     1.87002E-15     1.95736E-15
            1764            2356     1.87002E-15     1.95736E-15
            1769            2357     5.16968E-15     5.24127E-15
            1765            2357     5.16968E-15     5.24127E-15
            1770            2357     5.16968E-15     5.24127E-15
            1766            2357     5.16968E-15     5.24127E-15
            1766            2358     4.16554E-15     4.10543E-15
            1770            2358     4.16554E-15     4.10543E-15
            1771            2358     4.16554E-15     4.10543E-15
            1767            2358     4.16554E-15     4.10543E-15
            1771            2359     3.53933E-15     3.55245E-15
            1767            2359     3.53933E-15     3.55245E-15
            1772            2359     3.53933E-15     3.55245E-15
            1768            2359     3.53933E-15     3.55245E-15
            1773            2360     3.75768E-15     3.47882E-15
            1769            2360     3.75768E-15     3.47882E-15
            1770            2360     3.75768E-15     3.47882E-15
            1774            2360     3.75768E-15     3.47882E-15
            1770            2361     2.84074E-15     2.52551E-15
            1775            2361     2.84074E-15     2.52551E-15
            1774            2361     2.84074E-15     2.52551E-15
            1771            2361     2.84074E-15     2.52551E-15
            1772            2362     3.96154E-15     3.87447E-15
            1775            2362     3.96154E-15     3.87447E-15
            1771            2362     3.96154E-15     3.87447E-15
            1776            2362     3.96154E-15     3.87447E-15
            1773            2363     2.40830E-15     1.50184E-15
            1777            2363     2.40830E-15     1.50184E-15
            1774            2363     2.40830E-15     1.50184E-15
            1778            2363     2.40830E-15     1.50184E-15
            1775            2364     2.79945E-15     2.00518E-15
            1774            2364     2.79945E-15     2.00518E-15
            1779            2364     2.79945E-15     2.00518E-15
            1778            2364     2.79945E-15     2.00518E-15
            1779            2365     2.52658E-15     2.15096E-15
            1775            2365     2.52658E-15     2.15096E-15
            1776            2365     2.52658E-15     2.15096E-15
            1780            2365     2.52658E-15     2.15096E-15
            1782            2366     1.79496E-15     1.42490E-15
            1781            2366     1.79496E-15     1.42490E-15
            1777            2366     1.79496E-15     1.42490E-15
            1778            2366     1.79496E-15     1.42490E-15
            1778            2367     2.08189E-15     1.83462E-15
            1782            2367     2.08189E-15     1.83462E-15
            1783            2367     2.08189E-15     1.83462E-15
            1779            2367     2.08189E-15     1.83462E-15
            1780            2368     1.63991E-15     1.61673E-15
            1779            2368     1.63991E-15     1.61673E-15
            1783            2368     1.63991E-15     1.61673E-15
            1784            2368     1.63991E-15     1.61673E-15
            2349            2836     51.6593E-03     49.0949E-03
            2344            2836     51.6593E-03     49.0949E-03
            2343            2836     51.6593E-03     49.0949E-03
            2350            2836     51.6593E-03     49.0949E-03
            2351            2837     53.6942E-03     51.7974E-03
            2344            2837     53.6942E-03     51.7974E-03
            2350            2837     53.6942E-03     51.7974E-03
            2345            2837     53.6942E-03     51.7974E-03
            2351            2838     50.4888E-03     51.2010E-03
            2345            2838     50.4888E-03     51.2010E-03
            2352            2838     50.4888E-03     51.2010E-03
            2346            2838     50.4888E-03     51.2010E-03
            2347            2839     49.7590E-03     50.5912E-03
            2346            2839     49.7590E-03     50.5912E-03
            2353            2839     49.7590E-03     50.5912E-03
            2352            2839     49.7590E-03     50.5912E-03
            2353            2840     45.6635E-03     49.2602E-03
            2347            2840     45.6635E-03     49.2602E-03
            2354            2840     45.6635E-03     49.2602E-03
            2348            2840     45.6635E-03     49.2602E-03
            2356            2841     84.9677E-03     82.5117E-03
            2355            2841     84.9677E-03     82.5117E-03
            2349            2841     84.9677E-03     82.5117E-03
            2350            2841     84.9677E-03     82.5117E-03
            2351            2842     88.8164E-03     86.4244E-03
            2356            2842     88.8164E-03     86.4244E-03
            2357            2842     88.8164E-03     86.4244E-03
            2350            2842     88.8164E-03     86.4244E-03
            2351            2843     85.5906E-03     85.7016E-03
            2352            2843     85.5906E-03     85.7016E-03
            2357            2843     85.5906E-03     85.7016E-03
            2358            2843     85.5906E-03     85.7016E-03
            2353            2844     82.0210E-03     80.2114E-03
            2358            2844     82.0210E-03     80.2114E-03
            2359            2844     82.0210E-03     80.2114E-03
            2352            2844     82.0210E-03     80.2114E-03
            2359            2845     72.5319E-03     78.8069E-03
            2360            2845     72.5319E-03     78.8069E-03
            2354            2845     72.5319E-03     78.8069E-03
            2353            2845     72.5319E-03     78.8069E-03
            2361            2846     119.004E-03     114.990E-03
            2355            2846     119.004E-03     114.990E-03
            2356            2846     119.004E-03     114.990E-03
            2362            2846     119.004E-03     114.990E-03
            2362            2847     125.221E-03     120.344E-03
            2357            2847     125.221E-03     120.344E-03
            2356            2847     125.221E-03     120.344E-03
            2363            2847     125.221E-03     120.344E-03
            2358            2848     120.916E-03     119.260E-03
            2357            2848     120.916E-03     119.260E-03
            2363            2848     120.916E-03     119.260E-03
            2364            2848     120.916E-03     119.260E-03
            2364            2849     113.062E-03     109.154E-03
            2365            2849     113.062E-03     109.154E-03
            2359            2849     113.062E-03     109.154E-03
            2358            2849     113.062E-03     109.154E-03
            2360            2850     99.2130E-03     108.614E-03
            2365            2850     99.2130E-03     108.614E-03
            2359            2850     99.2130E-03     108.614E-03
            2366            2850     99.2130E-03     108.614E-03
            2367            2851     148.243E-03     143.210E-03
            2368            2851     148.243E-03     143.210E-03
            2362            2851     148.243E-03     143.210E-03
            2361            2851     148.243E-03     143.210E-03
            2368            2852     155.417E-03     145.482E-03
            2363            2852     155.417E-03     145.482E-03
            2369            2852     155.417E-03     145.482E-03
            2362            2852     155.417E-03     145.482E-03
            2370            2853     149.980E-03     144.900E-03
            2363            2853     149.980E-03     144.900E-03
            2364            2853     149.980E-03     144.900E-03
            2369            2853     149.980E-03     144.900E-03
            2371            2854     140.094E-03     135.783E-03
            2365            2854     140.094E-03     135.783E-03
            2370            2854     140.094E-03     135.783E-03
            2364            2854     140.094E-03     135.783E-03
            2365            2855     122.442E-03     137.320E-03
            2371            2855     122.442E-03     137.320E-03
            2366            2855     122.442E-03     137.320E-03
            2372            2855     122.442E-03     137.320E-03
            2374            2856     171.028E-03     167.551E-03
            2367            2856     171.028E-03     167.551E-03
            2373            2856     171.028E-03     167.551E-03
            2368            2856     171.028E-03     167.551E-03
            2374            2857     174.491E-03     166.444E-03
            2375            2857     174.491E-03     166.444E-03
            2368            2857     174.491E-03     166.444E-03
            2369            2857     174.491E-03     166.444E-03
            2369            2858     167.757E-03     165.248E-03
            2375            2858     167.757E-03     165.248E-03
            2376            2858     167.757E-03     165.248E-03
            2370            2858     167.757E-03     165.248E-03
            2371            2859     161.439E-03     157.534E-03
            2370            2859     161.439E-03     157.534E-03
            2376            2859     161.439E-03     157.534E-03
            2377            2859     161.439E-03     157.534E-03
            2377            2860     140.815E-03     160.633E-03
            2372            2860     140.815E-03     160.633E-03
            2378            2860     140.815E-03     160.633E-03
            2371            2860     140.815E-03     160.633E-03
            2373            2861     190.831E-03     185.842E-03
            2379            2861     190.831E-03     185.842E-03
            2380            2861     190.831E-03     185.842E-03
            2374            2861     190.831E-03     185.842E-03
            2375            2862     185.765E-03     179.636E-03
            2381            2862     185.765E-03     179.636E-03
            2374            2862     185.765E-03     179.636E-03
            2380            2862     185.765E-03     179.636E-03
            2382            2863     176.505E-03     175.093E-03
            2381            2863     176.505E-03     175.093E-03
            2376            2863     176.505E-03     175.093E-03
            2375            2863     176.505E-03     175.093E-03
            2383            2864     173.557E-03     166.960E-03
            2377            2864     173.557E-03     166.960E-03
            2382            2864     173.557E-03     166.960E-03
            2376            2864     173.557E-03     166.960E-03
            2377            2865     154.770E-03     170.730E-03
            2383            2865     154.770E-03     170.730E-03
            2378            2865     154.770E-03     170.730E-03
            2384            2865     154.770E-03     170.730E-03
            3502            3869     49.0857E-03     46.6267E-03
            3551            3869     49.0857E-03     46.6267E-03
            3552            3869     49.0857E-03     46.6267E-03
            3501            3869     49.0857E-03     46.6267E-03
            3502            3870     50.6909E-03     49.6176E-03
            3553            3870     50.6909E-03     49.6176E-03
            3552            3870     50.6909E-03     49.6176E-03
            3503            3870     50.6909E-03     49.6176E-03
            3503            3871     47.5256E-03     50.7085E-03
            3554            3871     47.5256E-03     50.7085E-03
            3504            3871     47.5256E-03     50.7085E-03
            3553            3871     47.5256E-03     50.7085E-03
            3504            3872     48.7280E-03     49.2064E-03
            3554            3872     48.7280E-03     49.2064E-03
            3555            3872     48.7280E-03     49.2064E-03
            3505            3872     48.7280E-03     49.2064E-03
            3555            3873     48.4636E-03     48.8252E-03
            3556            3873     48.4636E-03     48.8252E-03
            3506            3873     48.4636E-03     48.8252E-03
            3505            3873     48.4636E-03     48.8252E-03
            3557            3874     47.5274E-03     47.5683E-03
            3507            3874     47.5274E-03     47.5683E-03
            3506            3874     47.5274E-03     47.5683E-03
            3556            3874     47.5274E-03     47.5683E-03
            3558            3875     46.4762E-03     46.5978E-03
            3507            3875     46.4762E-03     46.5978E-03
            3557            3875     46.4762E-03     46.5978E-03
            3508            3875     46.4762E-03     46.5978E-03
            3509            3876     46.2654E-03     43.9762E-03
            3559            3876     46.2654E-03     43.9762E-03
            3558            3876     46.2654E-03     43.9762E-03
            3508            3876     46.2654E-03     43.9762E-03
            3510            3877     43.8873E-03     43.2941E-03
            3559            3877     43.8873E-03     43.2941E-03
            3560            3877     43.8873E-03     43.2941E-03
            3509            3877     43.8873E-03     43.2941E-03
            3511            3878     40.0883E-03     43.0419E-03
            3561            3878     40.0883E-03     43.0419E-03
            3510            3878     40.0883E-03     43.0419E-03
            3560            3878     40.0883E-03     43.0419E-03
            3511            3879     43.5489E-03     41.3960E-03
            3561            3879     43.5489E-03     41.3960E-03
            3562            3879     43.5489E-03     41.3960E-03
            3512            3879     43.5489E-03     41.3960E-03
            3562            3880     44.5750E-03     43.7538E-03
            3563            3880     44.5750E-03     43.7538E-03
            3513            3880     44.5750E-03     43.7538E-03
            3512            3880     44.5750E-03     43.7538E-03
            3513            3881     41.8626E-03     44.3883E-03
            3563            3881     41.8626E-03     44.3883E-03
            3564            3881     41.8626E-03     44.3883E-03
            3514            3881     41.8626E-03     44.3883E-03
            3514            3882     42.7099E-03     42.9660E-03
            3565            3882     42.7099E-03     42.9660E-03
            3515            3882     42.7099E-03     42.9660E-03
            3564            3882     42.7099E-03     42.9660E-03
            3516            3883     42.3386E-03     42.7170E-03
            3565            3883     42.3386E-03     42.7170E-03
            3515            3883     42.3386E-03     42.7170E-03
            3566            3883     42.3386E-03     42.7170E-03
            3516            3884     41.6500E-03     41.6800E-03
            3517            3884     41.6500E-03     41.6800E-03
            3567            3884     41.6500E-03     41.6800E-03
            3566            3884     41.6500E-03     41.6800E-03
            3568            3885     40.9998E-03     40.3874E-03
            3517            3885     40.9998E-03     40.3874E-03
            3518            3885     40.9998E-03     40.3874E-03
            3567            3885     40.9998E-03     40.3874E-03
            3518            3886     40.0107E-03     39.5970E-03
            3569            3886     40.0107E-03     39.5970E-03
            3568            3886     40.0107E-03     39.5970E-03
            3519            3886     40.0107E-03     39.5970E-03
            3570            3887     39.4781E-03     37.6289E-03
            3519            3887     39.4781E-03     37.6289E-03
            3520            3887     39.4781E-03     37.6289E-03
            3569            3887     39.4781E-03     37.6289E-03
            3520            3888     37.8003E-03     37.2503E-03
            3571            3888     37.8003E-03     37.2503E-03
            3570            3888     37.8003E-03     37.2503E-03
            3521            3888     37.8003E-03     37.2503E-03
            3522            3889     35.3683E-03     37.0745E-03
            3571            3889     35.3683E-03     37.0745E-03
            3521            3889     35.3683E-03     37.0745E-03
            3572            3889     35.3683E-03     37.0745E-03
            3572            3890     37.7549E-03     36.0827E-03
            3523            3890     37.7549E-03     36.0827E-03
            3522            3890     37.7549E-03     36.0827E-03
            3573            3890     37.7549E-03     36.0827E-03
            3574            3891     38.2615E-03     37.7419E-03
            3573            3891     38.2615E-03     37.7419E-03
            3523            3891     38.2615E-03     37.7419E-03
            3524            3891     38.2615E-03     37.7419E-03
            3524            3892     36.1619E-03     37.9262E-03
            3574            3892     36.1619E-03     37.9262E-03
            3575            3892     36.1619E-03     37.9262E-03
            3525            3892     36.1619E-03     37.9262E-03
            3525            3893     36.6098E-03     36.7604E-03
            3526            3893     36.6098E-03     36.7604E-03
            3576            3893     36.6098E-03     36.7604E-03
            3575            3893     36.6098E-03     36.7604E-03
            3526            3894     36.2024E-03     36.4201E-03
            3576            3894     36.2024E-03     36.4201E-03
            3527            3894     36.2024E-03     36.4201E-03
            3577            3894     36.2024E-03     36.4201E-03
            3528            3895     35.5964E-03     35.5756E-03
            3578            3895     35.5964E-03     35.5756E-03
            3527            3895     35.5964E-03     35.5756E-03
            3577            3895     35.5964E-03     35.5756E-03
            3528            3896     35.0899E-03     34.6213E-03
            3529            3896     35.0899E-03     34.6213E-03
            3578            3896     35.0899E-03     34.6213E-03
            3579            3896     35.0899E-03     34.6213E-03
            3529            3897     34.4670E-03     33.9483E-03
            3530            3897     34.4670E-03     33.9483E-03
            3580            3897     34.4670E-03     33.9483E-03
            3579            3897     34.4670E-03     33.9483E-03
            3530            3898     33.8998E-03     32.7455E-03
            3531            3898     33.8998E-03     32.7455E-03
            3580            3898     33.8998E-03     32.7455E-03
            3581            3898     33.8998E-03     32.7455E-03
            3532            3899     32.9128E-03     32.5507E-03
            3582            3899     32.9128E-03     32.5507E-03
            3581            3899     32.9128E-03     32.5507E-03
            3531            3899     32.9128E-03     32.5507E-03
            3532            3900     31.6836E-03     32.2914E-03
            3533            3900     31.6836E-03     32.2914E-03
            3582            3900     31.6836E-03     32.2914E-03
            3583            3900     31.6836E-03     32.2914E-03
            3584            3901     32.9593E-03     31.7913E-03
            3534            3901     32.9593E-03     31.7913E-03
            3583            3901     32.9593E-03     31.7913E-03
            3533            3901     32.9593E-03     31.7913E-03
            3534            3902     33.0745E-03     32.7703E-03
            3535            3902     33.0745E-03     32.7703E-03
            3584            3902     33.0745E-03     32.7703E-03
            3585            3902     33.0745E-03     32.7703E-03
            3586            3903     31.6832E-03     32.6457E-03
            3535            3903     31.6832E-03     32.6457E-03
            3536            3903     31.6832E-03     32.6457E-03
            3585            3903     31.6832E-03     32.6457E-03
            3586            3904     31.8154E-03     31.8417E-03
            3587            3904     31.8154E-03     31.8417E-03
            3537            3904     31.8154E-03     31.8417E-03
            3536            3904     31.8154E-03     31.8417E-03
            3587            3905     31.4628E-03     31.5387E-03
            3538            3905     31.4628E-03     31.5387E-03
            3588            3905     31.4628E-03     31.5387E-03
            3537            3905     31.4628E-03     31.5387E-03
            3538            3906     31.0498E-03     31.0026E-03
            3589            3906     31.0498E-03     31.0026E-03
            3588            3906     31.0498E-03     31.0026E-03
            3539            3906     31.0498E-03     31.0026E-03
            3590            3907     30.7733E-03     30.4614E-03
            3540            3907     30.7733E-03     30.4614E-03
            3589            3907     30.7733E-03     30.4614E-03
            3539            3907     30.7733E-03     30.4614E-03
            3591            3908     30.5020E-03     30.0773E-03
            3541            3908     30.5020E-03     30.0773E-03
            3540            3908     30.5020E-03     30.0773E-03
            3590            3908     30.5020E-03     30.0773E-03
            3541            3909     30.1852E-03     29.6155E-03
            3542            3909     30.1852E-03     29.6155E-03
            3592            3909     30.1852E-03     29.6155E-03
            3591            3909     30.1852E-03     29.6155E-03
            3593            3910     29.8118E-03     29.4889E-03
            3592            3910     29.8118E-03     29.4889E-03
            3543            3910     29.8118E-03     29.4889E-03
            3542            3910     29.8118E-03     29.4889E-03
            3543            3911     29.1190E-03     28.9784E-03
            3544            3911     29.1190E-03     28.9784E-03
            3594            3911     29.1190E-03     28.9784E-03
            3593            3911     29.1190E-03     28.9784E-03
            3594            3912     29.1708E-03     28.6295E-03
            3595            3912     29.1708E-03     28.6295E-03
            3544            3912     29.1708E-03     28.6295E-03
            3545            3912     29.1708E-03     28.6295E-03
            3546            3913     29.1928E-03     29.0101E-03
            3595            3913     29.1928E-03     29.0101E-03
            3596            3913     29.1928E-03     29.0101E-03
            3545            3913     29.1928E-03     29.0101E-03
            3597            3914     28.7604E-03     28.8576E-03
            3547            3914     28.7604E-03     28.8576E-03
            3546            3914     28.7604E-03     28.8576E-03
            3596            3914     28.7604E-03     28.8576E-03
            3548            3915     28.8136E-03     28.6608E-03
            3547            3915     28.8136E-03     28.6608E-03
            3597            3915     28.8136E-03     28.6608E-03
            3598            3915     28.8136E-03     28.6608E-03
            3599            3916     28.8126E-03     28.6324E-03
            3548            3916     28.8126E-03     28.6324E-03
            3549            3916     28.8126E-03     28.6324E-03
            3598            3916     28.8126E-03     28.6324E-03
            3550            3917     28.6805E-03     28.4375E-03
            3600            3917     28.6805E-03     28.4375E-03
            3549            3917     28.6805E-03     28.4375E-03
            3599            3917     28.6805E-03     28.4375E-03
            3551            3918     80.1524E-03     76.5057E-03
            3552            3918     80.1524E-03     76.5057E-03
            3601            3918     80.1524E-03     76.5057E-03
            3602            3918     80.1524E-03     76.5057E-03
            3552            3919     83.9514E-03     78.7714E-03
            3602            3919     83.9514E-03     78.7714E-03
            3603            3919     83.9514E-03     78.7714E-03
            3553            3919     83.9514E-03     78.7714E-03
            3604            3920     76.9799E-03     81.1429E-03
            3554            3920     76.9799E-03     81.1429E-03
            3603            3920     76.9799E-03     81.1429E-03
            3553            3920     76.9799E-03     81.1429E-03
            3604            3921     77.5986E-03     76.8949E-03
            3605            3921     77.5986E-03     76.8949E-03
            3554            3921     77.5986E-03     76.8949E-03
            3555            3921     77.5986E-03     76.8949E-03
            3556            3922     76.1465E-03     75.7081E-03
            3605            3922     76.1465E-03     75.7081E-03
            3606            3922     76.1465E-03     75.7081E-03
            3555            3922     76.1465E-03     75.7081E-03
            3557            3923     73.3226E-03     73.4745E-03
            3556            3923     73.3226E-03     73.4745E-03
            3607            3923     73.3226E-03     73.4745E-03
            3606            3923     73.3226E-03     73.4745E-03
            3608            3924     69.9836E-03     72.6077E-03
            3558            3924     69.9836E-03     72.6077E-03
            3607            3924     69.9836E-03     72.6077E-03
            3557            3924     69.9836E-03     72.6077E-03
            3559            3925     70.7523E-03     67.4607E-03
            3608            3925     70.7523E-03     67.4607E-03
            3609            3925     70.7523E-03     67.4607E-03
            3558            3925     70.7523E-03     67.4607E-03
            3609            3926     65.6528E-03     63.6005E-03
            3560            3926     65.6528E-03     63.6005E-03
            3610            3926     65.6528E-03     63.6005E-03
            3559            3926     65.6528E-03     63.6005E-03
            3561            3927     57.7572E-03     66.2534E-03
            3610            3927     57.7572E-03     66.2534E-03
            3560            3927     57.7572E-03     66.2534E-03
            3611            3927     57.7572E-03     66.2534E-03
            3562            3928     66.7918E-03     63.6685E-03
            3612            3928     66.7918E-03     63.6685E-03
            3611            3928     66.7918E-03     63.6685E-03
            3561            3928     66.7918E-03     63.6685E-03
            3562            3929     69.4671E-03     65.0637E-03
            3612            3929     69.4671E-03     65.0637E-03
            3563            3929     69.4671E-03     65.0637E-03
            3613            3929     69.4671E-03     65.0637E-03
            3563            3930     63.3886E-03     66.4915E-03
            3613            3930     63.3886E-03     66.4915E-03
            3614            3930     63.3886E-03     66.4915E-03
            3564            3930     63.3886E-03     66.4915E-03
            3564            3931     63.6964E-03     62.4690E-03
            3615            3931     63.6964E-03     62.4690E-03
            3614            3931     63.6964E-03     62.4690E-03
            3565            3931     63.6964E-03     62.4690E-03
            3565            3932     61.8586E-03     61.4999E-03
            3615            3932     61.8586E-03     61.4999E-03
            3616            3932     61.8586E-03     61.4999E-03
            3566            3932     61.8586E-03     61.4999E-03
            3566            3933     59.6212E-03     59.7820E-03
            3617            3933     59.6212E-03     59.7820E-03
            3567            3933     59.6212E-03     59.7820E-03
            3616            3933     59.6212E-03     59.7820E-03
            3618            3934     57.7421E-03     57.4134E-03
            3568            3934     57.7421E-03     57.4134E-03
            3617            3934     57.7421E-03     57.4134E-03
            3567            3934     57.7421E-03     57.4134E-03
            3569            3935     54.7242E-03     56.5490E-03
            3619            3935     54.7242E-03     56.5490E-03
            3618            3935     54.7242E-03     56.5490E-03
            3568            3935     54.7242E-03     56.5490E-03
            3619            3936     54.6484E-03     52.5021E-03
            3620            3936     54.6484E-03     52.5021E-03
            3569            3936     54.6484E-03     52.5021E-03
            3570            3936     54.6484E-03     52.5021E-03
            3620            3937     50.9670E-03     49.5767E-03
            3570            3937     50.9670E-03     49.5767E-03
            3621            3937     50.9670E-03     49.5767E-03
            3571            3937     50.9670E-03     49.5767E-03
            3572            3938     45.7551E-03     51.4751E-03
            3621            3938     45.7551E-03     51.4751E-03
            3571            3938     45.7551E-03     51.4751E-03
            3622            3938     45.7551E-03     51.4751E-03
            3573            3939     52.1421E-03     49.7986E-03
            3572            3939     52.1421E-03     49.7986E-03
            3623            3939     52.1421E-03     49.7986E-03
            3622            3939     52.1421E-03     49.7986E-03
            3574            3940     53.6720E-03     50.4712E-03
            3573            3940     53.6720E-03     50.4712E-03
            3623            3940     53.6720E-03     50.4712E-03
            3624            3940     53.6720E-03     50.4712E-03
            3625            3941     48.8341E-03     50.9654E-03
            3574            3941     48.8341E-03     50.9654E-03
            3575            3941     48.8341E-03     50.9654E-03
            3624            3941     48.8341E-03     50.9654E-03
            3575            3942     48.6160E-03     47.7002E-03
            3576            3942     48.6160E-03     47.7002E-03
            3625            3942     48.6160E-03     47.7002E-03
            3626            3942     48.6160E-03     47.7002E-03
            3627            3943     46.9048E-03     46.6407E-03
            3576            3943     46.9048E-03     46.6407E-03
            3577            3943     46.9048E-03     46.6407E-03
            3626            3943     46.9048E-03     46.6407E-03
            3578            3944     44.8721E-03     45.0935E-03
            3577            3944     44.8721E-03     45.0935E-03
            3627            3944     44.8721E-03     45.0935E-03
            3628            3944     44.8721E-03     45.0935E-03
            3579            3945     43.2158E-03     43.1449E-03
            3578            3945     43.2158E-03     43.1449E-03
            3629            3945     43.2158E-03     43.1449E-03
            3628            3945     43.2158E-03     43.1449E-03
            3580            3946     40.9925E-03     41.9522E-03
            3579            3946     40.9925E-03     41.9522E-03
            3630            3946     40.9925E-03     41.9522E-03
            3629            3946     40.9925E-03     41.9522E-03
            3581            3947     40.1774E-03     39.1915E-03
            3580            3947     40.1774E-03     39.1915E-03
            3631            3947     40.1774E-03     39.1915E-03
            3630            3947     40.1774E-03     39.1915E-03
            3582            3948     37.8741E-03     37.1573E-03
            3631            3948     37.8741E-03     37.1573E-03
            3632            3948     37.8741E-03     37.1573E-03
            3581            3948     37.8741E-03     37.1573E-03
            3583            3949     35.2523E-03     38.1607E-03
            3633            3949     35.2523E-03     38.1607E-03
            3582            3949     35.2523E-03     38.1607E-03
            3632            3949     35.2523E-03     38.1607E-03
            3583            3950     38.8912E-03     37.3707E-03
            3633            3950     38.8912E-03     37.3707E-03
            3634            3950     38.8912E-03     37.3707E-03
            3584            3950     38.8912E-03     37.3707E-03
            3634            3951     39.3952E-03     37.4188E-03
            3584            3951     39.3952E-03     37.4188E-03
            3635            3951     39.3952E-03     37.4188E-03
            3585            3951     39.3952E-03     37.4188E-03
            3635            3952     36.0285E-03     37.1631E-03
            3586            3952     36.0285E-03     37.1631E-03
            3585            3952     36.0285E-03     37.1631E-03
            3636            3952     36.0285E-03     37.1631E-03
            3587            3953     35.4561E-03     34.9040E-03
            3636            3953     35.4561E-03     34.9040E-03
            3637            3953     35.4561E-03     34.9040E-03
            3586            3953     35.4561E-03     34.9040E-03
            3587            3954     34.0979E-03     33.9800E-03
            3637            3954     34.0979E-03     33.9800E-03
            3588            3954     34.0979E-03     33.9800E-03
            3638            3954     34.0979E-03     33.9800E-03
            3588            3955     32.5695E-03     32.8391E-03
            3589            3955     32.5695E-03     32.8391E-03
            3639            3955     32.5695E-03     32.8391E-03
            3638            3955     32.5695E-03     32.8391E-03
            3590            3956     31.4161E-03     31.5407E-03
            3639            3956     31.4161E-03     31.5407E-03
            3589            3956     31.4161E-03     31.5407E-03
            3640            3956     31.4161E-03     31.5407E-03
            3591            3957     30.1972E-03     30.4337E-03
            3640            3957     30.1972E-03     30.4337E-03
            3641            3957     30.1972E-03     30.4337E-03
            3590            3957     30.1972E-03     30.4337E-03
            3641            3958     29.2754E-03     29.1567E-03
            3591            3958     29.2754E-03     29.1567E-03
            3642            3958     29.2754E-03     29.1567E-03
            3592            3958     29.2754E-03     29.1567E-03
            3642            3959     28.3917E-03     28.1699E-03
            3593            3959     28.3917E-03     28.1699E-03
            3592            3959     28.3917E-03     28.1699E-03
            3643            3959     28.3917E-03     28.1699E-03
            3593            3960     27.5792E-03     27.9891E-03
            3594            3960     27.5792E-03     27.9891E-03
            3644            3960     27.5792E-03     27.9891E-03
            3643            3960     27.5792E-03     27.9891E-03
            3644            3961     28.2145E-03     27.7602E-03
            3645            3961     28.2145E-03     27.7602E-03
            3595            3961     28.2145E-03     27.7602E-03
            3594            3961     28.2145E-03     27.7602E-03
            3645            3962     28.1343E-03     27.7160E-03
            3646            3962     28.1343E-03     27.7160E-03
            3595            3962     28.1343E-03     27.7160E-03
            3596            3962     28.1343E-03     27.7160E-03
            3597            3963     27.0031E-03     27.3106E-03
            3596            3963     27.0031E-03     27.3106E-03
            3647            3963     27.0031E-03     27.3106E-03
            3646            3963     27.0031E-03     27.3106E-03
            3648            3964     26.7681E-03     26.6261E-03
            3597            3964     26.7681E-03     26.6261E-03
            3647            3964     26.7681E-03     26.6261E-03
            3598            3964     26.7681E-03     26.6261E-03
            3649            3965     26.6020E-03     26.4473E-03
            3599            3965     26.6020E-03     26.4473E-03
            3598            3965     26.6020E-03     26.4473E-03
            3648            3965     26.6020E-03     26.4473E-03
            3650            3966     26.3706E-03     26.1457E-03
            3649            3966     26.3706E-03     26.1457E-03
            3599            3966     26.3706E-03     26.1457E-03
            3600            3966     26.3706E-03     26.1457E-03
            3652            3967     113.144E-03     108.932E-03
            3601            3967     113.144E-03     108.932E-03
            3602            3967     113.144E-03     108.932E-03
            3651            3967     113.144E-03     108.932E-03
            3653            3968     117.898E-03     108.251E-03
            3652            3968     117.898E-03     108.251E-03
            3602            3968     117.898E-03     108.251E-03
            3603            3968     117.898E-03     108.251E-03
            3654            3969     104.973E-03     109.934E-03
            3653            3969     104.973E-03     109.934E-03
            3603            3969     104.973E-03     109.934E-03
            3604            3969     104.973E-03     109.934E-03
            3655            3970     104.343E-03     102.250E-03
            3604            3970     104.343E-03     102.250E-03
            3605            3970     104.343E-03     102.250E-03
            3654            3970     104.343E-03     102.250E-03
            3656            3971     101.926E-03     100.214E-03
            3655            3971     101.926E-03     100.214E-03
            3605            3971     101.926E-03     100.214E-03
            3606            3971     101.926E-03     100.214E-03
            3657            3972     98.2863E-03     97.6949E-03
            3656            3972     98.2863E-03     97.6949E-03
            3606            3972     98.2863E-03     97.6949E-03
            3607            3972     98.2863E-03     97.6949E-03
            3658            3973     94.2077E-03     98.4923E-03
            3657            3973     94.2077E-03     98.4923E-03
            3607            3973     94.2077E-03     98.4923E-03
            3608            3973     94.2077E-03     98.4923E-03
            3659            3974     97.8745E-03     92.9165E-03
            3608            3974     97.8745E-03     92.9165E-03
            3609            3974     97.8745E-03     92.9165E-03
            3658            3974     97.8745E-03     92.9165E-03
            3660            3975     90.9043E-03     88.6090E-03
            3659            3975     90.9043E-03     88.6090E-03
            3609            3975     90.9043E-03     88.6090E-03
            3610            3975     90.9043E-03     88.6090E-03
            3660            3976     78.1388E-03     94.5165E-03
            3610            3976     78.1388E-03     94.5165E-03
            3611            3976     78.1388E-03     94.5165E-03
            3661            3976     78.1388E-03     94.5165E-03
            3662            3977     92.5255E-03     89.0768E-03
            3661            3977     92.5255E-03     89.0768E-03
            3611            3977     92.5255E-03     89.0768E-03
            3612            3977     92.5255E-03     89.0768E-03
            3663            3978     95.7948E-03     87.8673E-03
            3662            3978     95.7948E-03     87.8673E-03
            3612            3978     95.7948E-03     87.8673E-03
            3613            3978     95.7948E-03     87.8673E-03
            3664            3979     84.5802E-03     88.6714E-03
            3663            3979     84.5802E-03     88.6714E-03
            3613            3979     84.5802E-03     88.6714E-03
            3614            3979     84.5802E-03     88.6714E-03
            3665            3980     83.6812E-03     81.4274E-03
            3614            3980     83.6812E-03     81.4274E-03
            3615            3980     83.6812E-03     81.4274E-03
            3664            3980     83.6812E-03     81.4274E-03
            3666            3981     80.3881E-03     79.5455E-03
            3665            3981     80.3881E-03     79.5455E-03
            3615            3981     80.3881E-03     79.5455E-03
            3616            3981     80.3881E-03     79.5455E-03
            3667            3982     77.2156E-03     77.1488E-03
            3616            3982     77.2156E-03     77.1488E-03
            3617            3982     77.2156E-03     77.1488E-03
            3666            3982     77.2156E-03     77.1488E-03
            3668            3983     75.0000E-03     74.2577E-03
            3667            3983     75.0000E-03     74.2577E-03
            3617            3983     75.0000E-03     74.2577E-03
            3618            3983     75.0000E-03     74.2577E-03
            3669            3984     71.2070E-03     74.7022E-03
            3668            3984     71.2070E-03     74.7022E-03
            3618            3984     71.2070E-03     74.7022E-03
            3619            3984     71.2070E-03     74.7022E-03
            3670            3985     72.9971E-03     70.1011E-03
            3619            3985     72.9971E-03     70.1011E-03
            3620            3985     72.9971E-03     70.1011E-03
            3669            3985     72.9971E-03     70.1011E-03
            3670            3986     67.8246E-03     66.3911E-03
            3620            3986     67.8246E-03     66.3911E-03
            3671            3986     67.8246E-03     66.3911E-03
            3621            3986     67.8246E-03     66.3911E-03
            3622            3987     58.8556E-03     70.5452E-03
            3671            3987     58.8556E-03     70.5452E-03
            3672            3987     58.8556E-03     70.5452E-03
            3621            3987     58.8556E-03     70.5452E-03
            3672            3988     69.1101E-03     66.5146E-03
            3623            3988     69.1101E-03     66.5146E-03
            3622            3988     69.1101E-03     66.5146E-03
            3673            3988     69.1101E-03     66.5146E-03
            3624            3989     70.9452E-03     64.9528E-03
            3674            3989     70.9452E-03     64.9528E-03
            3623            3989     70.9452E-03     64.9528E-03
            3673            3989     70.9452E-03     64.9528E-03
            3625            3990     62.0489E-03     64.8983E-03
            3624            3990     62.0489E-03     64.8983E-03
            3674            3990     62.0489E-03     64.8983E-03
            3675            3990     62.0489E-03     64.8983E-03
            3676            3991     60.7602E-03     59.0947E-03
            3625            3991     60.7602E-03     59.0947E-03
            3675            3991     60.7602E-03     59.0947E-03
            3626            3991     60.7602E-03     59.0947E-03
            3677            3992     57.7779E-03     57.1453E-03
            3676            3992     57.7779E-03     57.1453E-03
            3626            3992     57.7779E-03     57.1453E-03
            3627            3992     57.7779E-03     57.1453E-03
            3628            3993     54.7465E-03     54.8602E-03
            3627            3993     54.7465E-03     54.8602E-03
            3678            3993     54.7465E-03     54.8602E-03
            3677            3993     54.7465E-03     54.8602E-03
            3628            3994     52.4711E-03     52.2547E-03
            3629            3994     52.4711E-03     52.2547E-03
            3678            3994     52.4711E-03     52.2547E-03
            3679            3994     52.4711E-03     52.2547E-03
            3629            3995     49.2996E-03     51.5278E-03
            3680            3995     49.2996E-03     51.5278E-03
            3630            3995     49.2996E-03     51.5278E-03
            3679            3995     49.2996E-03     51.5278E-03
            3631            3996     49.0638E-03     48.0309E-03
            3630            3996     49.0638E-03     48.0309E-03
            3681            3996     49.0638E-03     48.0309E-03
            3680            3996     49.0638E-03     48.0309E-03
            3631            3997     45.5264E-03     44.9097E-03
            3632            3997     45.5264E-03     44.9097E-03
            3681            3997     45.5264E-03     44.9097E-03
            3682            3997     45.5264E-03     44.9097E-03
            3682            3998     40.5770E-03     47.2964E-03
            3683            3998     40.5770E-03     47.2964E-03
            3632            3998     40.5770E-03     47.2964E-03
            3633            3998     40.5770E-03     47.2964E-03
            3684            3999     46.7207E-03     45.0406E-03
            3683            3999     46.7207E-03     45.0406E-03
            3633            3999     46.7207E-03     45.0406E-03
            3634            3999     46.7207E-03     45.0406E-03
            3635            4000     47.1801E-03     43.2504E-03
            3634            4000     47.1801E-03     43.2504E-03
            3684            4000     47.1801E-03     43.2504E-03
            3685            4000     47.1801E-03     43.2504E-03
            3635            4001     40.8583E-03     42.4817E-03
            3686            4001     40.8583E-03     42.4817E-03
            3636            4001     40.8583E-03     42.4817E-03
            3685            4001     40.8583E-03     42.4817E-03
            3637            4002     39.3638E-03     38.3760E-03
            3636            4002     39.3638E-03     38.3760E-03
            3687            4002     39.3638E-03     38.3760E-03
            3686            4002     39.3638E-03     38.3760E-03
            3637            4003     36.9454E-03     36.5713E-03
            3638            4003     36.9454E-03     36.5713E-03
            3687            4003     36.9454E-03     36.5713E-03
            3688            4003     36.9454E-03     36.5713E-03
            3638            4004     34.3810E-03     34.6481E-03
            3689            4004     34.3810E-03     34.6481E-03
            3639            4004     34.3810E-03     34.6481E-03
            3688            4004     34.3810E-03     34.6481E-03
            3689            4005     32.3707E-03     32.6186E-03
            3690            4005     32.3707E-03     32.6186E-03
            3639            4005     32.3707E-03     32.6186E-03
            3640            4005     32.3707E-03     32.6186E-03
            3691            4006     30.1660E-03     31.1483E-03
            3690            4006     30.1660E-03     31.1483E-03
            3641            4006     30.1660E-03     31.1483E-03
            3640            4006     30.1660E-03     31.1483E-03
            3642            4007     28.5498E-03     29.1123E-03
            3641            4007     28.5498E-03     29.1123E-03
            3691            4007     28.5498E-03     29.1123E-03
            3692            4007     28.5498E-03     29.1123E-03
            3693            4008     26.9507E-03     27.0925E-03
            3642            4008     26.9507E-03     27.0925E-03
            3643            4008     26.9507E-03     27.0925E-03
            3692            4008     26.9507E-03     27.0925E-03
            3694            4009     25.5778E-03     27.0863E-03
            3643            4009     25.5778E-03     27.0863E-03
            3644            4009     25.5778E-03     27.0863E-03
            3693            4009     25.5778E-03     27.0863E-03
            3644            4010     26.9595E-03     26.3377E-03
            3695            4010     26.9595E-03     26.3377E-03
            3694            4010     26.9595E-03     26.3377E-03
            3645            4010     26.9595E-03     26.3377E-03
            3646            4011     26.5479E-03     25.3322E-03
            3696            4011     26.5479E-03     25.3322E-03
            3645            4011     26.5479E-03     25.3322E-03
            3695            4011     26.5479E-03     25.3322E-03
            3697            4012     24.1568E-03     24.8064E-03
            3647            4012     24.1568E-03     24.8064E-03
            3696            4012     24.1568E-03     24.8064E-03
            3646            4012     24.1568E-03     24.8064E-03
            3647            4013     23.4355E-03     23.5677E-03
            3698            4013     23.4355E-03     23.5677E-03
            3648            4013     23.4355E-03     23.5677E-03
            3697            4013     23.4355E-03     23.5677E-03
            3648            4014     22.8747E-03     22.9838E-03
            3649            4014     22.8747E-03     22.9838E-03
            3699            4014     22.8747E-03     22.9838E-03
            3698            4014     22.8747E-03     22.9838E-03
            3700            4015     22.5496E-03     22.4930E-03
            3650            4015     22.5496E-03     22.4930E-03
            3649            4015     22.5496E-03     22.4930E-03
            3699            4015     22.5496E-03     22.4930E-03
            3702            4016     142.449E-03     139.436E-03
            3651            4016     142.449E-03     139.436E-03
            3652            4016     142.449E-03     139.436E-03
            3701            4016     142.449E-03     139.436E-03
            3702            4017     146.168E-03     133.452E-03
            3652            4017     146.168E-03     133.452E-03
            3653            4017     146.168E-03     133.452E-03
            3703            4017     146.168E-03     133.452E-03
            3654            4018     126.292E-03     135.122E-03
            3653            4018     126.292E-03     135.122E-03
            3703            4018     126.292E-03     135.122E-03
            3704            4018     126.292E-03     135.122E-03
            3655            4019     124.655E-03     124.142E-03
            3654            4019     124.655E-03     124.142E-03
            3704            4019     124.655E-03     124.142E-03
            3705            4019     124.655E-03     124.142E-03
            3655            4020     121.480E-03     121.359E-03
            3705            4020     121.480E-03     121.359E-03
            3706            4020     121.480E-03     121.359E-03
            3656            4020     121.480E-03     121.359E-03
            3657            4021     117.224E-03     117.730E-03
            3656            4021     117.224E-03     117.730E-03
            3706            4021     117.224E-03     117.730E-03
            3707            4021     117.224E-03     117.730E-03
            3708            4022     113.139E-03     119.837E-03
            3658            4022     113.139E-03     119.837E-03
            3657            4022     113.139E-03     119.837E-03
            3707            4022     113.139E-03     119.837E-03
            3658            4023     121.587E-03     114.517E-03
            3659            4023     121.587E-03     114.517E-03
            3708            4023     121.587E-03     114.517E-03
            3709            4023     121.587E-03     114.517E-03
            3710            4024     114.733E-03     113.458E-03
            3659            4024     114.733E-03     113.458E-03
            3660            4024     114.733E-03     113.458E-03
            3709            4024     114.733E-03     113.458E-03
            3661            4025     97.2202E-03     124.883E-03
            3710            4025     97.2202E-03     124.883E-03
            3711            4025     97.2202E-03     124.883E-03
            3660            4025     97.2202E-03     124.883E-03
            3661            4026     115.638E-03     113.208E-03
            3662            4026     115.638E-03     113.208E-03
            3712            4026     115.638E-03     113.208E-03
            3711            4026     115.638E-03     113.208E-03
            3663            4027     118.036E-03     107.755E-03
            3662            4027     118.036E-03     107.755E-03
            3713            4027     118.036E-03     107.755E-03
            3712            4027     118.036E-03     107.755E-03
            3663            4028     101.102E-03     108.767E-03
            3713            4028     101.102E-03     108.767E-03
            3664            4028     101.102E-03     108.767E-03
            3714            4028     101.102E-03     108.767E-03
            3714            4029     99.4450E-03     98.5364E-03
            3715            4029     99.4450E-03     98.5364E-03
            3665            4029     99.4450E-03     98.5364E-03
            3664            4029     99.4450E-03     98.5364E-03
            3715            4030     94.8764E-03     95.8755E-03
            3666            4030     94.8764E-03     95.8755E-03
            3665            4030     94.8764E-03     95.8755E-03
            3716            4030     94.8764E-03     95.8755E-03
            3667            4031     90.8293E-03     92.5034E-03
            3716            4031     90.8293E-03     92.5034E-03
            3666            4031     90.8293E-03     92.5034E-03
            3717            4031     90.8293E-03     92.5034E-03
            3668            4032     88.6621E-03     88.3687E-03
            3667            4032     88.6621E-03     88.3687E-03
            3717            4032     88.6621E-03     88.3687E-03
            3718            4032     88.6621E-03     88.3687E-03
            3668            4033     84.5278E-03     89.9262E-03
            3719            4033     84.5278E-03     89.9262E-03
            3669            4033     84.5278E-03     89.9262E-03
            3718            4033     84.5278E-03     89.9262E-03
            3670            4034     89.7376E-03     85.3802E-03
            3719            4034     89.7376E-03     85.3802E-03
            3720            4034     89.7376E-03     85.3802E-03
            3669            4034     89.7376E-03     85.3802E-03
            3671            4035     84.5603E-03     83.8920E-03
            3670            4035     84.5603E-03     83.8920E-03
            3721            4035     84.5603E-03     83.8920E-03
            3720            4035     84.5603E-03     83.8920E-03
            3721            4036     71.6721E-03     91.7918E-03
            3722            4036     71.6721E-03     91.7918E-03
            3672            4036     71.6721E-03     91.7918E-03
            3671            4036     71.6721E-03     91.7918E-03
            3722            4037     84.7270E-03     82.8813E-03
            3723            4037     84.7270E-03     82.8813E-03
            3672            4037     84.7270E-03     82.8813E-03
            3673            4037     84.7270E-03     82.8813E-03
            3674            4038     85.8921E-03     78.1133E-03
            3723            4038     85.8921E-03     78.1133E-03
            3724            4038     85.8921E-03     78.1133E-03
            3673            4038     85.8921E-03     78.1133E-03
            3725            4039     72.6480E-03     78.2258E-03
            3724            4039     72.6480E-03     78.2258E-03
            3675            4039     72.6480E-03     78.2258E-03
            3674            4039     72.6480E-03     78.2258E-03
            3676            4040     70.6513E-03     69.9490E-03
            3725            4040     70.6513E-03     69.9490E-03
            3726            4040     70.6513E-03     69.9490E-03
            3675            4040     70.6513E-03     69.9490E-03
            3727            4041     66.5397E-03     67.0825E-03
            3677            4041     66.5397E-03     67.0825E-03
            3726            4041     66.5397E-03     67.0825E-03
            3676            4041     66.5397E-03     67.0825E-03
            3678            4042     62.5698E-03     63.7740E-03
            3677            4042     62.5698E-03     63.7740E-03
            3728            4042     62.5698E-03     63.7740E-03
            3727            4042     62.5698E-03     63.7740E-03
            3729            4043     60.0786E-03     59.9754E-03
            3679            4043     60.0786E-03     59.9754E-03
            3678            4043     60.0786E-03     59.9754E-03
            3728            4043     60.0786E-03     59.9754E-03
            3680            4044     56.4036E-03     59.7202E-03
            3730            4044     56.4036E-03     59.7202E-03
            3729            4044     56.4036E-03     59.7202E-03
            3679            4044     56.4036E-03     59.7202E-03
            3731            4045     58.0485E-03     56.1903E-03
            3681            4045     58.0485E-03     56.1903E-03
            3730            4045     58.0485E-03     56.1903E-03
            3680            4045     58.0485E-03     56.1903E-03
            3732            4046     54.2190E-03     54.1378E-03
            3681            4046     54.2190E-03     54.1378E-03
            3682            4046     54.2190E-03     54.1378E-03
            3731            4046     54.2190E-03     54.1378E-03
            3683            4047     46.4982E-03     58.7057E-03
            3733            4047     46.4982E-03     58.7057E-03
            3682            4047     46.4982E-03     58.7057E-03
            3732            4047     46.4982E-03     58.7057E-03
            3734            4048     54.3734E-03     53.1860E-03
            3683            4048     54.3734E-03     53.1860E-03
            3733            4048     54.3734E-03     53.1860E-03
            3684            4048     54.3734E-03     53.1860E-03
            3684            4049     54.3455E-03     49.1901E-03
            3734            4049     54.3455E-03     49.1901E-03
            3735            4049     54.3455E-03     49.1901E-03
            3685            4049     54.3455E-03     49.1901E-03
            3686            4050     44.9677E-03     48.4549E-03
            3735            4050     44.9677E-03     48.4549E-03
            3736            4050     44.9677E-03     48.4549E-03
            3685            4050     44.9677E-03     48.4549E-03
            3736            4051     42.7516E-03     42.2728E-03
            3737            4051     42.7516E-03     42.2728E-03
            3686            4051     42.7516E-03     42.2728E-03
            3687            4051     42.7516E-03     42.2728E-03
            3738            4052     39.2625E-03     39.3332E-03
            3688            4052     39.2625E-03     39.3332E-03
            3687            4052     39.2625E-03     39.3332E-03
            3737            4052     39.2625E-03     39.3332E-03
            3689            4053     35.6002E-03     36.2759E-03
            3688            4053     35.6002E-03     36.2759E-03
            3739            4053     35.6002E-03     36.2759E-03
            3738            4053     35.6002E-03     36.2759E-03
            3689            4054     33.0209E-03     33.0729E-03
            3740            4054     33.0209E-03     33.0729E-03
            3739            4054     33.0209E-03     33.0729E-03
            3690            4054     33.0209E-03     33.0729E-03
            3691            4055     30.0707E-03     31.3476E-03
            3740            4055     30.0707E-03     31.3476E-03
            3741            4055     30.0707E-03     31.3476E-03
            3690            4055     30.0707E-03     31.3476E-03
            3742            4056     28.5266E-03     29.1390E-03
            3691            4056     28.5266E-03     29.1390E-03
            3741            4056     28.5266E-03     29.1390E-03
            3692            4056     28.5266E-03     29.1390E-03
            3743            4057     26.3528E-03     26.9382E-03
            3742            4057     26.3528E-03     26.9382E-03
            3693            4057     26.3528E-03     26.9382E-03
            3692            4057     26.3528E-03     26.9382E-03
            3743            4058     23.4452E-03     27.2272E-03
            3744            4058     23.4452E-03     27.2272E-03
            3693            4058     23.4452E-03     27.2272E-03
            3694            4058     23.4452E-03     27.2272E-03
            3695            4059     25.1541E-03     24.6934E-03
            3745            4059     25.1541E-03     24.6934E-03
            3694            4059     25.1541E-03     24.6934E-03
            3744            4059     25.1541E-03     24.6934E-03
            3745            4060     24.3604E-03     22.3029E-03
            3696            4060     24.3604E-03     22.3029E-03
            3695            4060     24.3604E-03     22.3029E-03
            3746            4060     24.3604E-03     22.3029E-03
            3747            4061     20.4607E-03     21.4864E-03
            3746            4061     20.4607E-03     21.4864E-03
            3696            4061     20.4607E-03     21.4864E-03
            3697            4061     20.4607E-03     21.4864E-03
            3698            4062     19.2237E-03     19.2259E-03
            3697            4062     19.2237E-03     19.2259E-03
            3748            4062     19.2237E-03     19.2259E-03
            3747            4062     19.2237E-03     19.2259E-03
            3698            4063     17.9620E-03     18.4228E-03
            3748            4063     17.9620E-03     18.4228E-03
            3749            4063     17.9620E-03     18.4228E-03
            3699            4063     17.9620E-03     18.4228E-03
            3700            4064     17.1810E-03     17.7077E-03
            3699            4064     17.1810E-03     17.7077E-03
            3750            4064     17.1810E-03     17.7077E-03
            3749            4064     17.1810E-03     17.7077E-03
            3701            4065     165.485E-03     164.704E-03
            3751            4065     165.485E-03     164.704E-03
            3752            4065     165.485E-03     164.704E-03
            3702            4065     165.485E-03     164.704E-03
            3702            4066     166.698E-03     156.121E-03
            3753            4066     166.698E-03     156.121E-03
            3752            4066     166.698E-03     156.121E-03
            3703            4066     166.698E-03     156.121E-03
            3753            4067     142.119E-03     156.982E-03
            3704            4067     142.119E-03     156.982E-03
            3703            4067     142.119E-03     156.982E-03
            3754            4067     142.119E-03     156.982E-03
            3755            4068     141.040E-03     143.754E-03
            3704            4068     141.040E-03     143.754E-03
            3705            4068     141.040E-03     143.754E-03
            3754            4068     141.040E-03     143.754E-03
            3756            4069     136.274E-03     140.838E-03
            3705            4069     136.274E-03     140.838E-03
            3755            4069     136.274E-03     140.838E-03
            3706            4069     136.274E-03     140.838E-03
            3756            4070     131.673E-03     135.169E-03
            3757            4070     131.673E-03     135.169E-03
            3706            4070     131.673E-03     135.169E-03
            3707            4070     131.673E-03     135.169E-03
            3707            4071     125.981E-03     136.836E-03
            3757            4071     125.981E-03     136.836E-03
            3758            4071     125.981E-03     136.836E-03
            3708            4071     125.981E-03     136.836E-03
            3708            4072     136.998E-03     131.075E-03
            3758            4072     136.998E-03     131.075E-03
            3709            4072     136.998E-03     131.075E-03
            3759            4072     136.998E-03     131.075E-03
            3710            4073     132.842E-03     132.296E-03
            3759            4073     132.842E-03     132.296E-03
            3760            4073     132.842E-03     132.296E-03
            3709            4073     132.842E-03     132.296E-03
            3711            4074     112.920E-03     147.914E-03
            3760            4074     112.920E-03     147.914E-03
            3710            4074     112.920E-03     147.914E-03
            3761            4074     112.920E-03     147.914E-03
            3762            4075     133.862E-03     133.230E-03
            3711            4075     133.862E-03     133.230E-03
            3761            4075     133.862E-03     133.230E-03
            3712            4075     133.862E-03     133.230E-03
            3763            4076     134.534E-03     125.767E-03
            3762            4076     134.534E-03     125.767E-03
            3713            4076     134.534E-03     125.767E-03
            3712            4076     134.534E-03     125.767E-03
            3763            4077     113.644E-03     126.160E-03
            3714            4077     113.644E-03     126.160E-03
            3764            4077     113.644E-03     126.160E-03
            3713            4077     113.644E-03     126.160E-03
            3764            4078     112.585E-03     114.011E-03
            3714            4078     112.585E-03     114.011E-03
            3765            4078     112.585E-03     114.011E-03
            3715            4078     112.585E-03     114.011E-03
            3715            4079     106.589E-03     110.949E-03
            3716            4079     106.589E-03     110.949E-03
            3766            4079     106.589E-03     110.949E-03
            3765            4079     106.589E-03     110.949E-03
            3716            4080     101.670E-03     106.477E-03
            3766            4080     101.670E-03     106.477E-03
            3717            4080     101.670E-03     106.477E-03
            3767            4080     101.670E-03     106.477E-03
            3718            4081     99.1944E-03     100.794E-03
            3768            4081     99.1944E-03     100.794E-03
            3767            4081     99.1944E-03     100.794E-03
            3717            4081     99.1944E-03     100.794E-03
            3719            4082     93.3177E-03     101.696E-03
            3768            4082     93.3177E-03     101.696E-03
            3718            4082     93.3177E-03     101.696E-03
            3769            4082     93.3177E-03     101.696E-03
            3719            4083     100.543E-03     96.5872E-03
            3770            4083     100.543E-03     96.5872E-03
            3720            4083     100.543E-03     96.5872E-03
            3769            4083     100.543E-03     96.5872E-03
            3721            4084     97.2253E-03     96.9067E-03
            3770            4084     97.2253E-03     96.9067E-03
            3720            4084     97.2253E-03     96.9067E-03
            3771            4084     97.2253E-03     96.9067E-03
            3771            4085     82.5277E-03     107.983E-03
            3772            4085     82.5277E-03     107.983E-03
            3721            4085     82.5277E-03     107.983E-03
            3722            4085     82.5277E-03     107.983E-03
            3723            4086     97.4588E-03     97.0230E-03
            3772            4086     97.4588E-03     97.0230E-03
            3722            4086     97.4588E-03     97.0230E-03
            3773            4086     97.4588E-03     97.0230E-03
            3774            4087     97.4731E-03     90.7912E-03
            3723            4087     97.4731E-03     90.7912E-03
            3724            4087     97.4731E-03     90.7912E-03
            3773            4087     97.4731E-03     90.7912E-03
            3774            4088     81.0907E-03     90.2338E-03
            3724            4088     81.0907E-03     90.2338E-03
            3775            4088     81.0907E-03     90.2338E-03
            3725            4088     81.0907E-03     90.2338E-03
            3775            4089     79.2495E-03     80.1597E-03
            3776            4089     79.2495E-03     80.1597E-03
            3726            4089     79.2495E-03     80.1597E-03
            3725            4089     79.2495E-03     80.1597E-03
            3727            4090     73.8205E-03     76.6730E-03
            3776            4090     73.8205E-03     76.6730E-03
            3726            4090     73.8205E-03     76.6730E-03
            3777            4090     73.8205E-03     76.6730E-03
            3778            4091     68.9311E-03     72.2248E-03
            3728            4091     68.9311E-03     72.2248E-03
            3777            4091     68.9311E-03     72.2248E-03
            3727            4091     68.9311E-03     72.2248E-03
            3779            4092     65.9421E-03     67.0186E-03
            3729            4092     65.9421E-03     67.0186E-03
            3728            4092     65.9421E-03     67.0186E-03
            3778            4092     65.9421E-03     67.0186E-03
            3729            4093     60.9073E-03     65.9111E-03
            3779            4093     60.9073E-03     65.9111E-03
            3780            4093     60.9073E-03     65.9111E-03
            3730            4093     60.9073E-03     65.9111E-03
            3780            4094     63.6877E-03     61.8186E-03
            3781            4094     63.6877E-03     61.8186E-03
            3731            4094     63.6877E-03     61.8186E-03
            3730            4094     63.6877E-03     61.8186E-03
            3781            4095     61.0755E-03     60.9649E-03
            3732            4095     61.0755E-03     60.9649E-03
            3782            4095     61.0755E-03     60.9649E-03
            3731            4095     61.0755E-03     60.9649E-03
            3732            4096     52.1043E-03     67.7962E-03
            3783            4096     52.1043E-03     67.7962E-03
            3733            4096     52.1043E-03     67.7962E-03
            3782            4096     52.1043E-03     67.7962E-03
            3733            4097     61.3165E-03     61.1099E-03
            3734            4097     61.3165E-03     61.1099E-03
            3783            4097     61.3165E-03     61.1099E-03
            3784            4097     61.3165E-03     61.1099E-03
            3785            4098     60.6762E-03     56.1212E-03
            3734            4098     60.6762E-03     56.1212E-03
            3784            4098     60.6762E-03     56.1212E-03
            3735            4098     60.6762E-03     56.1212E-03
            3736            4099     48.8529E-03     54.5868E-03
            3735            4099     48.8529E-03     54.5868E-03
            3786            4099     48.8529E-03     54.5868E-03
            3785            4099     48.8529E-03     54.5868E-03
            3786            4100     46.2539E-03     46.6251E-03
            3736            4100     46.2539E-03     46.6251E-03
            3787            4100     46.2539E-03     46.6251E-03
            3737            4100     46.2539E-03     46.6251E-03
            3737            4101     41.4438E-03     42.7519E-03
            3787            4101     41.4438E-03     42.7519E-03
            3738            4101     41.4438E-03     42.7519E-03
            3788            4101     41.4438E-03     42.7519E-03
            3789            4102     36.6873E-03     38.4115E-03
            3738            4102     36.6873E-03     38.4115E-03
            3788            4102     36.6873E-03     38.4115E-03
            3739            4102     36.6873E-03     38.4115E-03
            3739            4103     33.3189E-03     33.8243E-03
            3789            4103     33.3189E-03     33.8243E-03
            3790            4103     33.3189E-03     33.8243E-03
            3740            4103     33.3189E-03     33.8243E-03
            3740            4104     29.3284E-03     30.9306E-03
            3790            4104     29.3284E-03     30.9306E-03
            3791            4104     29.3284E-03     30.9306E-03
            3741            4104     29.3284E-03     30.9306E-03
            3742            4105     27.9307E-03     28.1367E-03
            3791            4105     27.9307E-03     28.1367E-03
            3741            4105     27.9307E-03     28.1367E-03
            3792            4105     27.9307E-03     28.1367E-03
            3792            4106     26.2254E-03     26.4036E-03
            3793            4106     26.2254E-03     26.4036E-03
            3742            4106     26.2254E-03     26.4036E-03
            3743            4106     26.2254E-03     26.4036E-03
            3743            4107     22.2149E-03     27.9256E-03
            3794            4107     22.2149E-03     27.9256E-03
            3744            4107     22.2149E-03     27.9256E-03
            3793            4107     22.2149E-03     27.9256E-03
            3744            4108     24.3309E-03     24.4993E-03
            3795            4108     24.3309E-03     24.4993E-03
            3794            4108     24.3309E-03     24.4993E-03
            3745            4108     24.3309E-03     24.4993E-03
            3745            4109     22.7859E-03     20.6216E-03
            3746            4109     22.7859E-03     20.6216E-03
            3796            4109     22.7859E-03     20.6216E-03
            3795            4109     22.7859E-03     20.6216E-03
            3797            4110     16.3884E-03     18.1085E-03
            3746            4110     16.3884E-03     18.1085E-03
            3747            4110     16.3884E-03     18.1085E-03
            3796            4110     16.3884E-03     18.1085E-03
            3748            4111     14.0836E-03     13.4043E-03
            3797            4111     14.0836E-03     13.4043E-03
            3798            4111     14.0836E-03     13.4043E-03
            3747            4111     14.0836E-03     13.4043E-03
            3748            4112     12.2097E-03     12.1714E-03
            3798            4112     12.2097E-03     12.1714E-03
            3749            4112     12.2097E-03     12.1714E-03
            3799            4112     12.2097E-03     12.1714E-03
            3799            4113     11.4953E-03     12.1602E-03
            3749            4113     11.4953E-03     12.1602E-03
            3750            4113     11.4953E-03     12.1602E-03
            3800            4113     11.4953E-03     12.1602E-03
            3801            4114     183.766E-03     180.433E-03
            3751            4114     183.766E-03     180.433E-03
            3752            4114     183.766E-03     180.433E-03
            3802            4114     183.766E-03     180.433E-03
            3803            4115     179.115E-03     170.133E-03
            3802            4115     179.115E-03     170.133E-03
            3753            4115     179.115E-03     170.133E-03
            3752            4115     179.115E-03     170.133E-03
            3803            4116     157.398E-03     168.646E-03
            3754            4116     157.398E-03     168.646E-03
            3804            4116     157.398E-03     168.646E-03
            3753            4116     157.398E-03     168.646E-03
            3754            4117     156.168E-03     156.330E-03
            3755            4117     156.168E-03     156.330E-03
            3804            4117     156.168E-03     156.330E-03
            3805            4117     156.168E-03     156.330E-03
            3806            4118     149.614E-03     153.226E-03
            3805            4118     149.614E-03     153.226E-03
            3756            4118     149.614E-03     153.226E-03
            3755            4118     149.614E-03     153.226E-03
            3756            4119     145.122E-03     146.137E-03
            3807            4119     145.122E-03     146.137E-03
            3757            4119     145.122E-03     146.137E-03
            3806            4119     145.122E-03     146.137E-03
            3757            4120     137.538E-03     145.334E-03
            3808            4120     137.538E-03     145.334E-03
            3807            4120     137.538E-03     145.334E-03
            3758            4120     137.538E-03     145.334E-03
            3808            4121     143.844E-03     137.950E-03
            3809            4121     143.844E-03     137.950E-03
            3759            4121     143.844E-03     137.950E-03
            3758            4121     143.844E-03     137.950E-03
            3759            4122     140.987E-03     137.123E-03
            3810            4122     140.987E-03     137.123E-03
            3760            4122     140.987E-03     137.123E-03
            3809            4122     140.987E-03     137.123E-03
            3760            4123     129.466E-03     155.414E-03
            3810            4123     129.466E-03     155.414E-03
            3811            4123     129.466E-03     155.414E-03
            3761            4123     129.466E-03     155.414E-03
            3761            4124     148.874E-03     146.257E-03
            3812            4124     148.874E-03     146.257E-03
            3762            4124     148.874E-03     146.257E-03
            3811            4124     148.874E-03     146.257E-03
            3813            4125     144.503E-03     137.115E-03
            3812            4125     144.503E-03     137.115E-03
            3763            4125     144.503E-03     137.115E-03
            3762            4125     144.503E-03     137.115E-03
            3763            4126     125.849E-03     135.169E-03
            3814            4126     125.849E-03     135.169E-03
            3813            4126     125.849E-03     135.169E-03
            3764            4126     125.849E-03     135.169E-03
            3765            4127     124.264E-03     123.965E-03
            3815            4127     124.264E-03     123.965E-03
            3814            4127     124.264E-03     123.965E-03
            3764            4127     124.264E-03     123.965E-03
            3766            4128     117.575E-03     120.445E-03
            3815            4128     117.575E-03     120.445E-03
            3816            4128     117.575E-03     120.445E-03
            3765            4128     117.575E-03     120.445E-03
            3766            4129     112.358E-03     115.099E-03
            3817            4129     112.358E-03     115.099E-03
            3767            4129     112.358E-03     115.099E-03
            3816            4129     112.358E-03     115.099E-03
            3818            4130     108.461E-03     108.823E-03
            3768            4130     108.461E-03     108.823E-03
            3767            4130     108.461E-03     108.823E-03
            3817            4130     108.461E-03     108.823E-03
            3818            4131     101.415E-03     107.084E-03
            3768            4131     101.415E-03     107.084E-03
            3769            4131     101.415E-03     107.084E-03
            3819            4131     101.415E-03     107.084E-03
            3769            4132     104.635E-03     100.467E-03
            3770            4132     104.635E-03     100.467E-03
            3820            4132     104.635E-03     100.467E-03
            3819            4132     104.635E-03     100.467E-03
            3770            4133     101.789E-03     98.7038E-03
            3820            4133     101.789E-03     98.7038E-03
            3821            4133     101.789E-03     98.7038E-03
            3771            4133     101.789E-03     98.7038E-03
            3822            4134     94.2607E-03     113.067E-03
            3821            4134     94.2607E-03     113.067E-03
            3771            4134     94.2607E-03     113.067E-03
            3772            4134     94.2607E-03     113.067E-03
            3772            4135     109.075E-03     107.361E-03
            3822            4135     109.075E-03     107.361E-03
            3823            4135     109.075E-03     107.361E-03
            3773            4135     109.075E-03     107.361E-03
            3823            4136     104.898E-03     99.3514E-03
            3824            4136     104.898E-03     99.3514E-03
            3774            4136     104.898E-03     99.3514E-03
            3773            4136     104.898E-03     99.3514E-03
            3824            4137     89.7181E-03     96.6237E-03
            3825            4137     89.7181E-03     96.6237E-03
            3774            4137     89.7181E-03     96.6237E-03
            3775            4137     89.7181E-03     96.6237E-03
            3775            4138     87.2437E-03     86.9254E-03
            3825            4138     87.2437E-03     86.9254E-03
            3776            4138     87.2437E-03     86.9254E-03
            3826            4138     87.2437E-03     86.9254E-03
            3776            4139     80.9966E-03     82.9608E-03
            3827            4139     80.9966E-03     82.9608E-03
            3777            4139     80.9966E-03     82.9608E-03
            3826            4139     80.9966E-03     82.9608E-03
            3777            4140     75.7850E-03     77.6193E-03
            3827            4140     75.7850E-03     77.6193E-03
            3828            4140     75.7850E-03     77.6193E-03
            3778            4140     75.7850E-03     77.6193E-03
            3778            4141     71.4590E-03     71.7989E-03
            3779            4141     71.4590E-03     71.7989E-03
            3828            4141     71.4590E-03     71.7989E-03
            3829            4141     71.4590E-03     71.7989E-03
            3780            4142     65.3201E-03     68.5679E-03
            3830            4142     65.3201E-03     68.5679E-03
            3829            4142     65.3201E-03     68.5679E-03
            3779            4142     65.3201E-03     68.5679E-03
            3780            4143     65.0945E-03     62.7650E-03
            3831            4143     65.0945E-03     62.7650E-03
            3830            4143     65.0945E-03     62.7650E-03
            3781            4143     65.0945E-03     62.7650E-03
            3782            4144     62.0946E-03     59.9151E-03
            3831            4144     62.0946E-03     59.9151E-03
            3832            4144     62.0946E-03     59.9151E-03
            3781            4144     62.0946E-03     59.9151E-03
            3832            4145     58.8713E-03     70.4828E-03
            3782            4145     58.8713E-03     70.4828E-03
            3833            4145     58.8713E-03     70.4828E-03
            3783            4145     58.8713E-03     70.4828E-03
            3834            4146     69.3699E-03     68.5549E-03
            3783            4146     69.3699E-03     68.5549E-03
            3784            4146     69.3699E-03     68.5549E-03
            3833            4146     69.3699E-03     68.5549E-03
            3784            4147     65.3635E-03     61.6583E-03
            3785            4147     65.3635E-03     61.6583E-03
            3835            4147     65.3635E-03     61.6583E-03
            3834            4147     65.3635E-03     61.6583E-03
            3785            4148     53.6577E-03     58.1310E-03
            3835            4148     53.6577E-03     58.1310E-03
            3786            4148     53.6577E-03     58.1310E-03
            3836            4148     53.6577E-03     58.1310E-03
            3837            4149     50.2884E-03     49.9459E-03
            3836            4149     50.2884E-03     49.9459E-03
            3787            4149     50.2884E-03     49.9459E-03
            3786            4149     50.2884E-03     49.9459E-03
            3837            4150     44.4936E-03     45.5394E-03
            3787            4150     44.4936E-03     45.5394E-03
            3838            4150     44.4936E-03     45.5394E-03
            3788            4150     44.4936E-03     45.5394E-03
            3789            4151     39.3053E-03     40.2212E-03
            3788            4151     39.3053E-03     40.2212E-03
            3838            4151     39.3053E-03     40.2212E-03
            3839            4151     39.3053E-03     40.2212E-03
            3840            4152     34.5943E-03     34.8935E-03
            3790            4152     34.5943E-03     34.8935E-03
            3839            4152     34.5943E-03     34.8935E-03
            3789            4152     34.5943E-03     34.8935E-03
            3841            4153     29.4431E-03     30.2292E-03
            3790            4153     29.4431E-03     30.2292E-03
            3840            4153     29.4431E-03     30.2292E-03
            3791            4153     29.4431E-03     30.2292E-03
            3791            4154     25.9138E-03     25.3986E-03
            3842            4154     25.9138E-03     25.3986E-03
            3841            4154     25.9138E-03     25.3986E-03
            3792            4154     25.9138E-03     25.3986E-03
            3792            4155     22.9887E-03     21.7512E-03
            3842            4155     22.9887E-03     21.7512E-03
            3793            4155     22.9887E-03     21.7512E-03
            3843            4155     22.9887E-03     21.7512E-03
            3843            4156     23.0836E-03     27.4598E-03
            3844            4156     23.0836E-03     27.4598E-03
            3794            4156     23.0836E-03     27.4598E-03
            3793            4156     23.0836E-03     27.4598E-03
            3794            4157     27.7035E-03     27.8619E-03
            3844            4157     27.7035E-03     27.8619E-03
            3845            4157     27.7035E-03     27.8619E-03
            3795            4157     27.7035E-03     27.8619E-03
            3796            4158     23.2173E-03     21.3656E-03
            3846            4158     23.2173E-03     21.3656E-03
            3845            4158     23.2173E-03     21.3656E-03
            3795            4158     23.2173E-03     21.3656E-03
            3797            4159     14.7617E-03     16.6170E-03
            3847            4159     14.7617E-03     16.6170E-03
            3846            4159     14.7617E-03     16.6170E-03
            3796            4159     14.7617E-03     16.6170E-03
            3798            4160     10.6623E-03     9.67507E-03
            3847            4160     10.6623E-03     9.67507E-03
            3797            4160     10.6623E-03     9.67507E-03
            3848            4160     10.6623E-03     9.67507E-03
            3798            4161     7.32056E-03     6.70540E-03
            3799            4161     7.32056E-03     6.70540E-03
            3849            4161     7.32056E-03     6.70540E-03
            3848            4161     7.32056E-03     6.70540E-03
            3850            4162     7.28197E-03     8.42001E-03
            3800            4162     7.28197E-03     8.42001E-03
            3799            4162     7.28197E-03     8.42001E-03
            3849            4162     7.28197E-03     8.42001E-03
            4107            4328     34.9272E-03     34.6365E-03
            4108            4328     34.9272E-03     34.6365E-03
            4068            4328     34.9272E-03     34.6365E-03
            4067            4328     34.9272E-03     34.6365E-03
            4108            4329     34.9354E-03     34.9238E-03
            4068            4329     34.9354E-03     34.9238E-03
            4069            4329     34.9354E-03     34.9238E-03
            4109            4329     34.9354E-03     34.9238E-03
            4070            4330     35.2236E-03     35.0221E-03
            4110            4330     35.2236E-03     35.0221E-03
            4069            4330     35.2236E-03     35.0221E-03
            4109            4330     35.2236E-03     35.0221E-03
            4111            4331     35.1837E-03     34.6133E-03
            4071            4331     35.1837E-03     34.6133E-03
            4110            4331     35.1837E-03     34.6133E-03
            4070            4331     35.1837E-03     34.6133E-03
            4072            4332     35.5632E-03     35.3040E-03
            4111            4332     35.5632E-03     35.3040E-03
            4112            4332     35.5632E-03     35.3040E-03
            4071            4332     35.5632E-03     35.3040E-03
            4112            4333     36.6161E-03     36.2042E-03
            4073            4333     36.6161E-03     36.2042E-03
            4072            4333     36.6161E-03     36.2042E-03
            4113            4333     36.6161E-03     36.2042E-03
            4113            4334     36.9559E-03     36.3663E-03
            4114            4334     36.9559E-03     36.3663E-03
            4073            4334     36.9559E-03     36.3663E-03
            4074            4334     36.9559E-03     36.3663E-03
            4074            4335     37.2257E-03     36.7737E-03
            4114            4335     37.2257E-03     36.7737E-03
            4075            4335     37.2257E-03     36.7737E-03
            4115            4335     37.2257E-03     36.7737E-03
            4075            4336     37.4729E-03     37.1336E-03
            4076            4336     37.4729E-03     37.1336E-03
            4115            4336     37.4729E-03     37.1336E-03
            4116            4336     37.4729E-03     37.1336E-03
            4076            4337     37.7360E-03     37.6775E-03
            4077            4337     37.7360E-03     37.6775E-03
            4117            4337     37.7360E-03     37.6775E-03
            4116            4337     37.7360E-03     37.6775E-03
            4118            4338     38.1658E-03     38.2198E-03
            4117            4338     38.1658E-03     38.2198E-03
            4078            4338     38.1658E-03     38.2198E-03
            4077            4338     38.1658E-03     38.2198E-03
            4078            4339     38.5323E-03     38.5527E-03
            4118            4339     38.5323E-03     38.5527E-03
            4079            4339     38.5323E-03     38.5527E-03
            4119            4339     38.5323E-03     38.5527E-03
            4079            4340     38.4288E-03     39.4248E-03
            4080            4340     38.4288E-03     39.4248E-03
            4120            4340     38.4288E-03     39.4248E-03
            4119            4340     38.4288E-03     39.4248E-03
            4080            4341     39.9561E-03     39.5756E-03
            4120            4341     39.9561E-03     39.5756E-03
            4081            4341     39.9561E-03     39.5756E-03
            4121            4341     39.9561E-03     39.5756E-03
            4122            4342     39.8361E-03     38.5114E-03
            4121            4342     39.8361E-03     38.5114E-03
            4082            4342     39.8361E-03     38.5114E-03
            4081            4342     39.8361E-03     38.5114E-03
            4083            4343     38.4863E-03     38.9938E-03
            4123            4343     38.4863E-03     38.9938E-03
            4082            4343     38.4863E-03     38.9938E-03
            4122            4343     38.4863E-03     38.9938E-03
            4084            4344     39.6824E-03     39.2714E-03
            4123            4344     39.6824E-03     39.2714E-03
            4124            4344     39.6824E-03     39.2714E-03
            4083            4344     39.6824E-03     39.2714E-03
            4084            4345     40.7722E-03     39.4024E-03
            4125            4345     40.7722E-03     39.4024E-03
            4124            4345     40.7722E-03     39.4024E-03
            4085            4345     40.7722E-03     39.4024E-03
            4085            4346     41.4141E-03     40.6327E-03
            4126            4346     41.4141E-03     40.6327E-03
            4125            4346     41.4141E-03     40.6327E-03
            4086            4346     41.4141E-03     40.6327E-03
            4126            4347     42.1400E-03     41.4636E-03
            4086            4347     42.1400E-03     41.4636E-03
            4127            4347     42.1400E-03     41.4636E-03
            4087            4347     42.1400E-03     41.4636E-03
            4087            4348     42.8538E-03     42.4167E-03
            4127            4348     42.8538E-03     42.4167E-03
            4088            4348     42.8538E-03     42.4167E-03
            4128            4348     42.8538E-03     42.4167E-03
            4088            4349     43.3907E-03     43.5337E-03
            4129            4349     43.3907E-03     43.5337E-03
            4089            4349     43.3907E-03     43.5337E-03
            4128            4349     43.3907E-03     43.5337E-03
            4129            4350     44.1372E-03     44.3834E-03
            4089            4350     44.1372E-03     44.3834E-03
            4130            4350     44.1372E-03     44.3834E-03
            4090            4350     44.1372E-03     44.3834E-03
            4130            4351     44.6063E-03     44.8216E-03
            4090            4351     44.6063E-03     44.8216E-03
            4091            4351     44.6063E-03     44.8216E-03
            4131            4351     44.6063E-03     44.8216E-03
            4132            4352     44.1528E-03     46.2254E-03
            4092            4352     44.1528E-03     46.2254E-03
            4131            4352     44.1528E-03     46.2254E-03
            4091            4352     44.1528E-03     46.2254E-03
            4133            4353     46.7611E-03     46.0016E-03
            4093            4353     46.7611E-03     46.0016E-03
            4132            4353     46.7611E-03     46.0016E-03
            4092            4353     46.7611E-03     46.0016E-03
            4133            4354     46.1512E-03     44.0920E-03
            4134            4354     46.1512E-03     44.0920E-03
            4093            4354     46.1512E-03     44.0920E-03
            4094            4354     46.1512E-03     44.0920E-03
            4094            4355     43.2372E-03     45.2384E-03
            4095            4355     43.2372E-03     45.2384E-03
            4134            4355     43.2372E-03     45.2384E-03
            4135            4355     43.2372E-03     45.2384E-03
            4136            4356     45.9647E-03     45.3796E-03
            4095            4356     45.9647E-03     45.3796E-03
            4096            4356     45.9647E-03     45.3796E-03
            4135            4356     45.9647E-03     45.3796E-03
            4097            4357     47.9140E-03     45.7589E-03
            4096            4357     47.9140E-03     45.7589E-03
            4137            4357     47.9140E-03     45.7589E-03
            4136            4357     47.9140E-03     45.7589E-03
            4137            4358     48.5633E-03     48.0543E-03
            4098            4358     48.5633E-03     48.0543E-03
            4138            4358     48.5633E-03     48.0543E-03
            4097            4358     48.5633E-03     48.0543E-03
            4139            4359     49.6699E-03     49.0106E-03
            4138            4359     49.6699E-03     49.0106E-03
            4098            4359     49.6699E-03     49.0106E-03
            4099            4359     49.6699E-03     49.0106E-03
            4099            4360     50.4413E-03     50.5118E-03
            4140            4360     50.4413E-03     50.5118E-03
            4100            4360     50.4413E-03     50.5118E-03
            4139            4360     50.4413E-03     50.5118E-03
            4140            4361     51.2675E-03     51.7131E-03
            4141            4361     51.2675E-03     51.7131E-03
            4101            4361     51.2675E-03     51.7131E-03
            4100            4361     51.2675E-03     51.7131E-03
            4142            4362     51.6624E-03     52.0451E-03
            4101            4362     51.6624E-03     52.0451E-03
            4141            4362     51.6624E-03     52.0451E-03
            4102            4362     51.6624E-03     52.0451E-03
            4142            4363     50.7259E-03     53.7362E-03
            4103            4363     50.7259E-03     53.7362E-03
            4143            4363     50.7259E-03     53.7362E-03
            4102            4363     50.7259E-03     53.7362E-03
            4144            4364     54.0101E-03     52.9358E-03
            4104            4364     54.0101E-03     52.9358E-03
            4103            4364     54.0101E-03     52.9358E-03
            4143            4364     54.0101E-03     52.9358E-03
            4104            4365     52.7338E-03     50.1428E-03
            4144            4365     52.7338E-03     50.1428E-03
            4105            4365     52.7338E-03     50.1428E-03
            4145            4365     52.7338E-03     50.1428E-03
            4106            4366     45.0520E-03     46.4720E-03
            4105            4366     45.0520E-03     46.4720E-03
            4145            4366     45.0520E-03     46.4720E-03
            4146            4366     45.0520E-03     46.4720E-03
            4147            4367     32.2924E-03     31.9962E-03
            4148            4367     32.2924E-03     31.9962E-03
            4108            4367     32.2924E-03     31.9962E-03
            4107            4367     32.2924E-03     31.9962E-03
            4148            4368     32.4449E-03     32.4627E-03
            4108            4368     32.4449E-03     32.4627E-03
            4149            4368     32.4449E-03     32.4627E-03
            4109            4368     32.4449E-03     32.4627E-03
            4150            4369     33.0928E-03     32.7007E-03
            4149            4369     33.0928E-03     32.7007E-03
            4110            4369     33.0928E-03     32.7007E-03
            4109            4369     33.0928E-03     32.7007E-03
            4110            4370     33.0760E-03     32.7311E-03
            4111            4370     33.0760E-03     32.7311E-03
            4151            4370     33.0760E-03     32.7311E-03
            4150            4370     33.0760E-03     32.7311E-03
            4112            4371     33.0044E-03     33.1806E-03
            4152            4371     33.0044E-03     33.1806E-03
            4151            4371     33.0044E-03     33.1806E-03
            4111            4371     33.0044E-03     33.1806E-03
            4113            4372     33.9844E-03     33.7439E-03
            4153            4372     33.9844E-03     33.7439E-03
            4112            4372     33.9844E-03     33.7439E-03
            4152            4372     33.9844E-03     33.7439E-03
            4113            4373     34.7569E-03     34.6657E-03
            4153            4373     34.7569E-03     34.6657E-03
            4154            4373     34.7569E-03     34.6657E-03
            4114            4373     34.7569E-03     34.6657E-03
            4154            4374     35.6874E-03     35.8446E-03
            4114            4374     35.6874E-03     35.8446E-03
            4115            4374     35.6874E-03     35.8446E-03
            4155            4374     35.6874E-03     35.8446E-03
            4155            4375     36.8694E-03     37.0396E-03
            4156            4375     36.8694E-03     37.0396E-03
            4116            4375     36.8694E-03     37.0396E-03
            4115            4375     36.8694E-03     37.0396E-03
            4117            4376     38.0712E-03     38.4090E-03
            4157            4376     38.0712E-03     38.4090E-03
            4156            4376     38.0712E-03     38.4090E-03
            4116            4376     38.0712E-03     38.4090E-03
            4157            4377     39.7232E-03     39.6207E-03
            4158            4377     39.7232E-03     39.6207E-03
            4118            4377     39.7232E-03     39.6207E-03
            4117            4377     39.7232E-03     39.6207E-03
            4118            4378     41.1803E-03     40.6680E-03
            4158            4378     41.1803E-03     40.6680E-03
            4119            4378     41.1803E-03     40.6680E-03
            4159            4378     41.1803E-03     40.6680E-03
            4119            4379     41.9234E-03     43.1014E-03
            4159            4379     41.9234E-03     43.1014E-03
            4120            4379     41.9234E-03     43.1014E-03
            4160            4379     41.9234E-03     43.1014E-03
            4121            4380     45.6373E-03     43.4396E-03
            4120            4380     45.6373E-03     43.4396E-03
            4161            4380     45.6373E-03     43.4396E-03
            4160            4380     45.6373E-03     43.4396E-03
            4122            4381     45.1251E-03     43.4808E-03
            4161            4381     45.1251E-03     43.4808E-03
            4162            4381     45.1251E-03     43.4808E-03
            4121            4381     45.1251E-03     43.4808E-03
            4162            4382     41.2477E-03     44.2454E-03
            4122            4382     41.2477E-03     44.2454E-03
            4123            4382     41.2477E-03     44.2454E-03
            4163            4382     41.2477E-03     44.2454E-03
            4163            4383     43.8175E-03     43.1374E-03
            4164            4383     43.8175E-03     43.1374E-03
            4123            4383     43.8175E-03     43.1374E-03
            4124            4383     43.8175E-03     43.1374E-03
            4164            4384     46.2779E-03     45.2821E-03
            4165            4384     46.2779E-03     45.2821E-03
            4124            4384     46.2779E-03     45.2821E-03
            4125            4384     46.2779E-03     45.2821E-03
            4125            4385     47.3074E-03     48.3186E-03
            4165            4385     47.3074E-03     48.3186E-03
            4166            4385     47.3074E-03     48.3186E-03
            4126            4385     47.3074E-03     48.3186E-03
            4167            4386     49.7314E-03     49.8675E-03
            4127            4386     49.7314E-03     49.8675E-03
            4166            4386     49.7314E-03     49.8675E-03
            4126            4386     49.7314E-03     49.8675E-03
            4127            4387     51.9136E-03     51.8332E-03
            4128            4387     51.9136E-03     51.8332E-03
            4167            4387     51.9136E-03     51.8332E-03
            4168            4387     51.9136E-03     51.8332E-03
            4169            4388     53.7285E-03     53.9274E-03
            4128            4388     53.7285E-03     53.9274E-03
            4129            4388     53.7285E-03     53.9274E-03
            4168            4388     53.7285E-03     53.9274E-03
            4170            4389     56.2913E-03     55.5642E-03
            4169            4389     56.2913E-03     55.5642E-03
            4130            4389     56.2913E-03     55.5642E-03
            4129            4389     56.2913E-03     55.5642E-03
            4131            4390     58.1862E-03     57.0107E-03
            4171            4390     58.1862E-03     57.0107E-03
            4170            4390     58.1862E-03     57.0107E-03
            4130            4390     58.1862E-03     57.0107E-03
            4131            4391     58.5600E-03     60.9525E-03
            4132            4391     58.5600E-03     60.9525E-03
            4171            4391     58.5600E-03     60.9525E-03
            4172            4391     58.5600E-03     60.9525E-03
            4132            4392     64.4612E-03     60.3716E-03
            4172            4392     64.4612E-03     60.3716E-03
            4173            4392     64.4612E-03     60.3716E-03
            4133            4392     64.4612E-03     60.3716E-03
            4174            4393     62.5735E-03     59.7967E-03
            4133            4393     62.5735E-03     59.7967E-03
            4173            4393     62.5735E-03     59.7967E-03
            4134            4393     62.5735E-03     59.7967E-03
            4135            4394     54.8384E-03     61.6962E-03
            4175            4394     54.8384E-03     61.6962E-03
            4174            4394     54.8384E-03     61.6962E-03
            4134            4394     54.8384E-03     61.6962E-03
            4175            4395     60.7672E-03     59.1792E-03
            4135            4395     60.7672E-03     59.1792E-03
            4136            4395     60.7672E-03     59.1792E-03
            4176            4395     60.7672E-03     59.1792E-03
            4137            4396     65.1432E-03     62.5646E-03
            4177            4396     65.1432E-03     62.5646E-03
            4136            4396     65.1432E-03     62.5646E-03
            4176            4396     65.1432E-03     62.5646E-03
            4137            4397     65.3102E-03     67.4063E-03
            4177            4397     65.3102E-03     67.4063E-03
            4178            4397     65.3102E-03     67.4063E-03
            4138            4397     65.3102E-03     67.4063E-03
            4179            4398     68.8166E-03     68.5599E-03
            4178            4398     68.8166E-03     68.5599E-03
            4138            4398     68.8166E-03     68.5599E-03
            4139            4398     68.8166E-03     68.5599E-03
            4180            4399     71.1373E-03     71.3696E-03
            4139            4399     71.1373E-03     71.3696E-03
            4140            4399     71.1373E-03     71.3696E-03
            4179            4399     71.1373E-03     71.3696E-03
            4181            4400     73.8453E-03     73.4235E-03
            4180            4400     73.8453E-03     73.4235E-03
            4140            4400     73.8453E-03     73.4235E-03
            4141            4400     73.8453E-03     73.4235E-03
            4182            4401     75.9447E-03     74.6926E-03
            4181            4401     75.9447E-03     74.6926E-03
            4141            4401     75.9447E-03     74.6926E-03
            4142            4401     75.9447E-03     74.6926E-03
            4183            4402     75.7215E-03     79.4462E-03
            4142            4402     75.7215E-03     79.4462E-03
            4143            4402     75.7215E-03     79.4462E-03
            4182            4402     75.7215E-03     79.4462E-03
            4184            4403     83.0422E-03     77.6157E-03
            4183            4403     83.0422E-03     77.6157E-03
            4143            4403     83.0422E-03     77.6157E-03
            4144            4403     83.0422E-03     77.6157E-03
            4185            4404     79.7074E-03     76.0397E-03
            4184            4404     79.7074E-03     76.0397E-03
            4144            4404     79.7074E-03     76.0397E-03
            4145            4404     79.7074E-03     76.0397E-03
            4186            4405     69.5911E-03     75.7097E-03
            4185            4405     69.5911E-03     75.7097E-03
            4145            4405     69.5911E-03     75.7097E-03
            4146            4405     69.5911E-03     75.7097E-03
            4188            4406     27.9987E-03     27.8310E-03
            4147            4406     27.9987E-03     27.8310E-03
            4148            4406     27.9987E-03     27.8310E-03
            4187            4406     27.9987E-03     27.8310E-03
            4149            4407     28.1661E-03     28.5579E-03
            4188            4407     28.1661E-03     28.5579E-03
            4148            4407     28.1661E-03     28.5579E-03
            4189            4407     28.1661E-03     28.5579E-03
            4149            4408     29.7102E-03     28.9817E-03
            4189            4408     29.7102E-03     28.9817E-03
            4190            4408     29.7102E-03     28.9817E-03
            4150            4408     29.7102E-03     28.9817E-03
            4191            4409     30.1254E-03     29.8081E-03
            4150            4409     30.1254E-03     29.8081E-03
            4151            4409     30.1254E-03     29.8081E-03
            4190            4409     30.1254E-03     29.8081E-03
            4192            4410     29.4422E-03     30.3487E-03
            4191            4410     29.4422E-03     30.3487E-03
            4151            4410     29.4422E-03     30.3487E-03
            4152            4410     29.4422E-03     30.3487E-03
            4193            4411     30.4902E-03     30.7601E-03
            4192            4411     30.4902E-03     30.7601E-03
            4152            4411     30.4902E-03     30.7601E-03
            4153            4411     30.4902E-03     30.7601E-03
            4194            4412     31.9125E-03     32.7466E-03
            4153            4412     31.9125E-03     32.7466E-03
            4154            4412     31.9125E-03     32.7466E-03
            4193            4412     31.9125E-03     32.7466E-03
            4195            4413     33.8413E-03     34.7801E-03
            4194            4413     33.8413E-03     34.7801E-03
            4154            4413     33.8413E-03     34.7801E-03
            4155            4413     33.8413E-03     34.7801E-03
            4196            4414     36.1530E-03     36.5505E-03
            4156            4414     36.1530E-03     36.5505E-03
            4155            4414     36.1530E-03     36.5505E-03
            4195            4414     36.1530E-03     36.5505E-03
            4197            4415     38.4145E-03     38.7631E-03
            4156            4415     38.4145E-03     38.7631E-03
            4196            4415     38.4145E-03     38.7631E-03
            4157            4415     38.4145E-03     38.7631E-03
            4198            4416     41.2929E-03     40.8779E-03
            4157            4416     41.2929E-03     40.8779E-03
            4158            4416     41.2929E-03     40.8779E-03
            4197            4416     41.2929E-03     40.8779E-03
            4198            4417     43.9373E-03     42.9831E-03
            4158            4417     43.9373E-03     42.9831E-03
            4159            4417     43.9373E-03     42.9831E-03
            4199            4417     43.9373E-03     42.9831E-03
            4160            4418     45.7792E-03     47.4637E-03
            4199            4418     45.7792E-03     47.4637E-03
            4159            4418     45.7792E-03     47.4637E-03
            4200            4418     45.7792E-03     47.4637E-03
            4201            4419     52.8223E-03     48.3704E-03
            4160            4419     52.8223E-03     48.3704E-03
            4161            4419     52.8223E-03     48.3704E-03
            4200            4419     52.8223E-03     48.3704E-03
            4202            4420     52.3698E-03     50.5836E-03
            4201            4420     52.3698E-03     50.5836E-03
            4161            4420     52.3698E-03     50.5836E-03
            4162            4420     52.3698E-03     50.5836E-03
            4203            4421     45.7819E-03     53.0109E-03
            4163            4421     45.7819E-03     53.0109E-03
            4162            4421     45.7819E-03     53.0109E-03
            4202            4421     45.7819E-03     53.0109E-03
            4204            4422     50.9275E-03     50.4846E-03
            4203            4422     50.9275E-03     50.4846E-03
            4163            4422     50.9275E-03     50.4846E-03
            4164            4422     50.9275E-03     50.4846E-03
            4164            4423     54.8320E-03     53.9483E-03
            4204            4423     54.8320E-03     53.9483E-03
            4165            4423     54.8320E-03     53.9483E-03
            4205            4423     54.8320E-03     53.9483E-03
            4205            4424     55.3274E-03     57.9845E-03
            4165            4424     55.3274E-03     57.9845E-03
            4206            4424     55.3274E-03     57.9845E-03
            4166            4424     55.3274E-03     57.9845E-03
            4207            4425     58.9086E-03     59.1448E-03
            4206            4425     58.9086E-03     59.1448E-03
            4166            4425     58.9086E-03     59.1448E-03
            4167            4425     58.9086E-03     59.1448E-03
            4167            4426     61.8711E-03     61.6593E-03
            4208            4426     61.8711E-03     61.6593E-03
            4168            4426     61.8711E-03     61.6593E-03
            4207            4426     61.8711E-03     61.6593E-03
            4208            4427     64.5091E-03     64.8091E-03
            4169            4427     64.5091E-03     64.8091E-03
            4168            4427     64.5091E-03     64.8091E-03
            4209            4427     64.5091E-03     64.8091E-03
            4209            4428     68.6184E-03     67.4584E-03
            4169            4428     68.6184E-03     67.4584E-03
            4210            4428     68.6184E-03     67.4584E-03
            4170            4428     68.6184E-03     67.4584E-03
            4210            4429     72.0622E-03     70.2608E-03
            4211            4429     72.0622E-03     70.2608E-03
            4170            4429     72.0622E-03     70.2608E-03
            4171            4429     72.0622E-03     70.2608E-03
            4211            4430     73.8162E-03     77.2279E-03
            4212            4430     73.8162E-03     77.2279E-03
            4171            4430     73.8162E-03     77.2279E-03
            4172            4430     73.8162E-03     77.2279E-03
            4212            4431     84.6245E-03     77.2037E-03
            4173            4431     84.6245E-03     77.2037E-03
            4213            4431     84.6245E-03     77.2037E-03
            4172            4431     84.6245E-03     77.2037E-03
            4213            4432     82.2545E-03     79.3340E-03
            4173            4432     82.2545E-03     79.3340E-03
            4214            4432     82.2545E-03     79.3340E-03
            4174            4432     82.2545E-03     79.3340E-03
            4175            4433     69.7185E-03     83.8017E-03
            4215            4433     69.7185E-03     83.8017E-03
            4214            4433     69.7185E-03     83.8017E-03
            4174            4433     69.7185E-03     83.8017E-03
            4216            4434     80.0047E-03     78.3777E-03
            4176            4434     80.0047E-03     78.3777E-03
            4215            4434     80.0047E-03     78.3777E-03
            4175            4434     80.0047E-03     78.3777E-03
            4217            4435     86.2935E-03     82.7913E-03
            4177            4435     86.2935E-03     82.7913E-03
            4216            4435     86.2935E-03     82.7913E-03
            4176            4435     86.2935E-03     82.7913E-03
            4177            4436     84.3583E-03     88.4393E-03
            4218            4436     84.3583E-03     88.4393E-03
            4217            4436     84.3583E-03     88.4393E-03
            4178            4436     84.3583E-03     88.4393E-03
            4179            4437     88.8270E-03     88.1315E-03
            4219            4437     88.8270E-03     88.1315E-03
            4178            4437     88.8270E-03     88.1315E-03
            4218            4437     88.8270E-03     88.1315E-03
            4219            4438     91.6678E-03     91.5470E-03
            4220            4438     91.6678E-03     91.5470E-03
            4180            4438     91.6678E-03     91.5470E-03
            4179            4438     91.6678E-03     91.5470E-03
            4181            4439     95.5262E-03     94.4073E-03
            4220            4439     95.5262E-03     94.4073E-03
            4180            4439     95.5262E-03     94.4073E-03
            4221            4439     95.5262E-03     94.4073E-03
            4222            4440     99.3108E-03     96.8253E-03
            4182            4440     99.3108E-03     96.8253E-03
            4181            4440     99.3108E-03     96.8253E-03
            4221            4440     99.3108E-03     96.8253E-03
            4182            4441     100.591E-03     105.388E-03
            4223            4441     100.591E-03     105.388E-03
            4222            4441     100.591E-03     105.388E-03
            4183            4441     100.591E-03     105.388E-03
            4224            4442     114.034E-03     104.192E-03
            4184            4442     114.034E-03     104.192E-03
            4183            4442     114.034E-03     104.192E-03
            4223            4442     114.034E-03     104.192E-03
            4184            4443     109.814E-03     105.796E-03
            4225            4443     109.814E-03     105.796E-03
            4185            4443     109.814E-03     105.796E-03
            4224            4443     109.814E-03     105.796E-03
            4186            4444     95.2675E-03     107.184E-03
            4226            4444     95.2675E-03     107.184E-03
            4185            4444     95.2675E-03     107.184E-03
            4225            4444     95.2675E-03     107.184E-03
            4227            4445     21.9850E-03     22.1852E-03
            4228            4445     21.9850E-03     22.1852E-03
            4188            4445     21.9850E-03     22.1852E-03
            4187            4445     21.9850E-03     22.1852E-03
            4228            4446     22.5248E-03     23.7433E-03
            4229            4446     22.5248E-03     23.7433E-03
            4189            4446     22.5248E-03     23.7433E-03
            4188            4446     22.5248E-03     23.7433E-03
            4229            4447     25.3400E-03     24.0213E-03
            4190            4447     25.3400E-03     24.0213E-03
            4230            4447     25.3400E-03     24.0213E-03
            4189            4447     25.3400E-03     24.0213E-03
            4190            4448     26.0432E-03     25.7379E-03
            4231            4448     26.0432E-03     25.7379E-03
            4191            4448     26.0432E-03     25.7379E-03
            4230            4448     26.0432E-03     25.7379E-03
            4192            4449     25.1404E-03     27.7065E-03
            4231            4449     25.1404E-03     27.7065E-03
            4232            4449     25.1404E-03     27.7065E-03
            4191            4449     25.1404E-03     27.7065E-03
            4233            4450     27.3763E-03     28.2538E-03
            4192            4450     27.3763E-03     28.2538E-03
            4193            4450     27.3763E-03     28.2538E-03
            4232            4450     27.3763E-03     28.2538E-03
            4193            4451     29.5093E-03     30.7061E-03
            4194            4451     29.5093E-03     30.7061E-03
            4234            4451     29.5093E-03     30.7061E-03
            4233            4451     29.5093E-03     30.7061E-03
            4234            4452     31.8024E-03     32.9468E-03
            4194            4452     31.8024E-03     32.9468E-03
            4195            4452     31.8024E-03     32.9468E-03
            4235            4452     31.8024E-03     32.9468E-03
            4236            4453     35.0530E-03     35.1530E-03
            4196            4453     35.0530E-03     35.1530E-03
            4235            4453     35.0530E-03     35.1530E-03
            4195            4453     35.0530E-03     35.1530E-03
            4237            4454     38.1023E-03     38.7531E-03
            4197            4454     38.1023E-03     38.7531E-03
            4236            4454     38.1023E-03     38.7531E-03
            4196            4454     38.1023E-03     38.7531E-03
            4198            4455     42.3697E-03     42.2584E-03
            4197            4455     42.3697E-03     42.2584E-03
            4237            4455     42.3697E-03     42.2584E-03
            4238            4455     42.3697E-03     42.2584E-03
            4238            4456     46.2887E-03     45.8412E-03
            4239            4456     46.2887E-03     45.8412E-03
            4199            4456     46.2887E-03     45.8412E-03
            4198            4456     46.2887E-03     45.8412E-03
            4240            4457     49.0655E-03     52.7871E-03
            4199            4457     49.0655E-03     52.7871E-03
            4239            4457     49.0655E-03     52.7871E-03
            4200            4457     49.0655E-03     52.7871E-03
            4200            4458     59.5933E-03     53.6587E-03
            4241            4458     59.5933E-03     53.6587E-03
            4240            4458     59.5933E-03     53.6587E-03
            4201            4458     59.5933E-03     53.6587E-03
            4202            4459     59.6156E-03     58.4134E-03
            4201            4459     59.6156E-03     58.4134E-03
            4242            4459     59.6156E-03     58.4134E-03
            4241            4459     59.6156E-03     58.4134E-03
            4203            4460     51.2028E-03     64.5846E-03
            4202            4460     51.2028E-03     64.5846E-03
            4243            4460     51.2028E-03     64.5846E-03
            4242            4460     51.2028E-03     64.5846E-03
            4243            4461     59.5432E-03     59.7942E-03
            4204            4461     59.5432E-03     59.7942E-03
            4244            4461     59.5432E-03     59.7942E-03
            4203            4461     59.5432E-03     59.7942E-03
            4245            4462     64.0120E-03     62.1940E-03
            4205            4462     64.0120E-03     62.1940E-03
            4204            4462     64.0120E-03     62.1940E-03
            4244            4462     64.0120E-03     62.1940E-03
            4205            4463     62.4707E-03     66.2440E-03
            4206            4463     62.4707E-03     66.2440E-03
            4245            4463     62.4707E-03     66.2440E-03
            4246            4463     62.4707E-03     66.2440E-03
            4206            4464     66.6125E-03     67.0414E-03
            4207            4464     66.6125E-03     67.0414E-03
            4246            4464     66.6125E-03     67.0414E-03
            4247            4464     66.6125E-03     67.0414E-03
            4248            4465     70.0661E-03     70.6591E-03
            4208            4465     70.0661E-03     70.6591E-03
            4247            4465     70.0661E-03     70.6591E-03
            4207            4465     70.0661E-03     70.6591E-03
            4209            4466     73.2313E-03     75.2479E-03
            4208            4466     73.2313E-03     75.2479E-03
            4249            4466     73.2313E-03     75.2479E-03
            4248            4466     73.2313E-03     75.2479E-03
            4209            4467     78.8980E-03     79.1537E-03
            4210            4467     78.8980E-03     79.1537E-03
            4249            4467     78.8980E-03     79.1537E-03
            4250            4467     78.8980E-03     79.1537E-03
            4210            4468     83.5823E-03     83.2328E-03
            4211            4468     83.5823E-03     83.2328E-03
            4250            4468     83.5823E-03     83.2328E-03
            4251            4468     83.5823E-03     83.2328E-03
            4252            4469     86.3001E-03     93.0133E-03
            4211            4469     86.3001E-03     93.0133E-03
            4212            4469     86.3001E-03     93.0133E-03
            4251            4469     86.3001E-03     93.0133E-03
            4212            4470     102.259E-03     92.6454E-03
            4213            4470     102.259E-03     92.6454E-03
            4253            4470     102.259E-03     92.6454E-03
            4252            4470     102.259E-03     92.6454E-03
            4214            4471     100.472E-03     98.5128E-03
            4213            4471     100.472E-03     98.5128E-03
            4253            4471     100.472E-03     98.5128E-03
            4254            4471     100.472E-03     98.5128E-03
            4255            4472     84.4436E-03     108.623E-03
            4214            4472     84.4436E-03     108.623E-03
            4215            4472     84.4436E-03     108.623E-03
            4254            4472     84.4436E-03     108.623E-03
            4255            4473     99.3476E-03     98.6708E-03
            4256            4473     99.3476E-03     98.6708E-03
            4216            4473     99.3476E-03     98.6708E-03
            4215            4473     99.3476E-03     98.6708E-03
            4256            4474     105.817E-03     100.507E-03
            4216            4474     105.817E-03     100.507E-03
            4257            4474     105.817E-03     100.507E-03
            4217            4474     105.817E-03     100.507E-03
            4257            4475     99.8683E-03     106.126E-03
            4258            4475     99.8683E-03     106.126E-03
            4217            4475     99.8683E-03     106.126E-03
            4218            4475     99.8683E-03     106.126E-03
            4219            4476     104.692E-03     104.488E-03
            4258            4476     104.692E-03     104.488E-03
            4218            4476     104.692E-03     104.488E-03
            4259            4476     104.692E-03     104.488E-03
            4219            4477     107.543E-03     109.356E-03
            4259            4477     107.543E-03     109.356E-03
            4220            4477     107.543E-03     109.356E-03
            4260            4477     107.543E-03     109.356E-03
            4260            4478     112.473E-03     113.393E-03
            4221            4478     112.473E-03     113.393E-03
            4220            4478     112.473E-03     113.393E-03
            4261            4478     112.473E-03     113.393E-03
            4222            4479     117.730E-03     116.835E-03
            4221            4479     117.730E-03     116.835E-03
            4261            4479     117.730E-03     116.835E-03
            4262            4479     117.730E-03     116.835E-03
            4262            4480     120.027E-03     128.986E-03
            4222            4480     120.027E-03     128.986E-03
            4263            4480     120.027E-03     128.986E-03
            4223            4480     120.027E-03     128.986E-03
            4263            4481     140.332E-03     127.460E-03
            4224            4481     140.332E-03     127.460E-03
            4264            4481     140.332E-03     127.460E-03
            4223            4481     140.332E-03     127.460E-03
            4264            4482     136.966E-03     134.219E-03
            4225            4482     136.966E-03     134.219E-03
            4224            4482     136.966E-03     134.219E-03
            4265            4482     136.966E-03     134.219E-03
            4265            4483     117.949E-03     137.291E-03
            4225            4483     117.949E-03     137.291E-03
            4226            4483     117.949E-03     137.291E-03
            4266            4483     117.949E-03     137.291E-03
            4227            4484     14.7747E-03     15.1664E-03
            4228            4484     14.7747E-03     15.1664E-03
            4268            4484     14.7747E-03     15.1664E-03
            4267            4484     14.7747E-03     15.1664E-03
            4229            4485     15.6001E-03     16.9758E-03
            4268            4485     15.6001E-03     16.9758E-03
            4269            4485     15.6001E-03     16.9758E-03
            4228            4485     15.6001E-03     16.9758E-03
            4229            4486     20.6228E-03     18.2389E-03
            4270            4486     20.6228E-03     18.2389E-03
            4269            4486     20.6228E-03     18.2389E-03
            4230            4486     20.6228E-03     18.2389E-03
            4271            4487     22.0084E-03     22.3937E-03
            4230            4487     22.0084E-03     22.3937E-03
            4270            4487     22.0084E-03     22.3937E-03
            4231            4487     22.0084E-03     22.3937E-03
            4231            4488     21.2344E-03     25.7526E-03
            4272            4488     21.2344E-03     25.7526E-03
            4271            4488     21.2344E-03     25.7526E-03
            4232            4488     21.2344E-03     25.7526E-03
            4272            4489     25.1204E-03     25.4502E-03
            4233            4489     25.1204E-03     25.4502E-03
            4273            4489     25.1204E-03     25.4502E-03
            4232            4489     25.1204E-03     25.4502E-03
            4234            4490     26.8501E-03     27.5019E-03
            4273            4490     26.8501E-03     27.5019E-03
            4233            4490     26.8501E-03     27.5019E-03
            4274            4490     26.8501E-03     27.5019E-03
            4234            4491     29.2257E-03     30.3997E-03
            4235            4491     29.2257E-03     30.3997E-03
            4275            4491     29.2257E-03     30.3997E-03
            4274            4491     29.2257E-03     30.3997E-03
            4236            4492     33.6780E-03     34.1427E-03
            4276            4492     33.6780E-03     34.1427E-03
            4235            4492     33.6780E-03     34.1427E-03
            4275            4492     33.6780E-03     34.1427E-03
            4276            4493     37.7918E-03     39.4953E-03
            4236            4493     37.7918E-03     39.4953E-03
            4237            4493     37.7918E-03     39.4953E-03
            4277            4493     37.7918E-03     39.4953E-03
            4278            4494     43.5250E-03     44.6575E-03
            4237            4494     43.5250E-03     44.6575E-03
            4277            4494     43.5250E-03     44.6575E-03
            4238            4494     43.5250E-03     44.6575E-03
            4239            4495     49.1040E-03     49.5346E-03
            4279            4495     49.1040E-03     49.5346E-03
            4238            4495     49.1040E-03     49.5346E-03
            4278            4495     49.1040E-03     49.5346E-03
            4280            4496     52.5364E-03     58.7353E-03
            4239            4496     52.5364E-03     58.7353E-03
            4279            4496     52.5364E-03     58.7353E-03
            4240            4496     52.5364E-03     58.7353E-03
            4281            4497     66.0053E-03     60.6087E-03
            4240            4497     66.0053E-03     60.6087E-03
            4280            4497     66.0053E-03     60.6087E-03
            4241            4497     66.0053E-03     60.6087E-03
            4281            4498     66.5988E-03     66.5179E-03
            4242            4498     66.5988E-03     66.5179E-03
            4282            4498     66.5988E-03     66.5179E-03
            4241            4498     66.5988E-03     66.5179E-03
            4282            4499     56.6463E-03     73.9686E-03
            4243            4499     56.6463E-03     73.9686E-03
            4242            4499     56.6463E-03     73.9686E-03
            4283            4499     56.6463E-03     73.9686E-03
            4243            4500     66.5096E-03     66.5384E-03
            4283            4500     66.5096E-03     66.5384E-03
            4244            4500     66.5096E-03     66.5384E-03
            4284            4500     66.5096E-03     66.5384E-03
            4285            4501     69.5948E-03     67.6073E-03
            4284            4501     69.5948E-03     67.6073E-03
            4245            4501     69.5948E-03     67.6073E-03
            4244            4501     69.5948E-03     67.6073E-03
            4286            4502     66.9575E-03     72.2125E-03
            4285            4502     66.9575E-03     72.2125E-03
            4245            4502     66.9575E-03     72.2125E-03
            4246            4502     66.9575E-03     72.2125E-03
            4246            4503     72.3697E-03     74.1357E-03
            4247            4503     72.3697E-03     74.1357E-03
            4286            4503     72.3697E-03     74.1357E-03
            4287            4503     72.3697E-03     74.1357E-03
            4247            4504     76.8176E-03     79.4149E-03
            4248            4504     76.8176E-03     79.4149E-03
            4287            4504     76.8176E-03     79.4149E-03
            4288            4504     76.8176E-03     79.4149E-03
            4249            4505     80.8888E-03     85.1994E-03
            4288            4505     80.8888E-03     85.1994E-03
            4289            4505     80.8888E-03     85.1994E-03
            4248            4505     80.8888E-03     85.1994E-03
            4290            4506     87.6707E-03     90.4887E-03
            4250            4506     87.6707E-03     90.4887E-03
            4289            4506     87.6707E-03     90.4887E-03
            4249            4506     87.6707E-03     90.4887E-03
            4251            4507     93.7475E-03     95.2417E-03
            4250            4507     93.7475E-03     95.2417E-03
            4291            4507     93.7475E-03     95.2417E-03
            4290            4507     93.7475E-03     95.2417E-03
            4251            4508     96.3467E-03     107.140E-03
            4252            4508     96.3467E-03     107.140E-03
            4292            4508     96.3467E-03     107.140E-03
            4291            4508     96.3467E-03     107.140E-03
            4293            4509     115.984E-03     107.503E-03
            4292            4509     115.984E-03     107.503E-03
            4252            4509     115.984E-03     107.503E-03
            4253            4509     115.984E-03     107.503E-03
            4294            4510     115.371E-03     115.004E-03
            4254            4510     115.371E-03     115.004E-03
            4253            4510     115.371E-03     115.004E-03
            4293            4510     115.371E-03     115.004E-03
            4294            4511     97.0052E-03     127.547E-03
            4254            4511     97.0052E-03     127.547E-03
            4295            4511     97.0052E-03     127.547E-03
            4255            4511     97.0052E-03     127.547E-03
            4295            4512     114.107E-03     113.817E-03
            4255            4512     114.107E-03     113.817E-03
            4256            4512     114.107E-03     113.817E-03
            4296            4512     114.107E-03     113.817E-03
            4296            4513     118.418E-03     113.465E-03
            4257            4513     118.418E-03     113.465E-03
            4297            4513     118.418E-03     113.465E-03
            4256            4513     118.418E-03     113.465E-03
            4257            4514     110.004E-03     119.748E-03
            4297            4514     110.004E-03     119.748E-03
            4258            4514     110.004E-03     119.748E-03
            4298            4514     110.004E-03     119.748E-03
            4298            4515     116.854E-03     118.872E-03
            4259            4515     116.854E-03     118.872E-03
            4299            4515     116.854E-03     118.872E-03
            4258            4515     116.854E-03     118.872E-03
            4299            4516     120.090E-03     125.631E-03
            4259            4516     120.090E-03     125.631E-03
            4300            4516     120.090E-03     125.631E-03
            4260            4516     120.090E-03     125.631E-03
            4301            4517     126.119E-03     131.029E-03
            4300            4517     126.119E-03     131.029E-03
            4261            4517     126.119E-03     131.029E-03
            4260            4517     126.119E-03     131.029E-03
            4261            4518     133.103E-03     135.021E-03
            4301            4518     133.103E-03     135.021E-03
            4262            4518     133.103E-03     135.021E-03
            4302            4518     133.103E-03     135.021E-03
            4303            4519     134.779E-03     149.579E-03
            4263            4519     134.779E-03     149.579E-03
            4262            4519     134.779E-03     149.579E-03
            4302            4519     134.779E-03     149.579E-03
            4263            4520     159.952E-03     148.773E-03
            4303            4520     159.952E-03     148.773E-03
            4304            4520     159.952E-03     148.773E-03
            4264            4520     159.952E-03     148.773E-03
            4305            4521     158.516E-03     157.964E-03
            4265            4521     158.516E-03     157.964E-03
            4264            4521     158.516E-03     157.964E-03
            4304            4521     158.516E-03     157.964E-03
            4306            4522     135.701E-03     160.247E-03
            4266            4522     135.701E-03     160.247E-03
            4305            4522     135.701E-03     160.247E-03
            4265            4522     135.701E-03     160.247E-03
            4268            4523     8.58204E-03     10.0328E-03
            4307            4523     8.58204E-03     10.0328E-03
            4267            4523     8.58204E-03     10.0328E-03
            4308            4523     8.58204E-03     10.0328E-03
            4308            4524     9.64037E-03     10.8814E-03
            4268            4524     9.64037E-03     10.8814E-03
            4269            4524     9.64037E-03     10.8814E-03
            4309            4524     9.64037E-03     10.8814E-03
            4309            4525     18.0165E-03     15.4520E-03
            4269            4525     18.0165E-03     15.4520E-03
            4310            4525     18.0165E-03     15.4520E-03
            4270            4525     18.0165E-03     15.4520E-03
            4310            4526     23.3817E-03     24.0659E-03
            4270            4526     23.3817E-03     24.0659E-03
            4271            4526     23.3817E-03     24.0659E-03
            4311            4526     23.3817E-03     24.0659E-03
            4312            4527     19.9842E-03     23.7770E-03
            4272            4527     19.9842E-03     23.7770E-03
            4271            4527     19.9842E-03     23.7770E-03
            4311            4527     19.9842E-03     23.7770E-03
            4312            4528     19.6972E-03     18.4942E-03
            4272            4528     19.6972E-03     18.4942E-03
            4273            4528     19.6972E-03     18.4942E-03
            4313            4528     19.6972E-03     18.4942E-03
            4314            4529     23.0212E-03     22.7696E-03
            4273            4529     23.0212E-03     22.7696E-03
            4313            4529     23.0212E-03     22.7696E-03
            4274            4529     23.0212E-03     22.7696E-03
            4314            4530     27.9418E-03     28.3056E-03
            4315            4530     27.9418E-03     28.3056E-03
            4275            4530     27.9418E-03     28.3056E-03
            4274            4530     27.9418E-03     28.3056E-03
            4316            4531     33.9360E-03     34.2824E-03
            4315            4531     33.9360E-03     34.2824E-03
            4275            4531     33.9360E-03     34.2824E-03
            4276            4531     33.9360E-03     34.2824E-03
            4277            4532     39.7577E-03     40.6687E-03
            4276            4532     39.7577E-03     40.6687E-03
            4317            4532     39.7577E-03     40.6687E-03
            4316            4532     39.7577E-03     40.6687E-03
            4318            4533     46.1171E-03     47.1202E-03
            4317            4533     46.1171E-03     47.1202E-03
            4278            4533     46.1171E-03     47.1202E-03
            4277            4533     46.1171E-03     47.1202E-03
            4279            4534     53.0258E-03     52.6796E-03
            4278            4534     53.0258E-03     52.6796E-03
            4319            4534     53.0258E-03     52.6796E-03
            4318            4534     53.0258E-03     52.6796E-03
            4320            4535     57.4311E-03     62.3658E-03
            4280            4535     57.4311E-03     62.3658E-03
            4319            4535     57.4311E-03     62.3658E-03
            4279            4535     57.4311E-03     62.3658E-03
            4280            4536     71.0805E-03     66.7108E-03
            4281            4536     71.0805E-03     66.7108E-03
            4320            4536     71.0805E-03     66.7108E-03
            4321            4536     71.0805E-03     66.7108E-03
            4321            4537     75.6958E-03     74.9865E-03
            4282            4537     75.6958E-03     74.9865E-03
            4322            4537     75.6958E-03     74.9865E-03
            4281            4537     75.6958E-03     74.9865E-03
            4282            4538     63.7304E-03     76.5392E-03
            4323            4538     63.7304E-03     76.5392E-03
            4322            4538     63.7304E-03     76.5392E-03
            4283            4538     63.7304E-03     76.5392E-03
            4283            4539     66.7598E-03     64.2794E-03
            4323            4539     66.7598E-03     64.2794E-03
            4284            4539     66.7598E-03     64.2794E-03
            4324            4539     66.7598E-03     64.2794E-03
            4324            4540     70.3813E-03     67.7208E-03
            4325            4540     70.3813E-03     67.7208E-03
            4284            4540     70.3813E-03     67.7208E-03
            4285            4540     70.3813E-03     67.7208E-03
            4325            4541     71.1600E-03     74.4969E-03
            4286            4541     71.1600E-03     74.4969E-03
            4285            4541     71.1600E-03     74.4969E-03
            4326            4541     71.1600E-03     74.4969E-03
            4327            4542     78.1386E-03     78.7299E-03
            4286            4542     78.1386E-03     78.7299E-03
            4287            4542     78.1386E-03     78.7299E-03
            4326            4542     78.1386E-03     78.7299E-03
            4288            4543     83.7446E-03     85.2834E-03
            4328            4543     83.7446E-03     85.2834E-03
            4327            4543     83.7446E-03     85.2834E-03
            4287            4543     83.7446E-03     85.2834E-03
            4288            4544     89.3317E-03     91.5440E-03
            4289            4544     89.3317E-03     91.5440E-03
            4329            4544     89.3317E-03     91.5440E-03
            4328            4544     89.3317E-03     91.5440E-03
            4290            4545     95.9424E-03     97.9179E-03
            4329            4545     95.9424E-03     97.9179E-03
            4289            4545     95.9424E-03     97.9179E-03
            4330            4545     95.9424E-03     97.9179E-03
            4331            4546     103.165E-03     102.974E-03
            4291            4546     103.165E-03     102.974E-03
            4330            4546     103.165E-03     102.974E-03
            4290            4546     103.165E-03     102.974E-03
            4331            4547     106.359E-03     114.554E-03
            4292            4547     106.359E-03     114.554E-03
            4291            4547     106.359E-03     114.554E-03
            4332            4547     106.359E-03     114.554E-03
            4293            4548     124.648E-03     117.630E-03
            4333            4548     124.648E-03     117.630E-03
            4292            4548     124.648E-03     117.630E-03
            4332            4548     124.648E-03     117.630E-03
            4333            4549     129.188E-03     127.286E-03
            4293            4549     129.188E-03     127.286E-03
            4334            4549     129.188E-03     127.286E-03
            4294            4549     129.188E-03     127.286E-03
            4334            4550     110.763E-03     133.384E-03
            4335            4550     110.763E-03     133.384E-03
            4294            4550     110.763E-03     133.384E-03
            4295            4550     110.763E-03     133.384E-03
            4295            4551     119.213E-03     115.578E-03
            4335            4551     119.213E-03     115.578E-03
            4336            4551     119.213E-03     115.578E-03
            4296            4551     119.213E-03     115.578E-03
            4337            4552     122.937E-03     117.765E-03
            4297            4552     122.937E-03     117.765E-03
            4296            4552     122.937E-03     117.765E-03
            4336            4552     122.937E-03     117.765E-03
            4297            4553     119.274E-03     125.881E-03
            4337            4553     119.274E-03     125.881E-03
            4338            4553     119.274E-03     125.881E-03
            4298            4553     119.274E-03     125.881E-03
            4338            4554     127.638E-03     128.177E-03
            4298            4554     127.638E-03     128.177E-03
            4339            4554     127.638E-03     128.177E-03
            4299            4554     127.638E-03     128.177E-03
            4300            4555     132.550E-03     135.736E-03
            4339            4555     132.550E-03     135.736E-03
            4340            4555     132.550E-03     135.736E-03
            4299            4555     132.550E-03     135.736E-03
            4301            4556     138.963E-03     142.241E-03
            4340            4556     138.963E-03     142.241E-03
            4300            4556     138.963E-03     142.241E-03
            4341            4556     138.963E-03     142.241E-03
            4302            4557     146.936E-03     146.745E-03
            4342            4557     146.936E-03     146.745E-03
            4301            4557     146.936E-03     146.745E-03
            4341            4557     146.936E-03     146.745E-03
            4343            4558     149.185E-03     160.305E-03
            4342            4558     149.185E-03     160.305E-03
            4303            4558     149.185E-03     160.305E-03
            4302            4558     149.185E-03     160.305E-03
            4304            4559     171.837E-03     162.475E-03
            4303            4559     171.837E-03     162.475E-03
            4344            4559     171.837E-03     162.475E-03
            4343            4559     171.837E-03     162.475E-03
            4344            4560     176.653E-03     173.705E-03
            4304            4560     176.653E-03     173.705E-03
            4345            4560     176.653E-03     173.705E-03
            4305            4560     176.653E-03     173.705E-03
            4345            4561     153.649E-03     173.405E-03
            4305            4561     153.649E-03     173.405E-03
            4306            4561     153.649E-03     173.405E-03
            4346            4561     153.649E-03     173.405E-03
            5283            5395     53.8733E-03     54.6342E-03
            5290            5395     53.8733E-03     54.6342E-03
            5289            5395     53.8733E-03     54.6342E-03
            5284            5395     53.8733E-03     54.6342E-03
            5290            5396     55.8419E-03     53.8404E-03
            5284            5396     55.8419E-03     53.8404E-03
            5291            5396     55.8419E-03     53.8404E-03
            5285            5396     55.8419E-03     53.8404E-03
            5292            5397     53.6477E-03     57.5826E-03
            5291            5397     53.6477E-03     57.5826E-03
            5286            5397     53.6477E-03     57.5826E-03
            5285            5397     53.6477E-03     57.5826E-03
            5287            5398     58.2636E-03     56.0441E-03
            5292            5398     58.2636E-03     56.0441E-03
            5286            5398     58.2636E-03     56.0441E-03
            5293            5398     58.2636E-03     56.0441E-03
            5288            5399     56.6721E-03     53.7810E-03
            5287            5399     56.6721E-03     53.7810E-03
            5293            5399     56.6721E-03     53.7810E-03
            5294            5399     56.6721E-03     53.7810E-03
            5295            5400     81.9322E-03     79.3849E-03
            5290            5400     81.9322E-03     79.3849E-03
            5296            5400     81.9322E-03     79.3849E-03
            5289            5400     81.9322E-03     79.3849E-03
            5296            5401     87.2460E-03     82.6495E-03
            5297            5401     87.2460E-03     82.6495E-03
            5291            5401     87.2460E-03     82.6495E-03
            5290            5401     87.2460E-03     82.6495E-03
            5297            5402     82.6647E-03     91.5282E-03
            5292            5402     82.6647E-03     91.5282E-03
            5291            5402     82.6647E-03     91.5282E-03
            5298            5402     82.6647E-03     91.5282E-03
            5298            5403     92.0928E-03     86.7832E-03
            5293            5403     92.0928E-03     86.7832E-03
            5292            5403     92.0928E-03     86.7832E-03
            5299            5403     92.0928E-03     86.7832E-03
            5293            5404     87.9084E-03     85.1640E-03
            5300            5404     87.9084E-03     85.1640E-03
            5294            5404     87.9084E-03     85.1640E-03
            5299            5404     87.9084E-03     85.1640E-03
            5301            5405     110.729E-03     106.416E-03
            5296            5405     110.729E-03     106.416E-03
            5295            5405     110.729E-03     106.416E-03
            5302            5405     110.729E-03     106.416E-03
            5296            5406     119.672E-03     111.885E-03
            5297            5406     119.672E-03     111.885E-03
            5302            5406     119.672E-03     111.885E-03
            5303            5406     119.672E-03     111.885E-03
            5298            5407     113.224E-03     124.668E-03
            5304            5407     113.224E-03     124.668E-03
            5303            5407     113.224E-03     124.668E-03
            5297            5407     113.224E-03     124.668E-03
            5299            5408     128.091E-03     117.097E-03
            5298            5408     128.091E-03     117.097E-03
            5305            5408     128.091E-03     117.097E-03
            5304            5408     128.091E-03     117.097E-03
            5300            5409     121.315E-03     116.763E-03
            5305            5409     121.315E-03     116.763E-03
            5306            5409     121.315E-03     116.763E-03
            5299            5409     121.315E-03     116.763E-03
            5301            5410     136.902E-03     132.547E-03
            5302            5410     136.902E-03     132.547E-03
            5308            5410     136.902E-03     132.547E-03
            5307            5410     136.902E-03     132.547E-03
            5302            5411     147.034E-03     135.114E-03
            5308            5411     147.034E-03     135.114E-03
            5303            5411     147.034E-03     135.114E-03
            5309            5411     147.034E-03     135.114E-03
            5303            5412     136.250E-03     150.823E-03
            5310            5412     136.250E-03     150.823E-03
            5304            5412     136.250E-03     150.823E-03
            5309            5412     136.250E-03     150.823E-03
            5304            5413     157.776E-03     140.069E-03
            5311            5413     157.776E-03     140.069E-03
            5310            5413     157.776E-03     140.069E-03
            5305            5413     157.776E-03     140.069E-03
            5311            5414     150.714E-03     145.577E-03
            5306            5414     150.714E-03     145.577E-03
            5305            5414     150.714E-03     145.577E-03
            5312            5414     150.714E-03     145.577E-03
            5313            5415     157.310E-03     154.499E-03
            5314            5415     157.310E-03     154.499E-03
            5308            5415     157.310E-03     154.499E-03
            5307            5415     157.310E-03     154.499E-03
            5308            5416     165.327E-03     153.473E-03
            5315            5416     165.327E-03     153.473E-03
            5314            5416     165.327E-03     153.473E-03
            5309            5416     165.327E-03     153.473E-03
            5315            5417     149.659E-03     171.542E-03
            5309            5417     149.659E-03     171.542E-03
            5310            5417     149.659E-03     171.542E-03
            5316            5417     149.659E-03     171.542E-03
            5317            5418     178.558E-03     161.368E-03
            5316            5418     178.558E-03     161.368E-03
            5311            5418     178.558E-03     161.368E-03
            5310            5418     178.558E-03     161.368E-03
            5312            5419     173.921E-03     171.961E-03
            5317            5419     173.921E-03     171.961E-03
            5311            5419     173.921E-03     171.961E-03
            5318            5419     173.921E-03     171.961E-03
            5314            5420     166.897E-03     162.462E-03
            5320            5420     166.897E-03     162.462E-03
            5313            5420     166.897E-03     162.462E-03
            5319            5420     166.897E-03     162.462E-03
            5314            5421     174.031E-03     162.867E-03
            5315            5421     174.031E-03     162.867E-03
            5320            5421     174.031E-03     162.867E-03
            5321            5421     174.031E-03     162.867E-03
            5316            5422     163.337E-03     181.365E-03
            5321            5422     163.337E-03     181.365E-03
            5315            5422     163.337E-03     181.365E-03
            5322            5422     163.337E-03     181.365E-03
            5323            5423     191.548E-03     177.182E-03
            5316            5423     191.548E-03     177.182E-03
            5322            5423     191.548E-03     177.182E-03
            5317            5423     191.548E-03     177.182E-03
            5323            5424     194.552E-03     191.580E-03
            5317            5424     194.552E-03     191.580E-03
            5318            5424     194.552E-03     191.580E-03
            5324            5424     194.552E-03     191.580E-03
            6568            6525     2.89498E-15     2.46224E-15
            6574            6525     2.89498E-15     2.46224E-15
            6573            6525     2.89498E-15     2.46224E-15
            6567            6525     2.89498E-15     2.46224E-15
            6569            6526     2.92585E-15     2.34382E-15
            6574            6526     2.92585E-15     2.34382E-15
            6575            6526     2.92585E-15     2.34382E-15
            6568            6526     2.92585E-15     2.34382E-15
            6576            6527     2.30179E-15     2.25463E-15
            6575            6527     2.30179E-15     2.25463E-15
            6570            6527     2.30179E-15     2.25463E-15
            6569            6527     2.30179E-15     2.25463E-15
            6571            6528     2.93887E-15     2.63261E-15
            6576            6528     2.93887E-15     2.63261E-15
            6577            6528     2.93887E-15     2.63261E-15
            6570            6528     2.93887E-15     2.63261E-15
            6577            6529     3.79100E-15     2.87268E-15
            6578            6529     3.79100E-15     2.87268E-15
            6572            6529     3.79100E-15     2.87268E-15
            6571            6529     3.79100E-15     2.87268E-15
            6574            6530     1.39434E-15     1.34357E-15
            6579            6530     1.39434E-15     1.34357E-15
            6580            6530     1.39434E-15     1.34357E-15
            6573            6530     1.39434E-15     1.34357E-15
            6574            6531     1.54535E-15     1.53320E-15
            6581            6531     1.54535E-15     1.53320E-15
            6575            6531     1.54535E-15     1.53320E-15
            6580            6531     1.54535E-15     1.53320E-15
            6576            6532     2.75323E-15     2.88302E-15
            6575            6532     2.75323E-15     2.88302E-15
            6582            6532     2.75323E-15     2.88302E-15
            6581            6532     2.75323E-15     2.88302E-15
            6576            6533     4.35787E-15     3.64012E-15
            6577            6533     4.35787E-15     3.64012E-15
            6582            6533     4.35787E-15     3.64012E-15
            6583            6533     4.35787E-15     3.64012E-15
            6578            6534     4.39343E-15     2.84127E-15
            6577            6534     4.39343E-15     2.84127E-15
            6584            6534     4.39343E-15     2.84127E-15
            6583            6534     4.39343E-15     2.84127E-15
            6585            6535     2.35083E-15     2.35357E-15
            6580            6535     2.35083E-15     2.35357E-15
            6586            6535     2.35083E-15     2.35357E-15
            6579            6535     2.35083E-15     2.35357E-15
            6586            6536     2.38825E-15     2.49217E-15
            6580            6536     2.38825E-15     2.49217E-15
            6581            6536     2.38825E-15     2.49217E-15
            6587            6536     2.38825E-15     2.49217E-15
            6588            6537     3.21110E-15     3.35315E-15
            6581            6537     3.21110E-15     3.35315E-15
            6587            6537     3.21110E-15     3.35315E-15
            6582            6537     3.21110E-15     3.35315E-15
            6583            6538     3.87723E-15     3.81827E-15
            6582            6538     3.87723E-15     3.81827E-15
            6588            6538     3.87723E-15     3.81827E-15
            6589            6538     3.87723E-15     3.81827E-15
            6589            6539     3.45320E-15     2.83997E-15
            6590            6539     3.45320E-15     2.83997E-15
            6583            6539     3.45320E-15     2.83997E-15
            6584            6539     3.45320E-15     2.83997E-15
            6591            6540     2.19938E-15     2.15293E-15
            6586            6540     2.19938E-15     2.15293E-15
            6592            6540     2.19938E-15     2.15293E-15
            6585            6540     2.19938E-15     2.15293E-15
            6592            6541     2.33963E-15     2.13259E-15
            6587            6541     2.33963E-15     2.13259E-15
            6586            6541     2.33963E-15     2.13259E-15
            6593            6541     2.33963E-15     2.13259E-15
            6594            6542     3.32218E-15     2.95174E-15
            6588            6542     3.32218E-15     2.95174E-15
            6593            6542     3.32218E-15     2.95174E-15
            6587            6542     3.32218E-15     2.95174E-15
            6589            6543     3.24760E-15     3.13871E-15
            6594            6543     3.24760E-15     3.13871E-15
            6595            6543     3.24760E-15     3.13871E-15
            6588            6543     3.24760E-15     3.13871E-15
            6595            6544     2.77546E-15     2.54249E-15
            6596            6544     2.77546E-15     2.54249E-15
            6589            6544     2.77546E-15     2.54249E-15
            6590            6544     2.77546E-15     2.54249E-15
            6598            6545     1.07298E-15     1.16757E-15
            6597            6545     1.07298E-15     1.16757E-15
            6592            6545     1.07298E-15     1.16757E-15
            6591            6545     1.07298E-15     1.16757E-15
            6593            6546     1.16081E-15     1.26896E-15
            6599            6546     1.16081E-15     1.26896E-15
            6592            6546     1.16081E-15     1.26896E-15
            6598            6546     1.16081E-15     1.26896E-15
            6599            6547     1.94095E-15     1.79246E-15
            6593            6547     1.94095E-15     1.79246E-15
            6594            6547     1.94095E-15     1.79246E-15
            6600            6547     1.94095E-15     1.79246E-15
            6600            6548     2.39001E-15     1.94574E-15
            6594            6548     2.39001E-15     1.94574E-15
            6601            6548     2.39001E-15     1.94574E-15
            6595            6548     2.39001E-15     1.94574E-15
            6595            6549     2.15052E-15     1.68117E-15
            6601            6549     2.15052E-15     1.68117E-15
            6596            6549     2.15052E-15     1.68117E-15
            6602            6549     2.15052E-15     1.68117E-15
            6597            6550     853.790E-18     857.051E-18
            6603            6550     853.790E-18     857.051E-18
            6598            6550     853.790E-18     857.051E-18
            6604            6550     853.790E-18     857.051E-18
            6605            6551     810.821E-18     1.00806E-15
            6599            6551     810.821E-18     1.00806E-15
            6598            6551     810.821E-18     1.00806E-15
            6604            6551     810.821E-18     1.00806E-15
            6600            6552     714.307E-18     1.08033E-15
            6605            6552     714.307E-18     1.08033E-15
            6599            6552     714.307E-18     1.08033E-15
            6606            6552     714.307E-18     1.08033E-15
            6600            6553     1.14836E-15     1.10280E-15
            6601            6553     1.14836E-15     1.10280E-15
            6607            6553     1.14836E-15     1.10280E-15
            6606            6553     1.14836E-15     1.10280E-15
            6607            6554     1.25163E-15     988.180E-18
            6602            6554     1.25163E-15     988.180E-18
            6601            6554     1.25163E-15     988.180E-18
            6608            6554     1.25163E-15     988.180E-18


  Minimum                            405.059E-18     339.381E-18
      At Element                            1784             499
            Node                              18              14

  Maximum                            204.843E-03     220.453E-03
      At Element                            5324            5324
            Node                             629              22

           Total                         403.447         408.937


Field Output reported at element nodes for region: A320-1.Region_4
   Computation algorithm: EXTRAPOLATE_COMPUTE_AVERAGE
   Averaged at nodes
   Averaging regions: ODB_REGIONS

   Element Label      Node Label         S.Mises         S.Mises
                                          @Loc 1          @Loc 2
-----------------------------------------------------------------
            5049              13     2.65968E-03     5.02561E-03
            5739              13     2.65968E-03     5.02561E-03
            5829              14     507.627E-18     746.089E-18
            2510              16     4.14592E-03     5.01507E-03
             785              16     4.14592E-03     5.01507E-03
            2493              17     3.14263E-03     5.00914E-03
             802              17     3.14263E-03     5.00914E-03
             856              18     1.86629E-15     2.44621E-15
             839              19     1.84152E-15     1.34479E-15
            3392              20     7.30923E-03     9.89017E-03
            2402              20     7.30923E-03     9.89017E-03
            3375              21     164.954E-03     170.605E-03
            2385              21     164.954E-03     170.605E-03
            5175              22     185.770E-03     197.365E-03
            2475              22     185.770E-03     197.365E-03
            5192              23     5.45410E-03     8.46158E-03
            2492              23     5.45410E-03     8.46158E-03
            4364              24     12.6851E-03     15.9183E-03
            5282              24     12.6851E-03     15.9183E-03
            5265              25     153.214E-03     154.518E-03
            4347              25     153.214E-03     154.518E-03
            5066              26     4.60764E-03     5.33649E-03
            5756              26     4.60764E-03     5.33649E-03
            5846              28     410.324E-18     530.096E-18
            5739             194     250.998E-18     445.673E-18
            5757             194     250.998E-18     445.673E-18
            5775             195     444.506E-18     579.525E-18
            5757             195     444.506E-18     579.525E-18
            5793             196     546.093E-18     487.667E-18
            5775             196     546.093E-18     487.667E-18
            5811             197     1.22503E-15     879.381E-18
            5793             197     1.22503E-15     879.381E-18
            5829             198     1.25113E-15     1.04746E-15
            5811             198     1.25113E-15     1.04746E-15
            2510             289     4.40665E-03     4.91112E-03
             786             289     4.40665E-03     4.91112E-03
             785             289     4.40665E-03     4.91112E-03
            2509             289     4.40665E-03     4.91112E-03
             786             290     4.73225E-03     4.71369E-03
            2508             290     4.73225E-03     4.71369E-03
             787             290     4.73225E-03     4.71369E-03
            2509             290     4.73225E-03     4.71369E-03
            2508             291     4.86954E-03     4.66714E-03
            2507             291     4.86954E-03     4.66714E-03
             788             291     4.86954E-03     4.66714E-03
             787             291     4.86954E-03     4.66714E-03
             788             292     4.99704E-03     4.71463E-03
             789             292     4.99704E-03     4.71463E-03
            2507             292     4.99704E-03     4.71463E-03
            2506             292     4.99704E-03     4.71463E-03
            2505             293     5.12321E-03     4.76098E-03
             790             293     5.12321E-03     4.76098E-03
             789             293     5.12321E-03     4.76098E-03
            2506             293     5.12321E-03     4.76098E-03
             791             294     5.26209E-03     4.83691E-03
            2505             294     5.26209E-03     4.83691E-03
             790             294     5.26209E-03     4.83691E-03
            2504             294     5.26209E-03     4.83691E-03
             792             295     5.40549E-03     4.92156E-03
             791             295     5.40549E-03     4.92156E-03
            2503             295     5.40549E-03     4.92156E-03
            2504             295     5.40549E-03     4.92156E-03
            2502             296     5.55466E-03     5.01219E-03
            2503             296     5.55466E-03     5.01219E-03
             792             296     5.55466E-03     5.01219E-03
             793             296     5.55466E-03     5.01219E-03
            2501             297     5.70071E-03     5.10760E-03
             793             297     5.70071E-03     5.10760E-03
             794             297     5.70071E-03     5.10760E-03
            2502             297     5.70071E-03     5.10760E-03
             795             298     5.83277E-03     5.18379E-03
            2500             298     5.83277E-03     5.18379E-03
             794             298     5.83277E-03     5.18379E-03
            2501             298     5.83277E-03     5.18379E-03
            2499             299     5.92992E-03     5.23111E-03
             795             299     5.92992E-03     5.23111E-03
             796             299     5.92992E-03     5.23111E-03
            2500             299     5.92992E-03     5.23111E-03
             796             300     5.96265E-03     5.20628E-03
             797             300     5.96265E-03     5.20628E-03
            2499             300     5.96265E-03     5.20628E-03
            2498             300     5.96265E-03     5.20628E-03
             797             301     5.84883E-03     5.03182E-03
             798             301     5.84883E-03     5.03182E-03
            2497             301     5.84883E-03     5.03182E-03
            2498             301     5.84883E-03     5.03182E-03
             798             302     5.55730E-03     4.64987E-03
            2497             302     5.55730E-03     4.64987E-03
            2496             302     5.55730E-03     4.64987E-03
             799             302     5.55730E-03     4.64987E-03
            2496             303     4.79622E-03     3.77024E-03
            2495             303     4.79622E-03     3.77024E-03
             800             303     4.79622E-03     3.77024E-03
             799             303     4.79622E-03     3.77024E-03
            2494             304     3.59156E-03     2.38014E-03
             800             304     3.59156E-03     2.38014E-03
             801             304     3.59156E-03     2.38014E-03
            2495             304     3.59156E-03     2.38014E-03
            2493             305     3.05401E-03     3.30804E-03
             801             305     3.05401E-03     3.30804E-03
             802             305     3.05401E-03     3.30804E-03
            2494             305     3.05401E-03     3.30804E-03
             820             306     1.43343E-15     2.16251E-15
             802             306     1.43343E-15     2.16251E-15
             838             307     1.77073E-15     1.87583E-15
             820             307     1.77073E-15     1.87583E-15
             838             308     1.93594E-15     2.07819E-15
             856             308     1.93594E-15     2.07819E-15
             856             309     1.83254E-15     2.39060E-15
             855             309     1.83254E-15     2.39060E-15
             855             310     1.35136E-15     2.03698E-15
             854             310     1.35136E-15     2.03698E-15
             853             311     603.771E-18     1.39913E-15
             854             311     603.771E-18     1.39913E-15
             852             312     910.270E-18     1.46122E-15
             853             312     910.270E-18     1.46122E-15
             852             313     2.06208E-15     1.72698E-15
             851             313     2.06208E-15     1.72698E-15
             850             314     1.98375E-15     1.47053E-15
             851             314     1.98375E-15     1.47053E-15
             849             315     1.32190E-15     930.645E-18
             850             315     1.32190E-15     930.645E-18
             849             316     981.121E-18     1.12108E-15
             848             316     981.121E-18     1.12108E-15
             848             317     728.758E-18     1.03065E-15
             847             317     728.758E-18     1.03065E-15
             846             318     617.701E-18     322.538E-18
             847             318     617.701E-18     322.538E-18
             845             319     752.997E-18     759.443E-18
             846             319     752.997E-18     759.443E-18
             845             320     858.204E-18     822.418E-18
             844             320     858.204E-18     822.418E-18
             843             321     614.179E-18     405.031E-18
             844             321     614.179E-18     405.031E-18
             843             322     874.142E-18     1.33320E-15
             842             322     874.142E-18     1.33320E-15
             842             323     1.10711E-15     2.28361E-15
             841             323     1.10711E-15     2.28361E-15
             840             324     869.850E-18     1.59692E-15
             841             324     869.850E-18     1.59692E-15
             839             325     1.27696E-15     1.13430E-15
             840             325     1.27696E-15     1.13430E-15
             821             326     1.39230E-15     1.41941E-15
             839             326     1.39230E-15     1.41941E-15
             803             327     1.15712E-15     1.25557E-15
             821             327     1.15712E-15     1.25557E-15
             803             328     937.326E-18     626.186E-18
             785             328     937.326E-18     626.186E-18
            3374             363     9.04349E-03     12.9241E-03
            3392             363     9.04349E-03     12.9241E-03
            3356             364     5.27905E-03     8.96567E-03
            3374             364     5.27905E-03     8.96567E-03
            3356             365     3.79215E-03     6.46636E-03
            3338             365     3.79215E-03     6.46636E-03
            3320             366     5.57692E-03     8.07244E-03
            3338             366     5.57692E-03     8.07244E-03
            3320             367     9.74877E-03     10.6003E-03
            3302             367     9.74877E-03     10.6003E-03
            3284             368     13.8505E-03     14.8576E-03
            3302             368     13.8505E-03     14.8576E-03
            3266             369     18.0521E-03     18.6330E-03
            3284             369     18.0521E-03     18.6330E-03
            3266             370     22.9155E-03     24.2290E-03
            3248             370     22.9155E-03     24.2290E-03
            3230             371     25.9095E-03     30.8617E-03
            3248             371     25.9095E-03     30.8617E-03
            3212             372     16.9372E-03     20.9411E-03
            3230             372     16.9372E-03     20.9411E-03
            3194             373     5.57570E-03     8.48380E-03
            3212             373     5.57570E-03     8.48380E-03
            3194             374     3.13086E-03     6.15410E-03
            3176             374     3.13086E-03     6.15410E-03
            3176             375     3.10349E-03     5.01560E-03
            3158             375     3.10349E-03     5.01560E-03
            3140             376     5.43572E-03     6.53283E-03
            3158             376     5.43572E-03     6.53283E-03
            3140             377     8.35601E-03     8.96444E-03
            3122             377     8.35601E-03     8.96444E-03
            3122             378     11.3936E-03     11.4665E-03
            3104             378     11.3936E-03     11.4665E-03
            3086             379     14.3241E-03     14.8364E-03
            3104             379     14.3241E-03     14.8364E-03
            3068             380     17.3591E-03     17.5655E-03
            3086             380     17.3591E-03     17.5655E-03
            3068             381     20.9279E-03     21.8577E-03
            3050             381     20.9279E-03     21.8577E-03
            3032             382     22.9173E-03     27.0725E-03
            3050             382     22.9173E-03     27.0725E-03
            3014             383     12.8631E-03     16.1426E-03
            3032             383     12.8631E-03     16.1426E-03
            3014             384     1.82886E-03     3.75225E-03
            2996             384     1.82886E-03     3.75225E-03
            2978             385     2.26024E-03     3.84998E-03
            2996             385     2.26024E-03     3.84998E-03
            2978             386     4.46463E-03     4.80458E-03
            2960             386     4.46463E-03     4.80458E-03
            2960             387     6.64020E-03     6.55428E-03
            2942             387     6.64020E-03     6.55428E-03
            2924             388     8.69545E-03     8.60559E-03
            2942             388     8.69545E-03     8.60559E-03
            2906             389     10.7971E-03     10.4442E-03
            2924             389     10.7971E-03     10.4442E-03
            2906             390     12.7969E-03     12.8343E-03
            2888             390     12.7969E-03     12.8343E-03
            2870             391     14.8312E-03     14.7208E-03
            2888             391     14.8312E-03     14.7208E-03
            2870             392     17.2751E-03     17.7444E-03
            2852             392     17.2751E-03     17.7444E-03
            2834             393     18.4016E-03     21.5463E-03
            2852             393     18.4016E-03     21.5463E-03
            2816             394     10.5282E-03     13.2080E-03
            2834             394     10.5282E-03     13.2080E-03
            2816             395     3.74380E-03     4.21338E-03
            2798             395     3.74380E-03     4.21338E-03
            2780             396     5.44674E-03     5.09871E-03
            2798             396     5.44674E-03     5.09871E-03
            2762             397     6.71743E-03     6.27705E-03
            2780             397     6.71743E-03     6.27705E-03
            2744             398     7.98872E-03     7.39441E-03
            2762             398     7.98872E-03     7.39441E-03
            2726             399     9.10559E-03     8.57055E-03
            2744             399     9.10559E-03     8.57055E-03
            2726             400     10.2337E-03     9.59890E-03
            2708             400     10.2337E-03     9.59890E-03
            2690             401     11.2895E-03     10.9355E-03
            2708             401     11.2895E-03     10.9355E-03
            2672             402     12.3154E-03     11.9376E-03
            2690             402     12.3154E-03     11.9376E-03
            2654             403     13.6302E-03     13.6719E-03
            2672             403     13.6302E-03     13.6719E-03
            2636             404     13.8899E-03     16.0464E-03
            2654             404     13.8899E-03     16.0464E-03
            2636             405     9.79417E-03     12.0419E-03
            2618             405     9.79417E-03     12.0419E-03
            2618             406     6.87117E-03     7.46218E-03
            2600             406     6.87117E-03     7.46218E-03
            2582             407     7.94328E-03     7.13121E-03
            2600             407     7.94328E-03     7.13121E-03
            2582             408     8.32697E-03     7.45748E-03
            2564             408     8.32697E-03     7.45748E-03
            2546             409     8.72435E-03     7.82906E-03
            2564             409     8.72435E-03     7.82906E-03
            2528             410     9.16925E-03     8.49261E-03
            2546             410     9.16925E-03     8.49261E-03
            2510             411     8.80618E-03     9.76005E-03
            2528             411     8.80618E-03     9.76005E-03
            3357             440     172.630E-03     173.428E-03
            3375             440     172.630E-03     173.428E-03
            3339             441     169.304E-03     169.232E-03
            3357             441     169.304E-03     169.232E-03
            3321             442     164.429E-03     167.451E-03
            3339             442     164.429E-03     167.451E-03
            3303             443     161.046E-03     161.967E-03
            3321             443     161.046E-03     161.967E-03
            3285             444     156.127E-03     158.325E-03
            3303             444     156.127E-03     158.325E-03
            3267             445     152.115E-03     152.936E-03
            3285             445     152.115E-03     152.936E-03
            3249             446     146.583E-03     148.467E-03
            3267             446     146.583E-03     148.467E-03
            3231             447     140.747E-03     140.809E-03
            3249             447     140.747E-03     140.809E-03
            3231             448     133.632E-03     131.709E-03
            3213             448     133.632E-03     131.709E-03
            3195             449     133.760E-03     137.592E-03
            3213             449     133.760E-03     137.592E-03
            3195             450     139.200E-03     140.111E-03
            3177             450     139.200E-03     140.111E-03
            3159             451     135.535E-03     135.502E-03
            3177             451     135.535E-03     135.502E-03
            3141             452     130.684E-03     133.056E-03
            3159             452     130.684E-03     133.056E-03
            3123             453     127.017E-03     127.893E-03
            3141             453     127.017E-03     127.893E-03
            3105             454     122.571E-03     124.063E-03
            3123             454     122.571E-03     124.063E-03
            3087             455     118.481E-03     119.492E-03
            3105             455     118.481E-03     119.492E-03
            3087             456     113.815E-03     114.674E-03
            3069             456     113.815E-03     114.674E-03
            3069             457     108.885E-03     109.857E-03
            3051             457     108.885E-03     109.857E-03
            3051             458     103.033E-03     103.155E-03
            3033             458     103.033E-03     103.155E-03
            3015             459     96.4689E-03     94.5938E-03
            3033             459     96.4689E-03     94.5938E-03
            2997             460     97.1942E-03     100.021E-03
            3015             460     97.1942E-03     100.021E-03
            2979             461     101.873E-03     102.943E-03
            2997             461     101.873E-03     102.943E-03
            2961             462     97.8239E-03     97.7362E-03
            2979             462     97.8239E-03     97.7362E-03
            2943             463     92.8417E-03     94.6498E-03
            2961             463     92.8417E-03     94.6498E-03
            2943             464     89.0008E-03     89.5752E-03
            2925             464     89.0008E-03     89.5752E-03
            2925             465     84.5417E-03     85.6109E-03
            2907             465     84.5417E-03     85.6109E-03
            2889             466     80.4728E-03     81.0614E-03
            2907             466     80.4728E-03     81.0614E-03
            2889             467     75.8633E-03     76.4172E-03
            2871             467     75.8633E-03     76.4172E-03
            2853             468     71.1494E-03     71.5524E-03
            2871             468     71.1494E-03     71.5524E-03
            2853             469     65.4810E-03     65.5280E-03
            2835             469     65.4810E-03     65.5280E-03
            2817             470     59.3130E-03     57.6229E-03
            2835             470     59.3130E-03     57.6229E-03
            2817             471     60.6645E-03     62.5354E-03
            2799             471     60.6645E-03     62.5354E-03
            2781             472     64.6843E-03     65.9117E-03
            2799             472     64.6843E-03     65.9117E-03
            2763             473     60.3212E-03     60.1519E-03
            2781             473     60.3212E-03     60.1519E-03
            2745             474     55.2590E-03     56.4792E-03
            2763             474     55.2590E-03     56.4792E-03
            2745             475     51.3010E-03     51.5541E-03
            2727             475     51.3010E-03     51.5541E-03
            2709             476     46.8941E-03     47.5172E-03
            2727             476     46.8941E-03     47.5172E-03
            2709             477     42.9189E-03     43.0640E-03
            2691             477     42.9189E-03     43.0640E-03
            2691             478     38.4674E-03     38.6805E-03
            2673             478     38.4674E-03     38.6805E-03
            2655             479     34.0808E-03     33.8799E-03
            2673             479     34.0808E-03     33.8799E-03
            2637             480     28.8100E-03     28.6619E-03
            2655             480     28.8100E-03     28.6619E-03
            2619             481     23.1051E-03     21.8288E-03
            2637             481     23.1051E-03     21.8288E-03
            2601             482     23.9873E-03     25.0993E-03
            2619             482     23.9873E-03     25.0993E-03
            2601             483     26.1435E-03     27.4617E-03
            2583             483     26.1435E-03     27.4617E-03
            2583             484     21.3915E-03     20.9363E-03
            2565             484     21.3915E-03     20.9363E-03
            2565             485     16.1503E-03     16.5905E-03
            2547             485     16.1503E-03     16.5905E-03
            2547             486     12.2119E-03     11.6565E-03
            2529             486     12.2119E-03     11.6565E-03
            2511             487     8.63561E-03     8.00628E-03
            2529             487     8.63561E-03     8.00628E-03
            2493             488     6.70724E-03     8.28400E-03
            2511             488     6.70724E-03     8.28400E-03
            2403             520     160.679E-03     163.266E-03
            2385             520     160.679E-03     163.266E-03
            2421             521     168.709E-03     166.883E-03
            2403             521     168.709E-03     166.883E-03
            2421             522     175.109E-03     177.335E-03
            2439             522     175.109E-03     177.335E-03
            2457             523     181.824E-03     182.820E-03
            2439             523     181.824E-03     182.820E-03
            2457             524     186.296E-03     187.613E-03
            2475             524     186.296E-03     187.613E-03
            3375             531     155.914E-03     160.251E-03
            2386             531     155.914E-03     160.251E-03
            2385             531     155.914E-03     160.251E-03
            3376             531     155.914E-03     160.251E-03
            3376             532     141.684E-03     144.160E-03
            2387             532     141.684E-03     144.160E-03
            2386             532     141.684E-03     144.160E-03
            3377             532     141.684E-03     144.160E-03
            2388             533     131.194E-03     133.401E-03
            3377             533     131.194E-03     133.401E-03
            2387             533     131.194E-03     133.401E-03
            3378             533     131.194E-03     133.401E-03
            2388             534     121.396E-03     123.776E-03
            3378             534     121.396E-03     123.776E-03
            2389             534     121.396E-03     123.776E-03
            3379             534     121.396E-03     123.776E-03
            2389             535     112.280E-03     114.799E-03
            2390             535     112.280E-03     114.799E-03
            3379             535     112.280E-03     114.799E-03
            3380             535     112.280E-03     114.799E-03
            2391             536     103.348E-03     106.108E-03
            2390             536     103.348E-03     106.108E-03
            3381             536     103.348E-03     106.108E-03
            3380             536     103.348E-03     106.108E-03
            3382             537     94.6357E-03     97.5350E-03
            2391             537     94.6357E-03     97.5350E-03
            2392             537     94.6357E-03     97.5350E-03
            3381             537     94.6357E-03     97.5350E-03
            3383             538     85.9625E-03     89.0108E-03
            2393             538     85.9625E-03     89.0108E-03
            2392             538     85.9625E-03     89.0108E-03
            3382             538     85.9625E-03     89.0108E-03
            2394             539     77.3593E-03     80.4836E-03
            2393             539     77.3593E-03     80.4836E-03
            3383             539     77.3593E-03     80.4836E-03
            3384             539     77.3593E-03     80.4836E-03
            3384             540     68.7574E-03     71.9434E-03
            2394             540     68.7574E-03     71.9434E-03
            3385             540     68.7574E-03     71.9434E-03
            2395             540     68.7574E-03     71.9434E-03
            3385             541     60.1827E-03     63.3794E-03
            3386             541     60.1827E-03     63.3794E-03
            2396             541     60.1827E-03     63.3794E-03
            2395             541     60.1827E-03     63.3794E-03
            3387             542     51.6232E-03     54.7967E-03
            2396             542     51.6232E-03     54.7967E-03
            3386             542     51.6232E-03     54.7967E-03
            2397             542     51.6232E-03     54.7967E-03
            2398             543     43.1088E-03     46.2009E-03
            3387             543     43.1088E-03     46.2009E-03
            3388             543     43.1088E-03     46.2009E-03
            2397             543     43.1088E-03     46.2009E-03
            3388             544     34.6795E-03     37.6148E-03
            2398             544     34.6795E-03     37.6148E-03
            3389             544     34.6795E-03     37.6148E-03
            2399             544     34.6795E-03     37.6148E-03
            3389             545     26.4098E-03     29.0741E-03
            3390             545     26.4098E-03     29.0741E-03
            2400             545     26.4098E-03     29.0741E-03
            2399             545     26.4098E-03     29.0741E-03
            3391             546     18.4620E-03     20.7574E-03
            3390             546     18.4620E-03     20.7574E-03
            2401             546     18.4620E-03     20.7574E-03
            2400             546     18.4620E-03     20.7574E-03
            2401             547     10.9603E-03     13.2914E-03
            3392             547     10.9603E-03     13.2914E-03
            2402             547     10.9603E-03     13.2914E-03
            3391             547     10.9603E-03     13.2914E-03
            2420             548     10.7631E-03     13.6234E-03
            2402             548     10.7631E-03     13.6234E-03
            2438             549     16.2416E-03     19.6282E-03
            2420             549     16.2416E-03     19.6282E-03
            2456             550     11.7898E-03     13.3538E-03
            2438             550     11.7898E-03     13.3538E-03
            2456             551     6.12656E-03     8.70465E-03
            2474             551     6.12656E-03     8.70465E-03
            2474             552     4.15531E-03     8.52193E-03
            2492             552     4.15531E-03     8.52193E-03
            2491             553     9.53067E-03     13.3629E-03
            5192             553     9.53067E-03     13.3629E-03
            5191             553     9.53067E-03     13.3629E-03
            2492             553     9.53067E-03     13.3629E-03
            2491             554     18.2749E-03     23.3800E-03
            2490             554     18.2749E-03     23.3800E-03
            5190             554     18.2749E-03     23.3800E-03
            5191             554     18.2749E-03     23.3800E-03
            5189             555     27.8399E-03     33.5346E-03
            2490             555     27.8399E-03     33.5346E-03
            2489             555     27.8399E-03     33.5346E-03
            5190             555     27.8399E-03     33.5346E-03
            2488             556     37.6876E-03     43.5843E-03
            5189             556     37.6876E-03     43.5843E-03
            5188             556     37.6876E-03     43.5843E-03
            2489             556     37.6876E-03     43.5843E-03
            2487             557     47.6614E-03     53.5733E-03
            5188             557     47.6614E-03     53.5733E-03
            5187             557     47.6614E-03     53.5733E-03
            2488             557     47.6614E-03     53.5733E-03
            2487             558     57.6580E-03     63.5384E-03
            2486             558     57.6580E-03     63.5384E-03
            5187             558     57.6580E-03     63.5384E-03
            5186             558     57.6580E-03     63.5384E-03
            5186             559     67.6539E-03     73.5011E-03
            2486             559     67.6539E-03     73.5011E-03
            2485             559     67.6539E-03     73.5011E-03
            5185             559     67.6539E-03     73.5011E-03
            5185             560     77.5853E-03     83.4389E-03
            5184             560     77.5853E-03     83.4389E-03
            2485             560     77.5853E-03     83.4389E-03
            2484             560     77.5853E-03     83.4389E-03
            2483             561     87.5004E-03     93.3292E-03
            2484             561     87.5004E-03     93.3292E-03
            5183             561     87.5004E-03     93.3292E-03
            5184             561     87.5004E-03     93.3292E-03
            2482             562     97.2860E-03     103.147E-03
            2483             562     97.2860E-03     103.147E-03
            5183             562     97.2860E-03     103.147E-03
            5182             562     97.2860E-03     103.147E-03
            2482             563     107.047E-03     112.850E-03
            5182             563     107.047E-03     112.850E-03
            2481             563     107.047E-03     112.850E-03
            5181             563     107.047E-03     112.850E-03
            2480             564     116.568E-03     122.400E-03
            5180             564     116.568E-03     122.400E-03
            5181             564     116.568E-03     122.400E-03
            2481             564     116.568E-03     122.400E-03
            2480             565     126.158E-03     131.751E-03
            5179             565     126.158E-03     131.751E-03
            2479             565     126.158E-03     131.751E-03
            5180             565     126.158E-03     131.751E-03
            2479             566     135.412E-03     140.927E-03
            5179             566     135.412E-03     140.927E-03
            2478             566     135.412E-03     140.927E-03
            5178             566     135.412E-03     140.927E-03
            2477             567     145.384E-03     150.325E-03
            2478             567     145.384E-03     150.325E-03
            5177             567     145.384E-03     150.325E-03
            5178             567     145.384E-03     150.325E-03
            2477             568     155.515E-03     160.536E-03
            2476             568     155.515E-03     160.536E-03
            5177             568     155.515E-03     160.536E-03
            5176             568     155.515E-03     160.536E-03
            2476             569     172.823E-03     181.638E-03
            5175             569     172.823E-03     181.638E-03
            2475             569     172.823E-03     181.638E-03
            5176             569     172.823E-03     181.638E-03
            5264             604     20.5474E-03     24.6445E-03
            5282             604     20.5474E-03     24.6445E-03
            5264             605     16.4449E-03     17.6201E-03
            5246             605     16.4449E-03     17.6201E-03
            5246             606     10.8229E-03     11.3241E-03
            5228             606     10.8229E-03     11.3241E-03
            5210             607     5.30290E-03     9.35842E-03
            5228             607     5.30290E-03     9.35842E-03
            5210             608     4.25412E-03     8.35731E-03
            5192             608     4.25412E-03     8.35731E-03
            5265             625     160.556E-03     159.282E-03
            5247             625     160.556E-03     159.282E-03
            5247             626     169.642E-03     169.438E-03
            5229             626     169.642E-03     169.438E-03
            5229             627     175.861E-03     180.406E-03
            5211             627     175.861E-03     180.406E-03
            5193             628     183.501E-03     183.006E-03
            5211             628     183.501E-03     183.006E-03
            5175             629     187.961E-03     189.985E-03
            5193             629     187.961E-03     189.985E-03
            4365             636     157.690E-03     163.829E-03
            4347             636     157.690E-03     163.829E-03
            4365             637     165.268E-03     166.443E-03
            4383             637     165.268E-03     166.443E-03
            4401             638     160.740E-03     160.617E-03
            4383             638     160.740E-03     160.617E-03
            4401             639     154.754E-03     157.601E-03
            4419             639     154.754E-03     157.601E-03
            4419             640     150.267E-03     151.300E-03
            4437             640     150.267E-03     151.300E-03
            4437             641     144.816E-03     146.592E-03
            4455             641     144.816E-03     146.592E-03
            4455             642     139.822E-03     141.010E-03
            4473             642     139.822E-03     141.010E-03
            4491             643     134.133E-03     135.143E-03
            4473             643     134.133E-03     135.143E-03
            4509             644     128.108E-03     129.227E-03
            4491             644     128.108E-03     129.227E-03
            4509             645     120.964E-03     121.059E-03
            4527             645     120.964E-03     121.059E-03
            4545             646     113.017E-03     110.680E-03
            4527             646     113.017E-03     110.680E-03
            4545             647     114.313E-03     117.763E-03
            4563             647     114.313E-03     117.763E-03
            4563             648     120.371E-03     121.785E-03
            4581             648     120.371E-03     121.785E-03
            4599             649     115.465E-03     115.280E-03
            4581             649     115.465E-03     115.280E-03
            4617             650     109.378E-03     111.583E-03
            4599             650     109.378E-03     111.583E-03
            4635             651     104.766E-03     105.422E-03
            4617             651     104.766E-03     105.422E-03
            4635             652     99.3546E-03     100.707E-03
            4653             652     99.3546E-03     100.707E-03
            4671             653     94.6256E-03     95.2667E-03
            4653             653     94.6256E-03     95.2667E-03
            4671             654     89.2018E-03     90.0455E-03
            4689             654     89.2018E-03     90.0455E-03
            4689             655     83.8812E-03     84.2218E-03
            4707             655     83.8812E-03     84.2218E-03
            4707             656     78.0320E-03     78.4565E-03
            4725             656     78.0320E-03     78.4565E-03
            4743             657     71.2847E-03     71.1679E-03
            4725             657     71.2847E-03     71.1679E-03
            4743             658     63.8734E-03     61.8015E-03
            4761             658     63.8734E-03     61.8015E-03
            4761             659     65.7661E-03     67.8817E-03
            4779             659     65.7661E-03     67.8817E-03
            4779             660     70.6243E-03     72.2125E-03
            4797             660     70.6243E-03     72.2125E-03
            4797             661     65.2575E-03     64.9879E-03
            4815             661     65.2575E-03     64.9879E-03
            4815             662     59.0445E-03     60.4024E-03
            4833             662     59.0445E-03     60.4024E-03
            4851             663     54.2094E-03     54.4361E-03
            4833             663     54.2094E-03     54.4361E-03
            4869             664     48.8616E-03     49.5104E-03
            4851             664     48.8616E-03     49.5104E-03
            4869             665     44.0706E-03     44.1370E-03
            4887             665     44.0706E-03     44.1370E-03
            4887             666     38.7385E-03     38.8981E-03
            4905             666     38.7385E-03     38.8981E-03
            4905             667     33.5316E-03     33.1293E-03
            4923             667     33.5316E-03     33.1293E-03
            4923             668     27.3687E-03     27.0530E-03
            4941             668     27.3687E-03     27.0530E-03
            4941             669     20.6804E-03     19.5222E-03
            4959             669     20.6804E-03     19.5222E-03
            4977             670     20.9229E-03     22.5232E-03
            4959             670     20.9229E-03     22.5232E-03
            4977             671     22.0625E-03     23.8445E-03
            4995             671     22.0625E-03     23.8445E-03
            4995             672     15.8764E-03     14.8483E-03
            5013             672     15.8764E-03     14.8483E-03
            5031             673     9.16352E-03     8.97642E-03
            5013             673     9.16352E-03     8.97642E-03
            5049             674     5.88576E-03     8.02718E-03
            5031             674     5.88576E-03     8.02718E-03
            5266             675     150.055E-03     150.824E-03
            4347             675     150.055E-03     150.824E-03
            4348             675     150.055E-03     150.824E-03
            5265             675     150.055E-03     150.824E-03
            5266             676     143.826E-03     143.826E-03
            5267             676     143.826E-03     143.826E-03
            4348             676     143.826E-03     143.826E-03
            4349             676     143.826E-03     143.826E-03
            4349             677     136.662E-03     136.819E-03
            4350             677     136.662E-03     136.819E-03
            5268             677     136.662E-03     136.819E-03
            5267             677     136.662E-03     136.819E-03
            4351             678     128.552E-03     129.009E-03
            5269             678     128.552E-03     129.009E-03
            4350             678     128.552E-03     129.009E-03
            5268             678     128.552E-03     129.009E-03
            5270             679     120.175E-03     120.739E-03
            4351             679     120.175E-03     120.739E-03
            4352             679     120.175E-03     120.739E-03
            5269             679     120.175E-03     120.739E-03
            4353             680     111.463E-03     112.129E-03
            5271             680     111.463E-03     112.129E-03
            5270             680     111.463E-03     112.129E-03
            4352             680     111.463E-03     112.129E-03
            5272             681     102.657E-03     103.339E-03
            5271             681     102.657E-03     103.339E-03
            4353             681     102.657E-03     103.339E-03
            4354             681     102.657E-03     103.339E-03
            4354             682     93.7495E-03     94.4648E-03
            5273             682     93.7495E-03     94.4648E-03
            5272             682     93.7495E-03     94.4648E-03
            4355             682     93.7495E-03     94.4648E-03
            4355             683     84.8010E-03     85.5017E-03
            5273             683     84.8010E-03     85.5017E-03
            5274             683     84.8010E-03     85.5017E-03
            4356             683     84.8010E-03     85.5017E-03
            5275             684     75.8200E-03     76.5413E-03
            5274             684     75.8200E-03     76.5413E-03
            4356             684     75.8200E-03     76.5413E-03
            4357             684     75.8200E-03     76.5413E-03
            5276             685     66.8484E-03     67.5695E-03
            5275             685     66.8484E-03     67.5695E-03
            4358             685     66.8484E-03     67.5695E-03
            4357             685     66.8484E-03     67.5695E-03
            4358             686     57.9095E-03     58.6592E-03
            5277             686     57.9095E-03     58.6592E-03
            4359             686     57.9095E-03     58.6592E-03
            5276             686     57.9095E-03     58.6592E-03
            4360             687     49.0576E-03     49.8292E-03
            5278             687     49.0576E-03     49.8292E-03
            5277             687     49.0576E-03     49.8292E-03
            4359             687     49.0576E-03     49.8292E-03
            5278             688     40.3711E-03     41.1760E-03
            4360             688     40.3711E-03     41.1760E-03
            5279             688     40.3711E-03     41.1760E-03
            4361             688     40.3711E-03     41.1760E-03
            5279             689     31.9708E-03     32.7664E-03
            5280             689     31.9708E-03     32.7664E-03
            4362             689     31.9708E-03     32.7664E-03
            4361             689     31.9708E-03     32.7664E-03
            4362             690     24.0844E-03     25.0150E-03
            5280             690     24.0844E-03     25.0150E-03
            5281             690     24.0844E-03     25.0150E-03
            4363             690     24.0844E-03     25.0150E-03
            5281             691     16.4995E-03     18.6502E-03
            5282             691     16.4995E-03     18.6502E-03
            4364             691     16.4995E-03     18.6502E-03
            4363             691     16.4995E-03     18.6502E-03
            4382             692     5.64633E-03     7.87786E-03
            4364             692     5.64633E-03     7.87786E-03
            4400             693     6.06068E-03     9.52667E-03
            4382             693     6.06068E-03     9.52667E-03
            4418             694     3.44243E-03     7.07383E-03
            4400             694     3.44243E-03     7.07383E-03
            4436             695     3.90937E-03     6.02785E-03
            4418             695     3.90937E-03     6.02785E-03
            4436             696     6.87980E-03     7.98173E-03
            4454             696     6.87980E-03     7.98173E-03
            4472             697     10.3352E-03     10.9449E-03
            4454             697     10.3352E-03     10.9449E-03
            4490             698     13.9299E-03     13.9355E-03
            4472             698     13.9299E-03     13.9355E-03
            4508             699     17.3784E-03     17.9300E-03
            4490             699     17.3784E-03     17.9300E-03
            4526             700     20.9524E-03     21.1492E-03
            4508             700     20.9524E-03     21.1492E-03
            4544             701     25.1220E-03     26.2407E-03
            4526             701     25.1220E-03     26.2407E-03
            4562             702     27.3863E-03     32.3821E-03
            4544             702     27.3863E-03     32.3821E-03
            4580             703     15.0073E-03     18.9291E-03
            4562             703     15.0073E-03     18.9291E-03
            4598             704     2.07293E-03     3.99287E-03
            4580             704     2.07293E-03     3.99287E-03
            4598             705     3.07447E-03     4.50899E-03
            4616             705     3.07447E-03     4.50899E-03
            4616             706     5.66423E-03     5.86270E-03
            4634             706     5.66423E-03     5.86270E-03
            4652             707     7.98089E-03     7.89903E-03
            4634             707     7.98089E-03     7.89903E-03
            4670             708     10.3014E-03     9.94234E-03
            4652             708     10.3014E-03     9.94234E-03
            4670             709     12.4087E-03     12.1502E-03
            4688             709     12.4087E-03     12.1502E-03
            4688             710     14.5925E-03     14.1255E-03
            4706             710     14.5925E-03     14.1255E-03
            4724             711     16.6803E-03     16.6834E-03
            4706             711     16.6803E-03     16.6834E-03
            4742             712     18.8183E-03     18.6753E-03
            4724             712     18.8183E-03     18.6753E-03
            4742             713     21.4709E-03     22.0379E-03
            4760             713     21.4709E-03     22.0379E-03
            4778             714     22.5095E-03     26.3622E-03
            4760             714     22.5095E-03     26.3622E-03
            4778             715     13.3849E-03     16.7397E-03
            4796             715     13.3849E-03     16.7397E-03
            4796             716     5.67544E-03     6.29859E-03
            4814             716     5.67544E-03     6.29859E-03
            4814             717     7.57259E-03     7.05484E-03
            4832             717     7.57259E-03     7.05484E-03
            4832             718     8.85563E-03     8.22415E-03
            4850             718     8.85563E-03     8.22415E-03
            4850             719     10.1751E-03     9.38153E-03
            4868             719     10.1751E-03     9.38153E-03
            4868             720     11.3189E-03     10.5720E-03
            4886             720     11.3189E-03     10.5720E-03
            4904             721     12.4717E-03     11.6311E-03
            4886             721     12.4717E-03     11.6311E-03
            4904             722     13.5407E-03     13.0185E-03
            4922             722     13.5407E-03     13.0185E-03
            4940             723     14.5645E-03     14.0334E-03
            4922             723     14.5645E-03     14.0334E-03
            4958             724     15.8968E-03     15.8736E-03
            4940             724     15.8968E-03     15.8736E-03
            4958             725     15.9905E-03     18.4443E-03
            4976             725     15.9905E-03     18.4443E-03
            4976             726     11.6738E-03     14.1382E-03
            4994             726     11.6738E-03     14.1382E-03
            4994             727     8.87045E-03     9.37943E-03
            5012             727     8.87045E-03     9.37943E-03
            5012             728     10.0675E-03     8.61891E-03
            5030             728     10.0675E-03     8.61891E-03
            5030             729     10.4362E-03     9.07299E-03
            5048             729     10.4362E-03     9.07299E-03
            5066             730     9.90003E-03     10.5814E-03
            5048             730     9.90003E-03     10.5814E-03
            5066             731     4.89741E-03     5.30087E-03
            5065             731     4.89741E-03     5.30087E-03
            5755             731     4.89741E-03     5.30087E-03
            5756             731     4.89741E-03     5.30087E-03
            5754             732     5.23869E-03     5.13690E-03
            5065             732     5.23869E-03     5.13690E-03
            5064             732     5.23869E-03     5.13690E-03
            5755             732     5.23869E-03     5.13690E-03
            5063             733     5.36572E-03     5.05683E-03
            5064             733     5.36572E-03     5.05683E-03
            5753             733     5.36572E-03     5.05683E-03
            5754             733     5.36572E-03     5.05683E-03
            5753             734     5.48760E-03     5.09916E-03
            5063             734     5.48760E-03     5.09916E-03
            5062             734     5.48760E-03     5.09916E-03
            5752             734     5.48760E-03     5.09916E-03
            5061             735     5.59425E-03     5.11558E-03
            5751             735     5.59425E-03     5.11558E-03
            5752             735     5.59425E-03     5.11558E-03
            5062             735     5.59425E-03     5.11558E-03
            5060             736     5.72041E-03     5.15332E-03
            5751             736     5.72041E-03     5.15332E-03
            5750             736     5.72041E-03     5.15332E-03
            5061             736     5.72041E-03     5.15332E-03
            5749             737     5.85136E-03     5.20350E-03
            5059             737     5.85136E-03     5.20350E-03
            5060             737     5.85136E-03     5.20350E-03
            5750             737     5.85136E-03     5.20350E-03
            5748             738     5.99274E-03     5.26257E-03
            5749             738     5.99274E-03     5.26257E-03
            5058             738     5.99274E-03     5.26257E-03
            5059             738     5.99274E-03     5.26257E-03
            5747             739     6.13736E-03     5.33856E-03
            5748             739     6.13736E-03     5.33856E-03
            5058             739     6.13736E-03     5.33856E-03
            5057             739     6.13736E-03     5.33856E-03
            5747             740     6.28815E-03     5.41136E-03
            5056             740     6.28815E-03     5.41136E-03
            5057             740     6.28815E-03     5.41136E-03
            5746             740     6.28815E-03     5.41136E-03
            5746             741     6.43629E-03     5.50020E-03
            5745             741     6.43629E-03     5.50020E-03
            5055             741     6.43629E-03     5.50020E-03
            5056             741     6.43629E-03     5.50020E-03
            5744             742     6.57060E-03     5.55542E-03
            5055             742     6.57060E-03     5.55542E-03
            5054             742     6.57060E-03     5.55542E-03
            5745             742     6.57060E-03     5.55542E-03
            5053             743     6.66081E-03     5.57512E-03
            5743             743     6.66081E-03     5.57512E-03
            5054             743     6.66081E-03     5.57512E-03
            5744             743     6.66081E-03     5.57512E-03
            5053             744     6.60964E-03     5.45649E-03
            5052             744     6.60964E-03     5.45649E-03
            5742             744     6.60964E-03     5.45649E-03
            5743             744     6.60964E-03     5.45649E-03
            5741             745     6.05871E-03     4.82029E-03
            5742             745     6.05871E-03     4.82029E-03
            5051             745     6.05871E-03     4.82029E-03
            5052             745     6.05871E-03     4.82029E-03
            5050             746     4.99934E-03     3.58154E-03
            5051             746     4.99934E-03     3.58154E-03
            5741             746     4.99934E-03     3.58154E-03
            5740             746     4.99934E-03     3.58154E-03
            5739             747     3.53893E-03     3.92688E-03
            5049             747     3.53893E-03     3.92688E-03
            5740             747     3.53893E-03     3.92688E-03
            5050             747     3.53893E-03     3.92688E-03
            5846             787     577.773E-18     610.313E-18
            5828             787     577.773E-18     610.313E-18
            5810             788     531.058E-18     662.080E-18
            5828             788     531.058E-18     662.080E-18
            5792             789     471.290E-18     580.487E-18
            5810             789     471.290E-18     580.487E-18
            5774             790     435.300E-18     462.621E-18
            5792             790     435.300E-18     462.621E-18
            5774             791     262.047E-18     310.126E-18
            5756             791     262.047E-18     310.126E-18
            5846             808     448.754E-18     492.651E-18
            5845             808     448.754E-18     492.651E-18
            5844             809     606.782E-18     447.404E-18
            5845             809     606.782E-18     447.404E-18
            5843             810     670.945E-18     442.480E-18
            5844             810     670.945E-18     442.480E-18
            5842             811     880.911E-18     666.436E-18
            5843             811     880.911E-18     666.436E-18
            5841             812     1.07401E-15     931.311E-18
            5842             812     1.07401E-15     931.311E-18
            5840             813     988.598E-18     978.249E-18
            5841             813     988.598E-18     978.249E-18
            5840             814     625.780E-18     625.105E-18
            5839             814     625.780E-18     625.105E-18
            5838             815     773.824E-18     577.946E-18
            5839             815     773.824E-18     577.946E-18
            5838             816     1.09025E-15     664.831E-18
            5837             816     1.09025E-15     664.831E-18
            5836             817     753.804E-18     582.915E-18
            5837             817     753.804E-18     582.915E-18
            5835             818     349.660E-18     420.836E-18
            5836             818     349.660E-18     420.836E-18
            5834             819     652.669E-18     835.013E-18
            5835             819     652.669E-18     835.013E-18
            5834             820     1.43123E-15     1.30182E-15
            5833             820     1.43123E-15     1.30182E-15
            5832             821     1.12155E-15     836.546E-18
            5833             821     1.12155E-15     836.546E-18
            5831             822     726.395E-18     864.207E-18
            5832             822     726.395E-18     864.207E-18
            5830             823     846.858E-18     1.10057E-15
            5831             823     846.858E-18     1.10057E-15
            5829             824     666.954E-18     919.932E-18
            5830             824     666.954E-18     919.932E-18
             786            1467     855.623E-18     689.841E-18
             804            1467     855.623E-18     689.841E-18
             785            1467     855.623E-18     689.841E-18
             803            1467     855.623E-18     689.841E-18
             804            1468     749.145E-18     886.836E-18
             787            1468     749.145E-18     886.836E-18
             805            1468     749.145E-18     886.836E-18
             786            1468     749.145E-18     886.836E-18
             788            1469     1.10502E-15     1.35233E-15
             806            1469     1.10502E-15     1.35233E-15
             805            1469     1.10502E-15     1.35233E-15
             787            1469     1.10502E-15     1.35233E-15
             788            1470     1.08619E-15     1.40749E-15
             806            1470     1.08619E-15     1.40749E-15
             807            1470     1.08619E-15     1.40749E-15
             789            1470     1.08619E-15     1.40749E-15
             790            1471     999.802E-18     1.16288E-15
             789            1471     999.802E-18     1.16288E-15
             808            1471     999.802E-18     1.16288E-15
             807            1471     999.802E-18     1.16288E-15
             808            1472     1.07707E-15     1.13426E-15
             790            1472     1.07707E-15     1.13426E-15
             809            1472     1.07707E-15     1.13426E-15
             791            1472     1.07707E-15     1.13426E-15
             792            1473     759.384E-18     889.239E-18
             791            1473     759.384E-18     889.239E-18
             809            1473     759.384E-18     889.239E-18
             810            1473     759.384E-18     889.239E-18
             811            1474     790.357E-18     875.683E-18
             792            1474     790.357E-18     875.683E-18
             810            1474     790.357E-18     875.683E-18
             793            1474     790.357E-18     875.683E-18
             794            1475     950.877E-18     1.13274E-15
             812            1475     950.877E-18     1.13274E-15
             793            1475     950.877E-18     1.13274E-15
             811            1475     950.877E-18     1.13274E-15
             813            1476     1.16830E-15     1.18252E-15
             794            1476     1.16830E-15     1.18252E-15
             795            1476     1.16830E-15     1.18252E-15
             812            1476     1.16830E-15     1.18252E-15
             796            1477     1.19029E-15     1.14199E-15
             813            1477     1.19029E-15     1.14199E-15
             814            1477     1.19029E-15     1.14199E-15
             795            1477     1.19029E-15     1.14199E-15
             797            1478     1.21398E-15     1.27625E-15
             814            1478     1.21398E-15     1.27625E-15
             815            1478     1.21398E-15     1.27625E-15
             796            1478     1.21398E-15     1.27625E-15
             815            1479     1.24923E-15     981.650E-18
             797            1479     1.24923E-15     981.650E-18
             816            1479     1.24923E-15     981.650E-18
             798            1479     1.24923E-15     981.650E-18
             799            1480     1.19217E-15     715.969E-18
             816            1480     1.19217E-15     715.969E-18
             817            1480     1.19217E-15     715.969E-18
             798            1480     1.19217E-15     715.969E-18
             818            1481     1.29908E-15     1.11499E-15
             817            1481     1.29908E-15     1.11499E-15
             800            1481     1.29908E-15     1.11499E-15
             799            1481     1.29908E-15     1.11499E-15
             800            1482     1.49257E-15     1.20697E-15
             801            1482     1.49257E-15     1.20697E-15
             818            1482     1.49257E-15     1.20697E-15
             819            1482     1.49257E-15     1.20697E-15
             819            1483     1.54584E-15     1.61466E-15
             801            1483     1.54584E-15     1.61466E-15
             820            1483     1.54584E-15     1.61466E-15
             802            1483     1.54584E-15     1.61466E-15
             804            1484     1.11984E-15     1.26109E-15
             822            1484     1.11984E-15     1.26109E-15
             821            1484     1.11984E-15     1.26109E-15
             803            1484     1.11984E-15     1.26109E-15
             805            1485     973.412E-18     1.36004E-15
             804            1485     973.412E-18     1.36004E-15
             823            1485     973.412E-18     1.36004E-15
             822            1485     973.412E-18     1.36004E-15
             823            1486     1.34951E-15     1.70426E-15
             824            1486     1.34951E-15     1.70426E-15
             805            1486     1.34951E-15     1.70426E-15
             806            1486     1.34951E-15     1.70426E-15
             806            1487     1.42299E-15     1.54039E-15
             807            1487     1.42299E-15     1.54039E-15
             824            1487     1.42299E-15     1.54039E-15
             825            1487     1.42299E-15     1.54039E-15
             825            1488     823.024E-18     954.323E-18
             826            1488     823.024E-18     954.323E-18
             807            1488     823.024E-18     954.323E-18
             808            1488     823.024E-18     954.323E-18
             809            1489     881.903E-18     1.06029E-15
             827            1489     881.903E-18     1.06029E-15
             808            1489     881.903E-18     1.06029E-15
             826            1489     881.903E-18     1.06029E-15
             827            1490     796.650E-18     962.554E-18
             828            1490     796.650E-18     962.554E-18
             809            1490     796.650E-18     962.554E-18
             810            1490     796.650E-18     962.554E-18
             810            1491     639.534E-18     751.606E-18
             829            1491     639.534E-18     751.606E-18
             828            1491     639.534E-18     751.606E-18
             811            1491     639.534E-18     751.606E-18
             830            1492     1.10866E-15     1.24810E-15
             811            1492     1.10866E-15     1.24810E-15
             829            1492     1.10866E-15     1.24810E-15
             812            1492     1.10866E-15     1.24810E-15
             831            1493     1.03216E-15     1.13503E-15
             830            1493     1.03216E-15     1.13503E-15
             813            1493     1.03216E-15     1.13503E-15
             812            1493     1.03216E-15     1.13503E-15
             813            1494     1.00073E-15     1.03268E-15
             832            1494     1.00073E-15     1.03268E-15
             814            1494     1.00073E-15     1.03268E-15
             831            1494     1.00073E-15     1.03268E-15
             815            1495     1.18883E-15     1.31856E-15
             833            1495     1.18883E-15     1.31856E-15
             832            1495     1.18883E-15     1.31856E-15
             814            1495     1.18883E-15     1.31856E-15
             815            1496     846.473E-18     899.460E-18
             816            1496     846.473E-18     899.460E-18
             834            1496     846.473E-18     899.460E-18
             833            1496     846.473E-18     899.460E-18
             835            1497     782.848E-18     701.200E-18
             816            1497     782.848E-18     701.200E-18
             834            1497     782.848E-18     701.200E-18
             817            1497     782.848E-18     701.200E-18
             835            1498     1.20826E-15     1.13798E-15
             817            1498     1.20826E-15     1.13798E-15
             818            1498     1.20826E-15     1.13798E-15
             836            1498     1.20826E-15     1.13798E-15
             837            1499     1.66124E-15     1.52101E-15
             836            1499     1.66124E-15     1.52101E-15
             819            1499     1.66124E-15     1.52101E-15
             818            1499     1.66124E-15     1.52101E-15
             819            1500     1.79369E-15     1.75338E-15
             838            1500     1.79369E-15     1.75338E-15
             837            1500     1.79369E-15     1.75338E-15
             820            1500     1.79369E-15     1.75338E-15
             821            1501     1.18770E-15     1.26194E-15
             839            1501     1.18770E-15     1.26194E-15
             840            1501     1.18770E-15     1.26194E-15
             822            1501     1.18770E-15     1.26194E-15
             840            1502     1.09769E-15     1.61173E-15
             822            1502     1.09769E-15     1.61173E-15
             841            1502     1.09769E-15     1.61173E-15
             823            1502     1.09769E-15     1.61173E-15
             842            1503     1.37072E-15     2.16902E-15
             841            1503     1.37072E-15     2.16902E-15
             824            1503     1.37072E-15     2.16902E-15
             823            1503     1.37072E-15     2.16902E-15
             842            1504     1.18684E-15     1.48275E-15
             824            1504     1.18684E-15     1.48275E-15
             843            1504     1.18684E-15     1.48275E-15
             825            1504     1.18684E-15     1.48275E-15
             844            1505     634.819E-18     591.167E-18
             826            1505     634.819E-18     591.167E-18
             825            1505     634.819E-18     591.167E-18
             843            1505     634.819E-18     591.167E-18
             844            1506     806.974E-18     877.207E-18
             826            1506     806.974E-18     877.207E-18
             827            1506     806.974E-18     877.207E-18
             845            1506     806.974E-18     877.207E-18
             846            1507     857.298E-18     970.603E-18
             845            1507     857.298E-18     970.603E-18
             828            1507     857.298E-18     970.603E-18
             827            1507     857.298E-18     970.603E-18
             829            1508     612.434E-18     561.225E-18
             846            1508     612.434E-18     561.225E-18
             847            1508     612.434E-18     561.225E-18
             828            1508     612.434E-18     561.225E-18
             829            1509     1.02567E-15     1.09900E-15
             847            1509     1.02567E-15     1.09900E-15
             848            1509     1.02567E-15     1.09900E-15
             830            1509     1.02567E-15     1.09900E-15
             830            1510     1.17890E-15     1.16202E-15
             831            1510     1.17890E-15     1.16202E-15
             849            1510     1.17890E-15     1.16202E-15
             848            1510     1.17890E-15     1.16202E-15
             849            1511     1.12978E-15     1.09453E-15
             850            1511     1.12978E-15     1.09453E-15
             832            1511     1.12978E-15     1.09453E-15
             831            1511     1.12978E-15     1.09453E-15
             833            1512     1.38869E-15     1.39176E-15
             850            1512     1.38869E-15     1.39176E-15
             851            1512     1.38869E-15     1.39176E-15
             832            1512     1.38869E-15     1.39176E-15
             834            1513     1.30732E-15     1.16187E-15
             852            1513     1.30732E-15     1.16187E-15
             851            1513     1.30732E-15     1.16187E-15
             833            1513     1.30732E-15     1.16187E-15
             853            1514     1.03158E-15     1.17528E-15
             852            1514     1.03158E-15     1.17528E-15
             834            1514     1.03158E-15     1.17528E-15
             835            1514     1.03158E-15     1.17528E-15
             835            1515     1.10417E-15     1.34409E-15
             854            1515     1.10417E-15     1.34409E-15
             853            1515     1.10417E-15     1.34409E-15
             836            1515     1.10417E-15     1.34409E-15
             836            1516     1.60623E-15     1.92658E-15
             854            1516     1.60623E-15     1.92658E-15
             855            1516     1.60623E-15     1.92658E-15
             837            1516     1.60623E-15     1.92658E-15
             837            1517     1.95597E-15     2.24513E-15
             855            1517     1.95597E-15     2.24513E-15
             838            1517     1.95597E-15     2.24513E-15
             856            1517     1.95597E-15     2.24513E-15
            2386            2866     157.133E-03     158.740E-03
            2403            2866     157.133E-03     158.740E-03
            2385            2866     157.133E-03     158.740E-03
            2404            2866     157.133E-03     158.740E-03
            2404            2867     150.164E-03     150.663E-03
            2386            2867     150.164E-03     150.663E-03
            2387            2867     150.164E-03     150.663E-03
            2405            2867     150.164E-03     150.663E-03
            2406            2868     142.259E-03     142.914E-03
            2387            2868     142.259E-03     142.914E-03
            2388            2868     142.259E-03     142.914E-03
            2405            2868     142.259E-03     142.914E-03
            2406            2869     133.542E-03     134.378E-03
            2389            2869     133.542E-03     134.378E-03
            2407            2869     133.542E-03     134.378E-03
            2388            2869     133.542E-03     134.378E-03
            2408            2870     124.558E-03     125.387E-03
            2390            2870     124.558E-03     125.387E-03
            2389            2870     124.558E-03     125.387E-03
            2407            2870     124.558E-03     125.387E-03
            2409            2871     115.287E-03     116.211E-03
            2391            2871     115.287E-03     116.211E-03
            2408            2871     115.287E-03     116.211E-03
            2390            2871     115.287E-03     116.211E-03
            2409            2872     106.019E-03     106.932E-03
            2410            2872     106.019E-03     106.932E-03
            2392            2872     106.019E-03     106.932E-03
            2391            2872     106.019E-03     106.932E-03
            2393            2873     96.6220E-03     97.5382E-03
            2410            2873     96.6220E-03     97.5382E-03
            2411            2873     96.6220E-03     97.5382E-03
            2392            2873     96.6220E-03     97.5382E-03
            2411            2874     87.2215E-03     88.1388E-03
            2393            2874     87.2215E-03     88.1388E-03
            2412            2874     87.2215E-03     88.1388E-03
            2394            2874     87.2215E-03     88.1388E-03
            2394            2875     77.7792E-03     78.6926E-03
            2413            2875     77.7792E-03     78.6926E-03
            2395            2875     77.7792E-03     78.6926E-03
            2412            2875     77.7792E-03     78.6926E-03
            2413            2876     68.3565E-03     69.2777E-03
            2396            2876     68.3565E-03     69.2777E-03
            2395            2876     68.3565E-03     69.2777E-03
            2414            2876     68.3565E-03     69.2777E-03
            2396            2877     58.9521E-03     59.8797E-03
            2414            2877     58.9521E-03     59.8797E-03
            2415            2877     58.9521E-03     59.8797E-03
            2397            2877     58.9521E-03     59.8797E-03
            2397            2878     49.6150E-03     50.5675E-03
            2415            2878     49.6150E-03     50.5675E-03
            2416            2878     49.6150E-03     50.5675E-03
            2398            2878     49.6150E-03     50.5675E-03
            2417            2879     40.3869E-03     41.3733E-03
            2398            2879     40.3869E-03     41.3733E-03
            2416            2879     40.3869E-03     41.3733E-03
            2399            2879     40.3869E-03     41.3733E-03
            2417            2880     31.3991E-03     32.3951E-03
            2399            2880     31.3991E-03     32.3951E-03
            2400            2880     31.3991E-03     32.3951E-03
            2418            2880     31.3991E-03     32.3951E-03
            2418            2881     22.8563E-03     23.9011E-03
            2400            2881     22.8563E-03     23.9011E-03
            2419            2881     22.8563E-03     23.9011E-03
            2401            2881     22.8563E-03     23.9011E-03
            2420            2882     14.7496E-03     16.7286E-03
            2402            2882     14.7496E-03     16.7286E-03
            2401            2882     14.7496E-03     16.7286E-03
            2419            2882     14.7496E-03     16.7286E-03
            2403            2883     165.716E-03     165.248E-03
            2404            2883     165.716E-03     165.248E-03
            2421            2883     165.716E-03     165.248E-03
            2422            2883     165.716E-03     165.248E-03
            2405            2884     158.814E-03     159.445E-03
            2422            2884     158.814E-03     159.445E-03
            2404            2884     158.814E-03     159.445E-03
            2423            2884     158.814E-03     159.445E-03
            2406            2885     150.823E-03     150.897E-03
            2405            2885     150.823E-03     150.897E-03
            2424            2885     150.823E-03     150.897E-03
            2423            2885     150.823E-03     150.897E-03
            2406            2886     141.634E-03     141.746E-03
            2424            2886     141.634E-03     141.746E-03
            2407            2886     141.634E-03     141.746E-03
            2425            2886     141.634E-03     141.746E-03
            2425            2887     131.906E-03     132.193E-03
            2407            2887     131.906E-03     132.193E-03
            2408            2887     131.906E-03     132.193E-03
            2426            2887     131.906E-03     132.193E-03
            2408            2888     122.277E-03     122.502E-03
            2427            2888     122.277E-03     122.502E-03
            2426            2888     122.277E-03     122.502E-03
            2409            2888     122.277E-03     122.502E-03
            2409            2889     112.434E-03     112.717E-03
            2427            2889     112.434E-03     112.717E-03
            2428            2889     112.434E-03     112.717E-03
            2410            2889     112.434E-03     112.717E-03
            2411            2890     102.622E-03     102.882E-03
            2410            2890     102.622E-03     102.882E-03
            2428            2890     102.622E-03     102.882E-03
            2429            2890     102.622E-03     102.882E-03
            2429            2891     92.7292E-03     92.9981E-03
            2430            2891     92.7292E-03     92.9981E-03
            2412            2891     92.7292E-03     92.9981E-03
            2411            2891     92.7292E-03     92.9981E-03
            2431            2892     82.8569E-03     83.1203E-03
            2413            2892     82.8569E-03     83.1203E-03
            2412            2892     82.8569E-03     83.1203E-03
            2430            2892     82.8569E-03     83.1203E-03
            2414            2893     72.9893E-03     73.2523E-03
            2413            2893     72.9893E-03     73.2523E-03
            2432            2893     72.9893E-03     73.2523E-03
            2431            2893     72.9893E-03     73.2523E-03
            2433            2894     63.1837E-03     63.4513E-03
            2432            2894     63.1837E-03     63.4513E-03
            2414            2894     63.1837E-03     63.4513E-03
            2415            2894     63.1837E-03     63.4513E-03
            2415            2895     53.4790E-03     53.7440E-03
            2416            2895     53.4790E-03     53.7440E-03
            2434            2895     53.4790E-03     53.7440E-03
            2433            2895     53.4790E-03     53.7440E-03
            2417            2896     43.9718E-03     44.2359E-03
            2416            2896     43.9718E-03     44.2359E-03
            2434            2896     43.9718E-03     44.2359E-03
            2435            2896     43.9718E-03     44.2359E-03
            2417            2897     34.7756E-03     35.1076E-03
            2418            2897     34.7756E-03     35.1076E-03
            2435            2897     34.7756E-03     35.1076E-03
            2436            2897     34.7756E-03     35.1076E-03
            2418            2898     26.2805E-03     26.8835E-03
            2419            2898     26.2805E-03     26.8835E-03
            2437            2898     26.2805E-03     26.8835E-03
            2436            2898     26.2805E-03     26.8835E-03
            2438            2899     19.2623E-03     21.3640E-03
            2419            2899     19.2623E-03     21.3640E-03
            2420            2899     19.2623E-03     21.3640E-03
            2437            2899     19.2623E-03     21.3640E-03
            2439            2900     172.609E-03     174.688E-03
            2422            2900     172.609E-03     174.688E-03
            2421            2900     172.609E-03     174.688E-03
            2440            2900     172.609E-03     174.688E-03
            2423            2901     164.751E-03     166.688E-03
            2422            2901     164.751E-03     166.688E-03
            2440            2901     164.751E-03     166.688E-03
            2441            2901     164.751E-03     166.688E-03
            2424            2902     153.538E-03     155.648E-03
            2441            2902     153.538E-03     155.648E-03
            2423            2902     153.538E-03     155.648E-03
            2442            2902     153.538E-03     155.648E-03
            2424            2903     142.622E-03     144.659E-03
            2443            2903     142.622E-03     144.659E-03
            2442            2903     142.622E-03     144.659E-03
            2425            2903     142.622E-03     144.659E-03
            2426            2904     132.293E-03     134.137E-03
            2444            2904     132.293E-03     134.137E-03
            2443            2904     132.293E-03     134.137E-03
            2425            2904     132.293E-03     134.137E-03
            2444            2905     121.944E-03     123.781E-03
            2427            2905     121.944E-03     123.781E-03
            2445            2905     121.944E-03     123.781E-03
            2426            2905     121.944E-03     123.781E-03
            2428            2906     111.742E-03     113.545E-03
            2445            2906     111.742E-03     113.545E-03
            2446            2906     111.742E-03     113.545E-03
            2427            2906     111.742E-03     113.545E-03
            2446            2907     101.556E-03     103.372E-03
            2429            2907     101.556E-03     103.372E-03
            2447            2907     101.556E-03     103.372E-03
            2428            2907     101.556E-03     103.372E-03
            2430            2908     91.4228E-03     93.2342E-03
            2448            2908     91.4228E-03     93.2342E-03
            2447            2908     91.4228E-03     93.2342E-03
            2429            2908     91.4228E-03     93.2342E-03
            2431            2909     81.3091E-03     83.1215E-03
            2448            2909     81.3091E-03     83.1215E-03
            2430            2909     81.3091E-03     83.1215E-03
            2449            2909     81.3091E-03     83.1215E-03
            2450            2910     71.2311E-03     73.0354E-03
            2449            2910     71.2311E-03     73.0354E-03
            2432            2910     71.2311E-03     73.0354E-03
            2431            2910     71.2311E-03     73.0354E-03
            2451            2911     61.2004E-03     62.9764E-03
            2433            2911     61.2004E-03     62.9764E-03
            2432            2911     61.2004E-03     62.9764E-03
            2450            2911     61.2004E-03     62.9764E-03
            2433            2912     51.2270E-03     52.9664E-03
            2452            2912     51.2270E-03     52.9664E-03
            2451            2912     51.2270E-03     52.9664E-03
            2434            2912     51.2270E-03     52.9664E-03
            2434            2913     41.3734E-03     43.0392E-03
            2453            2913     41.3734E-03     43.0392E-03
            2452            2913     41.3734E-03     43.0392E-03
            2435            2913     41.3734E-03     43.0392E-03
            2454            2914     31.6539E-03     33.3208E-03
            2436            2914     31.6539E-03     33.3208E-03
            2435            2914     31.6539E-03     33.3208E-03
            2453            2914     31.6539E-03     33.3208E-03
            2436            2915     22.0969E-03     24.5402E-03
            2454            2915     22.0969E-03     24.5402E-03
            2455            2915     22.0969E-03     24.5402E-03
            2437            2915     22.0969E-03     24.5402E-03
            2438            2916     14.5873E-03     16.9464E-03
            2456            2916     14.5873E-03     16.9464E-03
            2437            2916     14.5873E-03     16.9464E-03
            2455            2916     14.5873E-03     16.9464E-03
            2457            2917     177.328E-03     179.166E-03
            2439            2917     177.328E-03     179.166E-03
            2458            2917     177.328E-03     179.166E-03
            2440            2917     177.328E-03     179.166E-03
            2441            2918     165.598E-03     168.783E-03
            2440            2918     165.598E-03     168.783E-03
            2458            2918     165.598E-03     168.783E-03
            2459            2918     165.598E-03     168.783E-03
            2441            2919     152.607E-03     156.389E-03
            2460            2919     152.607E-03     156.389E-03
            2442            2919     152.607E-03     156.389E-03
            2459            2919     152.607E-03     156.389E-03
            2443            2920     141.726E-03     145.339E-03
            2442            2920     141.726E-03     145.339E-03
            2460            2920     141.726E-03     145.339E-03
            2461            2920     141.726E-03     145.339E-03
            2444            2921     131.312E-03     134.704E-03
            2443            2921     131.312E-03     134.704E-03
            2462            2921     131.312E-03     134.704E-03
            2461            2921     131.312E-03     134.704E-03
            2444            2922     120.923E-03     124.319E-03
            2462            2922     120.923E-03     124.319E-03
            2463            2922     120.923E-03     124.319E-03
            2445            2922     120.923E-03     124.319E-03
            2464            2923     110.662E-03     114.027E-03
            2446            2923     110.662E-03     114.027E-03
            2463            2923     110.662E-03     114.027E-03
            2445            2923     110.662E-03     114.027E-03
            2464            2924     100.407E-03     103.781E-03
            2446            2924     100.407E-03     103.781E-03
            2447            2924     100.407E-03     103.781E-03
            2465            2924     100.407E-03     103.781E-03
            2466            2925     90.2011E-03     93.5778E-03
            2448            2925     90.2011E-03     93.5778E-03
            2465            2925     90.2011E-03     93.5778E-03
            2447            2925     90.2011E-03     93.5778E-03
            2466            2926     80.0063E-03     83.3818E-03
            2448            2926     80.0063E-03     83.3818E-03
            2449            2926     80.0063E-03     83.3818E-03
            2467            2926     80.0063E-03     83.3818E-03
            2467            2927     69.8350E-03     73.2096E-03
            2468            2927     69.8350E-03     73.2096E-03
            2450            2927     69.8350E-03     73.2096E-03
            2449            2927     69.8350E-03     73.2096E-03
            2450            2928     59.6825E-03     63.0357E-03
            2451            2928     59.6825E-03     63.0357E-03
            2468            2928     59.6825E-03     63.0357E-03
            2469            2928     59.6825E-03     63.0357E-03
            2469            2929     49.5640E-03     52.8805E-03
            2451            2929     49.5640E-03     52.8805E-03
            2470            2929     49.5640E-03     52.8805E-03
            2452            2929     49.5640E-03     52.8805E-03
            2471            2930     39.4734E-03     42.7332E-03
            2470            2930     39.4734E-03     42.7332E-03
            2453            2930     39.4734E-03     42.7332E-03
            2452            2930     39.4734E-03     42.7332E-03
            2472            2931     29.4173E-03     32.6992E-03
            2453            2931     29.4173E-03     32.6992E-03
            2454            2931     29.4173E-03     32.6992E-03
            2471            2931     29.4173E-03     32.6992E-03
            2454            2932     19.4700E-03     23.0169E-03
            2473            2932     19.4700E-03     23.0169E-03
            2472            2932     19.4700E-03     23.0169E-03
            2455            2932     19.4700E-03     23.0169E-03
            2456            2933     10.3339E-03     13.4993E-03
            2473            2933     10.3339E-03     13.4993E-03
            2474            2933     10.3339E-03     13.4993E-03
            2455            2933     10.3339E-03     13.4993E-03
            2476            2934     176.598E-03     179.813E-03
            2458            2934     176.598E-03     179.813E-03
            2475            2934     176.598E-03     179.813E-03
            2457            2934     176.598E-03     179.813E-03
            2458            2935     160.219E-03     165.292E-03
            2476            2935     160.219E-03     165.292E-03
            2477            2935     160.219E-03     165.292E-03
            2459            2935     160.219E-03     165.292E-03
            2460            2936     148.955E-03     153.741E-03
            2459            2936     148.955E-03     153.741E-03
            2477            2936     148.955E-03     153.741E-03
            2478            2936     148.955E-03     153.741E-03
            2479            2937     139.062E-03     143.860E-03
            2460            2937     139.062E-03     143.860E-03
            2461            2937     139.062E-03     143.860E-03
            2478            2937     139.062E-03     143.860E-03
            2462            2938     129.025E-03     133.974E-03
            2480            2938     129.025E-03     133.974E-03
            2461            2938     129.025E-03     133.974E-03
            2479            2938     129.025E-03     133.974E-03
            2480            2939     119.202E-03     124.104E-03
            2463            2939     119.202E-03     124.104E-03
            2481            2939     119.202E-03     124.104E-03
            2462            2939     119.202E-03     124.104E-03
            2463            2940     109.167E-03     114.116E-03
            2482            2940     109.167E-03     114.116E-03
            2481            2940     109.167E-03     114.116E-03
            2464            2940     109.167E-03     114.116E-03
            2483            2941     99.1547E-03     104.090E-03
            2465            2941     99.1547E-03     104.090E-03
            2482            2941     99.1547E-03     104.090E-03
            2464            2941     99.1547E-03     104.090E-03
            2465            2942     89.0550E-03     93.9933E-03
            2466            2942     89.0550E-03     93.9933E-03
            2484            2942     89.0550E-03     93.9933E-03
            2483            2942     89.0550E-03     93.9933E-03
            2466            2943     78.9510E-03     83.8902E-03
            2467            2943     78.9510E-03     83.8902E-03
            2485            2943     78.9510E-03     83.8902E-03
            2484            2943     78.9510E-03     83.8902E-03
            2467            2944     68.8168E-03     73.7526E-03
            2486            2944     68.8168E-03     73.7526E-03
            2468            2944     68.8168E-03     73.7526E-03
            2485            2944     68.8168E-03     73.7526E-03
            2487            2945     58.6736E-03     63.6232E-03
            2486            2945     58.6736E-03     63.6232E-03
            2468            2945     58.6736E-03     63.6232E-03
            2469            2945     58.6736E-03     63.6232E-03
            2488            2946     48.5338E-03     53.4796E-03
            2470            2946     48.5338E-03     53.4796E-03
            2469            2946     48.5338E-03     53.4796E-03
            2487            2946     48.5338E-03     53.4796E-03
            2470            2947     38.4013E-03     43.3435E-03
            2489            2947     38.4013E-03     43.3435E-03
            2488            2947     38.4013E-03     43.3435E-03
            2471            2947     38.4013E-03     43.3435E-03
            2489            2948     28.3031E-03     33.2471E-03
            2490            2948     28.3031E-03     33.2471E-03
            2471            2948     28.3031E-03     33.2471E-03
            2472            2948     28.3031E-03     33.2471E-03
            2472            2949     18.5215E-03     22.9257E-03
            2491            2949     18.5215E-03     22.9257E-03
            2490            2949     18.5215E-03     22.9257E-03
            2473            2949     18.5215E-03     22.9257E-03
            2473            2950     8.95533E-03     13.0782E-03
            2474            2950     8.95533E-03     13.0782E-03
            2492            2950     8.95533E-03     13.0782E-03
            2491            2950     8.95533E-03     13.0782E-03
            2493            2951     6.22127E-03     6.20704E-03
            2512            2951     6.22127E-03     6.20704E-03
            2494            2951     6.22127E-03     6.20704E-03
            2511            2951     6.22127E-03     6.20704E-03
            2512            2952     7.64927E-03     5.99257E-03
            2494            2952     7.64927E-03     5.99257E-03
            2495            2952     7.64927E-03     5.99257E-03
            2513            2952     7.64927E-03     5.99257E-03
            2496            2953     10.3883E-03     8.77433E-03
            2513            2953     10.3883E-03     8.77433E-03
            2495            2953     10.3883E-03     8.77433E-03
            2514            2953     10.3883E-03     8.77433E-03
            2497            2954     11.5547E-03     10.1057E-03
            2496            2954     11.5547E-03     10.1057E-03
            2515            2954     11.5547E-03     10.1057E-03
            2514            2954     11.5547E-03     10.1057E-03
            2498            2955     11.9778E-03     10.6410E-03
            2515            2955     11.9778E-03     10.6410E-03
            2516            2955     11.9778E-03     10.6410E-03
            2497            2955     11.9778E-03     10.6410E-03
            2498            2956     11.9945E-03     10.7438E-03
            2499            2956     11.9945E-03     10.7438E-03
            2517            2956     11.9945E-03     10.7438E-03
            2516            2956     11.9945E-03     10.7438E-03
            2499            2957     11.8012E-03     10.6449E-03
            2518            2957     11.8012E-03     10.6449E-03
            2517            2957     11.8012E-03     10.6449E-03
            2500            2957     11.8012E-03     10.6449E-03
            2519            2958     11.5240E-03     10.4489E-03
            2518            2958     11.5240E-03     10.4489E-03
            2501            2958     11.5240E-03     10.4489E-03
            2500            2958     11.5240E-03     10.4489E-03
            2502            2959     11.2066E-03     10.2176E-03
            2520            2959     11.2066E-03     10.2176E-03
            2501            2959     11.2066E-03     10.2176E-03
            2519            2959     11.2066E-03     10.2176E-03
            2520            2960     10.8842E-03     9.98302E-03
            2503            2960     10.8842E-03     9.98302E-03
            2521            2960     10.8842E-03     9.98302E-03
            2502            2960     10.8842E-03     9.98302E-03
            2521            2961     10.5686E-03     9.75913E-03
            2522            2961     10.5686E-03     9.75913E-03
            2503            2961     10.5686E-03     9.75913E-03
            2504            2961     10.5686E-03     9.75913E-03
            2504            2962     10.2723E-03     9.56229E-03
            2523            2962     10.2723E-03     9.56229E-03
            2522            2962     10.2723E-03     9.56229E-03
            2505            2962     10.2723E-03     9.56229E-03
            2524            2963     9.99462E-03     9.39188E-03
            2506            2963     9.99462E-03     9.39188E-03
            2523            2963     9.99462E-03     9.39188E-03
            2505            2963     9.99462E-03     9.39188E-03
            2507            2964     9.73923E-03     9.26991E-03
            2506            2964     9.73923E-03     9.26991E-03
            2524            2964     9.73923E-03     9.26991E-03
            2525            2964     9.73923E-03     9.26991E-03
            2526            2965     9.48418E-03     9.20542E-03
            2508            2965     9.48418E-03     9.20542E-03
            2507            2965     9.48418E-03     9.20542E-03
            2525            2965     9.48418E-03     9.20542E-03
            2508            2966     9.17688E-03     9.30744E-03
            2527            2966     9.17688E-03     9.30744E-03
            2526            2966     9.17688E-03     9.30744E-03
            2509            2966     9.17688E-03     9.30744E-03
            2527            2967     8.90921E-03     9.59438E-03
            2528            2967     8.90921E-03     9.59438E-03
            2510            2967     8.90921E-03     9.59438E-03
            2509            2967     8.90921E-03     9.59438E-03
            2530            2968     7.64143E-03     7.28208E-03
            2511            2968     7.64143E-03     7.28208E-03
            2512            2968     7.64143E-03     7.28208E-03
            2529            2968     7.64143E-03     7.28208E-03
            2530            2969     8.76294E-03     8.39213E-03
            2512            2969     8.76294E-03     8.39213E-03
            2513            2969     8.76294E-03     8.39213E-03
            2531            2969     8.76294E-03     8.39213E-03
            2531            2970     11.4922E-03     10.8156E-03
            2513            2970     11.4922E-03     10.8156E-03
            2514            2970     11.4922E-03     10.8156E-03
            2532            2970     11.4922E-03     10.8156E-03
            2515            2971     12.3205E-03     11.5890E-03
            2533            2971     12.3205E-03     11.5890E-03
            2532            2971     12.3205E-03     11.5890E-03
            2514            2971     12.3205E-03     11.5890E-03
            2516            2972     12.3948E-03     11.6517E-03
            2534            2972     12.3948E-03     11.6517E-03
            2533            2972     12.3948E-03     11.6517E-03
            2515            2972     12.3948E-03     11.6517E-03
            2516            2973     12.0675E-03     11.3685E-03
            2535            2973     12.0675E-03     11.3685E-03
            2517            2973     12.0675E-03     11.3685E-03
            2534            2973     12.0675E-03     11.3685E-03
            2517            2974     11.6631E-03     11.0046E-03
            2518            2974     11.6631E-03     11.0046E-03
            2536            2974     11.6631E-03     11.0046E-03
            2535            2974     11.6631E-03     11.0046E-03
            2518            2975     11.2302E-03     10.6152E-03
            2519            2975     11.2302E-03     10.6152E-03
            2536            2975     11.2302E-03     10.6152E-03
            2537            2975     11.2302E-03     10.6152E-03
            2519            2976     10.8203E-03     10.2505E-03
            2520            2976     10.8203E-03     10.2505E-03
            2537            2976     10.8203E-03     10.2505E-03
            2538            2976     10.8203E-03     10.2505E-03
            2539            2977     10.4380E-03     9.91557E-03
            2520            2977     10.4380E-03     9.91557E-03
            2521            2977     10.4380E-03     9.91557E-03
            2538            2977     10.4380E-03     9.91557E-03
            2522            2978     10.0892E-03     9.61894E-03
            2539            2978     10.0892E-03     9.61894E-03
            2521            2978     10.0892E-03     9.61894E-03
            2540            2978     10.0892E-03     9.61894E-03
            2522            2979     9.77392E-03     9.35914E-03
            2540            2979     9.77392E-03     9.35914E-03
            2541            2979     9.77392E-03     9.35914E-03
            2523            2979     9.77392E-03     9.35914E-03
            2524            2980     9.49165E-03     9.14919E-03
            2523            2980     9.49165E-03     9.14919E-03
            2542            2980     9.49165E-03     9.14919E-03
            2541            2980     9.49165E-03     9.14919E-03
            2525            2981     9.25169E-03     8.97623E-03
            2524            2981     9.25169E-03     8.97623E-03
            2543            2981     9.25169E-03     8.97623E-03
            2542            2981     9.25169E-03     8.97623E-03
            2543            2982     9.00838E-03     8.89632E-03
            2544            2982     9.00838E-03     8.89632E-03
            2526            2982     9.00838E-03     8.89632E-03
            2525            2982     9.00838E-03     8.89632E-03
            2526            2983     8.85578E-03     8.90266E-03
            2545            2983     8.85578E-03     8.90266E-03
            2544            2983     8.85578E-03     8.90266E-03
            2527            2983     8.85578E-03     8.90266E-03
            2528            2984     9.00204E-03     8.69901E-03
            2546            2984     9.00204E-03     8.69901E-03
            2545            2984     9.00204E-03     8.69901E-03
            2527            2984     9.00204E-03     8.69901E-03
            2530            2985     10.9038E-03     10.8062E-03
            2548            2985     10.9038E-03     10.8062E-03
            2547            2985     10.9038E-03     10.8062E-03
            2529            2985     10.9038E-03     10.8062E-03
            2548            2986     10.5199E-03     10.8815E-03
            2549            2986     10.5199E-03     10.8815E-03
            2531            2986     10.5199E-03     10.8815E-03
            2530            2986     10.5199E-03     10.8815E-03
            2549            2987     12.1479E-03     12.2726E-03
            2531            2987     12.1479E-03     12.2726E-03
            2550            2987     12.1479E-03     12.2726E-03
            2532            2987     12.1479E-03     12.2726E-03
            2533            2988     12.7336E-03     12.6193E-03
            2551            2988     12.7336E-03     12.6193E-03
            2532            2988     12.7336E-03     12.6193E-03
            2550            2988     12.7336E-03     12.6193E-03
            2551            2989     12.4254E-03     12.2974E-03
            2534            2989     12.4254E-03     12.2974E-03
            2552            2989     12.4254E-03     12.2974E-03
            2533            2989     12.4254E-03     12.2974E-03
            2534            2990     11.9533E-03     11.8108E-03
            2535            2990     11.9533E-03     11.8108E-03
            2552            2990     11.9533E-03     11.8108E-03
            2553            2990     11.9533E-03     11.8108E-03
            2553            2991     11.4008E-03     11.2624E-03
            2554            2991     11.4008E-03     11.2624E-03
            2535            2991     11.4008E-03     11.2624E-03
            2536            2991     11.4008E-03     11.2624E-03
            2537            2992     10.8828E-03     10.7524E-03
            2555            2992     10.8828E-03     10.7524E-03
            2536            2992     10.8828E-03     10.7524E-03
            2554            2992     10.8828E-03     10.7524E-03
            2556            2993     10.4092E-03     10.2867E-03
            2538            2993     10.4092E-03     10.2867E-03
            2537            2993     10.4092E-03     10.2867E-03
            2555            2993     10.4092E-03     10.2867E-03
            2556            2994     9.98543E-03     9.87296E-03
            2539            2994     9.98543E-03     9.87296E-03
            2538            2994     9.98543E-03     9.87296E-03
            2557            2994     9.98543E-03     9.87296E-03
            2558            2995     9.61065E-03     9.50925E-03
            2557            2995     9.61065E-03     9.50925E-03
            2539            2995     9.61065E-03     9.50925E-03
            2540            2995     9.61065E-03     9.50925E-03
            2558            2996     9.28052E-03     9.19501E-03
            2559            2996     9.28052E-03     9.19501E-03
            2541            2996     9.28052E-03     9.19501E-03
            2540            2996     9.28052E-03     9.19501E-03
            2559            2997     8.99973E-03     8.93043E-03
            2542            2997     8.99973E-03     8.93043E-03
            2560            2997     8.99973E-03     8.93043E-03
            2541            2997     8.99973E-03     8.93043E-03
            2543            2998     8.76723E-03     8.72017E-03
            2560            2998     8.76723E-03     8.72017E-03
            2561            2998     8.76723E-03     8.72017E-03
            2542            2998     8.76723E-03     8.72017E-03
            2543            2999     8.63656E-03     8.53220E-03
            2544            2999     8.63656E-03     8.53220E-03
            2562            2999     8.63656E-03     8.53220E-03
            2561            2999     8.63656E-03     8.53220E-03
            2544            3000     8.65680E-03     8.26129E-03
            2563            3000     8.65680E-03     8.26129E-03
            2545            3000     8.65680E-03     8.26129E-03
            2562            3000     8.65680E-03     8.26129E-03
            2546            3001     8.71388E-03     7.95916E-03
            2564            3001     8.71388E-03     7.95916E-03
            2545            3001     8.71388E-03     7.95916E-03
            2563            3001     8.71388E-03     7.95916E-03
            2547            3002     14.7164E-03     15.0734E-03
            2566            3002     14.7164E-03     15.0734E-03
            2548            3002     14.7164E-03     15.0734E-03
            2565            3002     14.7164E-03     15.0734E-03
            2567            3003     13.1271E-03     13.5308E-03
            2566            3003     13.1271E-03     13.5308E-03
            2548            3003     13.1271E-03     13.5308E-03
            2549            3003     13.1271E-03     13.5308E-03
            2567            3004     12.8466E-03     13.3731E-03
            2550            3004     12.8466E-03     13.3731E-03
            2568            3004     12.8466E-03     13.3731E-03
            2549            3004     12.8466E-03     13.3731E-03
            2568            3005     12.5422E-03     13.0386E-03
            2551            3005     12.5422E-03     13.0386E-03
            2550            3005     12.5422E-03     13.0386E-03
            2569            3005     12.5422E-03     13.0386E-03
            2570            3006     12.0945E-03     12.5389E-03
            2552            3006     12.0945E-03     12.5389E-03
            2551            3006     12.0945E-03     12.5389E-03
            2569            3006     12.0945E-03     12.5389E-03
            2570            3007     11.5288E-03     11.9348E-03
            2552            3007     11.5288E-03     11.9348E-03
            2571            3007     11.5288E-03     11.9348E-03
            2553            3007     11.5288E-03     11.9348E-03
            2572            3008     10.9569E-03     11.3434E-03
            2554            3008     10.9569E-03     11.3434E-03
            2571            3008     10.9569E-03     11.3434E-03
            2553            3008     10.9569E-03     11.3434E-03
            2554            3009     10.4237E-03     10.7878E-03
            2572            3009     10.4237E-03     10.7878E-03
            2555            3009     10.4237E-03     10.7878E-03
            2573            3009     10.4237E-03     10.7878E-03
            2556            3010     9.93595E-03     10.2793E-03
            2574            3010     9.93595E-03     10.2793E-03
            2555            3010     9.93595E-03     10.2793E-03
            2573            3010     9.93595E-03     10.2793E-03
            2556            3011     9.50192E-03     9.82134E-03
            2557            3011     9.50192E-03     9.82134E-03
            2574            3011     9.50192E-03     9.82134E-03
            2575            3011     9.50192E-03     9.82134E-03
            2575            3012     9.11612E-03     9.40889E-03
            2557            3012     9.11612E-03     9.40889E-03
            2576            3012     9.11612E-03     9.40889E-03
            2558            3012     9.11612E-03     9.40889E-03
            2577            3013     8.78407E-03     9.04801E-03
            2558            3013     8.78407E-03     9.04801E-03
            2559            3013     8.78407E-03     9.04801E-03
            2576            3013     8.78407E-03     9.04801E-03
            2560            3014     8.50512E-03     8.73158E-03
            2578            3014     8.50512E-03     8.73158E-03
            2559            3014     8.50512E-03     8.73158E-03
            2577            3014     8.50512E-03     8.73158E-03
            2561            3015     8.28880E-03     8.47139E-03
            2560            3015     8.28880E-03     8.47139E-03
            2579            3015     8.28880E-03     8.47139E-03
            2578            3015     8.28880E-03     8.47139E-03
            2579            3016     8.19717E-03     8.20503E-03
            2580            3016     8.19717E-03     8.20503E-03
            2562            3016     8.19717E-03     8.20503E-03
            2561            3016     8.19717E-03     8.20503E-03
            2581            3017     8.24282E-03     7.85049E-03
            2580            3017     8.24282E-03     7.85049E-03
            2563            3017     8.24282E-03     7.85049E-03
            2562            3017     8.24282E-03     7.85049E-03
            2582            3018     8.30931E-03     7.55367E-03
            2563            3018     8.30931E-03     7.55367E-03
            2581            3018     8.30931E-03     7.55367E-03
            2564            3018     8.30931E-03     7.55367E-03
            2583            3019     19.0721E-03     19.0360E-03
            2565            3019     19.0721E-03     19.0360E-03
            2566            3019     19.0721E-03     19.0360E-03
            2584            3019     19.0721E-03     19.0360E-03
            2584            3020     15.1714E-03     15.8206E-03
            2567            3020     15.1714E-03     15.8206E-03
            2566            3020     15.1714E-03     15.8206E-03
            2585            3020     15.1714E-03     15.8206E-03
            2585            3021     12.9208E-03     13.9436E-03
            2586            3021     12.9208E-03     13.9436E-03
            2568            3021     12.9208E-03     13.9436E-03
            2567            3021     12.9208E-03     13.9436E-03
            2569            3022     11.9950E-03     13.0777E-03
            2568            3022     11.9950E-03     13.0777E-03
            2587            3022     11.9950E-03     13.0777E-03
            2586            3022     11.9950E-03     13.0777E-03
            2569            3023     11.4307E-03     12.4353E-03
            2570            3023     11.4307E-03     12.4353E-03
            2588            3023     11.4307E-03     12.4353E-03
            2587            3023     11.4307E-03     12.4353E-03
            2571            3024     10.8690E-03     11.8296E-03
            2588            3024     10.8690E-03     11.8296E-03
            2570            3024     10.8690E-03     11.8296E-03
            2589            3024     10.8690E-03     11.8296E-03
            2571            3025     10.3572E-03     11.2725E-03
            2590            3025     10.3572E-03     11.2725E-03
            2572            3025     10.3572E-03     11.2725E-03
            2589            3025     10.3572E-03     11.2725E-03
            2591            3026     9.85978E-03     10.7314E-03
            2572            3026     9.85978E-03     10.7314E-03
            2590            3026     9.85978E-03     10.7314E-03
            2573            3026     9.85978E-03     10.7314E-03
            2573            3027     9.40025E-03     10.2266E-03
            2592            3027     9.40025E-03     10.2266E-03
            2574            3027     9.40025E-03     10.2266E-03
            2591            3027     9.40025E-03     10.2266E-03
            2574            3028     8.97685E-03     9.74787E-03
            2593            3028     8.97685E-03     9.74787E-03
            2592            3028     8.97685E-03     9.74787E-03
            2575            3028     8.97685E-03     9.74787E-03
            2576            3029     8.60023E-03     9.30927E-03
            2575            3029     8.60023E-03     9.30927E-03
            2594            3029     8.60023E-03     9.30927E-03
            2593            3029     8.60023E-03     9.30927E-03
            2576            3030     8.27181E-03     8.90465E-03
            2594            3030     8.27181E-03     8.90465E-03
            2595            3030     8.27181E-03     8.90465E-03
            2577            3030     8.27181E-03     8.90465E-03
            2596            3031     8.00045E-03     8.54975E-03
            2577            3031     8.00045E-03     8.54975E-03
            2578            3031     8.00045E-03     8.54975E-03
            2595            3031     8.00045E-03     8.54975E-03
            2597            3032     7.79964E-03     8.22292E-03
            2596            3032     7.79964E-03     8.22292E-03
            2579            3032     7.79964E-03     8.22292E-03
            2578            3032     7.79964E-03     8.22292E-03
            2580            3033     7.64038E-03     7.95821E-03
            2579            3033     7.64038E-03     7.95821E-03
            2597            3033     7.64038E-03     7.95821E-03
            2598            3033     7.64038E-03     7.95821E-03
            2599            3034     7.60067E-03     7.73777E-03
            2598            3034     7.60067E-03     7.73777E-03
            2580            3034     7.60067E-03     7.73777E-03
            2581            3034     7.60067E-03     7.73777E-03
            2581            3035     7.78938E-03     7.37517E-03
            2599            3035     7.78938E-03     7.37517E-03
            2582            3035     7.78938E-03     7.37517E-03
            2600            3035     7.78938E-03     7.37517E-03
            2584            3036     21.6918E-03     23.2647E-03
            2601            3036     21.6918E-03     23.2647E-03
            2602            3036     21.6918E-03     23.2647E-03
            2583            3036     21.6918E-03     23.2647E-03
            2602            3037     15.1440E-03     16.9754E-03
            2603            3037     15.1440E-03     16.9754E-03
            2584            3037     15.1440E-03     16.9754E-03
            2585            3037     15.1440E-03     16.9754E-03
            2585            3038     12.4139E-03     14.1937E-03
            2603            3038     12.4139E-03     14.1937E-03
            2586            3038     12.4139E-03     14.1937E-03
            2604            3038     12.4139E-03     14.1937E-03
            2587            3039     11.3203E-03     12.9921E-03
            2604            3039     11.3203E-03     12.9921E-03
            2605            3039     11.3203E-03     12.9921E-03
            2586            3039     11.3203E-03     12.9921E-03
            2605            3040     10.6234E-03     12.2279E-03
            2587            3040     10.6234E-03     12.2279E-03
            2588            3040     10.6234E-03     12.2279E-03
            2606            3040     10.6234E-03     12.2279E-03
            2607            3041     10.1500E-03     11.6810E-03
            2606            3041     10.1500E-03     11.6810E-03
            2589            3041     10.1500E-03     11.6810E-03
            2588            3041     10.1500E-03     11.6810E-03
            2589            3042     9.68718E-03     11.1521E-03
            2590            3042     9.68718E-03     11.1521E-03
            2608            3042     9.68718E-03     11.1521E-03
            2607            3042     9.68718E-03     11.1521E-03
            2608            3043     9.24820E-03     10.6516E-03
            2609            3043     9.24820E-03     10.6516E-03
            2590            3043     9.24820E-03     10.6516E-03
            2591            3043     9.24820E-03     10.6516E-03
            2609            3044     8.82102E-03     10.1492E-03
            2591            3044     8.82102E-03     10.1492E-03
            2592            3044     8.82102E-03     10.1492E-03
            2610            3044     8.82102E-03     10.1492E-03
            2593            3045     8.41972E-03     9.66809E-03
            2610            3045     8.41972E-03     9.66809E-03
            2592            3045     8.41972E-03     9.66809E-03
            2611            3045     8.41972E-03     9.66809E-03
            2594            3046     8.05683E-03     9.20362E-03
            2611            3046     8.05683E-03     9.20362E-03
            2593            3046     8.05683E-03     9.20362E-03
            2612            3046     8.05683E-03     9.20362E-03
            2595            3047     7.74122E-03     8.77242E-03
            2613            3047     7.74122E-03     8.77242E-03
            2612            3047     7.74122E-03     8.77242E-03
            2594            3047     7.74122E-03     8.77242E-03
            2595            3048     7.48005E-03     8.36946E-03
            2613            3048     7.48005E-03     8.36946E-03
            2614            3048     7.48005E-03     8.36946E-03
            2596            3048     7.48005E-03     8.36946E-03
            2597            3049     7.27786E-03     8.00929E-03
            2596            3049     7.27786E-03     8.00929E-03
            2614            3049     7.27786E-03     8.00929E-03
            2615            3049     7.27786E-03     8.00929E-03
            2598            3050     7.11570E-03     7.70499E-03
            2597            3050     7.11570E-03     7.70499E-03
            2615            3050     7.11570E-03     7.70499E-03
            2616            3050     7.11570E-03     7.70499E-03
            2598            3051     6.96100E-03     7.52847E-03
            2617            3051     6.96100E-03     7.52847E-03
            2616            3051     6.96100E-03     7.52847E-03
            2599            3051     6.96100E-03     7.52847E-03
            2617            3052     6.87971E-03     7.47475E-03
            2618            3052     6.87971E-03     7.47475E-03
            2600            3052     6.87971E-03     7.47475E-03
            2599            3052     6.87971E-03     7.47475E-03
            2620            3053     22.5292E-03     23.1277E-03
            2619            3053     22.5292E-03     23.1277E-03
            2601            3053     22.5292E-03     23.1277E-03
            2602            3053     22.5292E-03     23.1277E-03
            2621            3054     20.7193E-03     20.7087E-03
            2603            3054     20.7193E-03     20.7087E-03
            2620            3054     20.7193E-03     20.7087E-03
            2602            3054     20.7193E-03     20.7087E-03
            2621            3055     20.1656E-03     20.1200E-03
            2603            3055     20.1656E-03     20.1200E-03
            2604            3055     20.1656E-03     20.1200E-03
            2622            3055     20.1656E-03     20.1200E-03
            2605            3056     19.7356E-03     19.7872E-03
            2604            3056     19.7356E-03     19.7872E-03
            2622            3056     19.7356E-03     19.7872E-03
            2623            3056     19.7356E-03     19.7872E-03
            2605            3057     19.2755E-03     19.4017E-03
            2606            3057     19.2755E-03     19.4017E-03
            2624            3057     19.2755E-03     19.4017E-03
            2623            3057     19.2755E-03     19.4017E-03
            2607            3058     18.7243E-03     18.9141E-03
            2624            3058     18.7243E-03     18.9141E-03
            2606            3058     18.7243E-03     18.9141E-03
            2625            3058     18.7243E-03     18.9141E-03
            2608            3059     18.0359E-03     18.2650E-03
            2625            3059     18.0359E-03     18.2650E-03
            2626            3059     18.0359E-03     18.2650E-03
            2607            3059     18.0359E-03     18.2650E-03
            2627            3060     17.2610E-03     17.5168E-03
            2609            3060     17.2610E-03     17.5168E-03
            2626            3060     17.2610E-03     17.5168E-03
            2608            3060     17.2610E-03     17.5168E-03
            2610            3061     16.4199E-03     16.6839E-03
            2627            3061     16.4199E-03     16.6839E-03
            2628            3061     16.4199E-03     16.6839E-03
            2609            3061     16.4199E-03     16.6839E-03
            2610            3062     15.5583E-03     15.8192E-03
            2628            3062     15.5583E-03     15.8192E-03
            2629            3062     15.5583E-03     15.8192E-03
            2611            3062     15.5583E-03     15.8192E-03
            2611            3063     14.7013E-03     14.9438E-03
            2629            3063     14.7013E-03     14.9438E-03
            2630            3063     14.7013E-03     14.9438E-03
            2612            3063     14.7013E-03     14.9438E-03
            2613            3064     13.8856E-03     14.0992E-03
            2630            3064     13.8856E-03     14.0992E-03
            2631            3064     13.8856E-03     14.0992E-03
            2612            3064     13.8856E-03     14.0992E-03
            2613            3065     13.1267E-03     13.2937E-03
            2614            3065     13.1267E-03     13.2937E-03
            2631            3065     13.1267E-03     13.2937E-03
            2632            3065     13.1267E-03     13.2937E-03
            2633            3066     12.4549E-03     12.5983E-03
            2614            3066     12.4549E-03     12.5983E-03
            2632            3066     12.4549E-03     12.5983E-03
            2615            3066     12.4549E-03     12.5983E-03
            2615            3067     11.8629E-03     11.9793E-03
            2633            3067     11.8629E-03     11.9793E-03
            2634            3067     11.8629E-03     11.9793E-03
            2616            3067     11.8629E-03     11.9793E-03
            2617            3068     11.3325E-03     11.6680E-03
            2634            3068     11.3325E-03     11.6680E-03
            2635            3068     11.3325E-03     11.6680E-03
            2616            3068     11.3325E-03     11.6680E-03
            2635            3069     10.4453E-03     11.8670E-03
            2636            3069     10.4453E-03     11.8670E-03
            2618            3069     10.4453E-03     11.8670E-03
            2617            3069     10.4453E-03     11.8670E-03
            2638            3070     24.7647E-03     23.3672E-03
            2637            3070     24.7647E-03     23.3672E-03
            2619            3070     24.7647E-03     23.3672E-03
            2620            3070     24.7647E-03     23.3672E-03
            2639            3071     27.6910E-03     26.0996E-03
            2620            3071     27.6910E-03     26.0996E-03
            2621            3071     27.6910E-03     26.0996E-03
            2638            3071     27.6910E-03     26.0996E-03
            2621            3072     29.2702E-03     27.6748E-03
            2640            3072     29.2702E-03     27.6748E-03
            2622            3072     29.2702E-03     27.6748E-03
            2639            3072     29.2702E-03     27.6748E-03
            2640            3073     29.5525E-03     28.0936E-03
            2641            3073     29.5525E-03     28.0936E-03
            2622            3073     29.5525E-03     28.0936E-03
            2623            3073     29.5525E-03     28.0936E-03
            2624            3074     29.1811E-03     27.8505E-03
            2641            3074     29.1811E-03     27.8505E-03
            2642            3074     29.1811E-03     27.8505E-03
            2623            3074     29.1811E-03     27.8505E-03
            2642            3075     28.3325E-03     27.1309E-03
            2625            3075     28.3325E-03     27.1309E-03
            2624            3075     28.3325E-03     27.1309E-03
            2643            3075     28.3325E-03     27.1309E-03
            2644            3076     27.1987E-03     26.1070E-03
            2626            3076     27.1987E-03     26.1070E-03
            2625            3076     27.1987E-03     26.1070E-03
            2643            3076     27.1987E-03     26.1070E-03
            2645            3077     25.8699E-03     24.8691E-03
            2626            3077     25.8699E-03     24.8691E-03
            2644            3077     25.8699E-03     24.8691E-03
            2627            3077     25.8699E-03     24.8691E-03
            2645            3078     24.4284E-03     23.5123E-03
            2628            3078     24.4284E-03     23.5123E-03
            2627            3078     24.4284E-03     23.5123E-03
            2646            3078     24.4284E-03     23.5123E-03
            2646            3079     22.9371E-03     22.0909E-03
            2647            3079     22.9371E-03     22.0909E-03
            2629            3079     22.9371E-03     22.0909E-03
            2628            3079     22.9371E-03     22.0909E-03
            2630            3080     21.4387E-03     20.6673E-03
            2648            3080     21.4387E-03     20.6673E-03
            2647            3080     21.4387E-03     20.6673E-03
            2629            3080     21.4387E-03     20.6673E-03
            2631            3081     19.9854E-03     19.2877E-03
            2630            3081     19.9854E-03     19.2877E-03
            2649            3081     19.9854E-03     19.2877E-03
            2648            3081     19.9854E-03     19.2877E-03
            2650            3082     18.6020E-03     18.0076E-03
            2649            3082     18.6020E-03     18.0076E-03
            2632            3082     18.6020E-03     18.0076E-03
            2631            3082     18.6020E-03     18.0076E-03
            2651            3083     17.3351E-03     16.8936E-03
            2650            3083     17.3351E-03     16.8936E-03
            2633            3083     17.3351E-03     16.8936E-03
            2632            3083     17.3351E-03     16.8936E-03
            2651            3084     16.1771E-03     16.0171E-03
            2652            3084     16.1771E-03     16.0171E-03
            2633            3084     16.1771E-03     16.0171E-03
            2634            3084     16.1771E-03     16.0171E-03
            2634            3085     15.0784E-03     15.6334E-03
            2653            3085     15.0784E-03     15.6334E-03
            2635            3085     15.0784E-03     15.6334E-03
            2652            3085     15.0784E-03     15.6334E-03
            2636            3086     14.2183E-03     15.8327E-03
            2635            3086     14.2183E-03     15.8327E-03
            2653            3086     14.2183E-03     15.8327E-03
            2654            3086     14.2183E-03     15.8327E-03
            2638            3087     28.7254E-03     28.7286E-03
            2656            3087     28.7254E-03     28.7286E-03
            2655            3087     28.7254E-03     28.7286E-03
            2637            3087     28.7254E-03     28.7286E-03
            2638            3088     29.7889E-03     29.7200E-03
            2656            3088     29.7889E-03     29.7200E-03
            2639            3088     29.7889E-03     29.7200E-03
            2657            3088     29.7889E-03     29.7200E-03
            2640            3089     31.2565E-03     30.8326E-03
            2658            3089     31.2565E-03     30.8326E-03
            2657            3089     31.2565E-03     30.8326E-03
            2639            3089     31.2565E-03     30.8326E-03
            2659            3090     31.4126E-03     30.7988E-03
            2640            3090     31.4126E-03     30.7988E-03
            2641            3090     31.4126E-03     30.7988E-03
            2658            3090     31.4126E-03     30.7988E-03
            2642            3091     30.7539E-03     30.0770E-03
            2641            3091     30.7539E-03     30.0770E-03
            2659            3091     30.7539E-03     30.0770E-03
            2660            3091     30.7539E-03     30.0770E-03
            2642            3092     29.5804E-03     28.8910E-03
            2661            3092     29.5804E-03     28.8910E-03
            2660            3092     29.5804E-03     28.8910E-03
            2643            3092     29.5804E-03     28.8910E-03
            2644            3093     28.0898E-03     27.4167E-03
            2662            3093     28.0898E-03     27.4167E-03
            2661            3093     28.0898E-03     27.4167E-03
            2643            3093     28.0898E-03     27.4167E-03
            2662            3094     26.4178E-03     25.7776E-03
            2663            3094     26.4178E-03     25.7776E-03
            2644            3094     26.4178E-03     25.7776E-03
            2645            3094     26.4178E-03     25.7776E-03
            2663            3095     24.6598E-03     24.0537E-03
            2664            3095     24.6598E-03     24.0537E-03
            2646            3095     24.6598E-03     24.0537E-03
            2645            3095     24.6598E-03     24.0537E-03
            2665            3096     22.8736E-03     22.3112E-03
            2646            3096     22.8736E-03     22.3112E-03
            2664            3096     22.8736E-03     22.3112E-03
            2647            3096     22.8736E-03     22.3112E-03
            2647            3097     21.1119E-03     20.6012E-03
            2666            3097     21.1119E-03     20.6012E-03
            2665            3097     21.1119E-03     20.6012E-03
            2648            3097     21.1119E-03     20.6012E-03
            2667            3098     19.4086E-03     18.9705E-03
            2666            3098     19.4086E-03     18.9705E-03
            2649            3098     19.4086E-03     18.9705E-03
            2648            3098     19.4086E-03     18.9705E-03
            2668            3099     17.7936E-03     17.4818E-03
            2649            3099     17.7936E-03     17.4818E-03
            2667            3099     17.7936E-03     17.4818E-03
            2650            3099     17.7936E-03     17.4818E-03
            2650            3100     16.3052E-03     16.1927E-03
            2668            3100     16.3052E-03     16.1927E-03
            2669            3100     16.3052E-03     16.1927E-03
            2651            3100     16.3052E-03     16.1927E-03
            2669            3101     14.9343E-03     15.2335E-03
            2670            3101     14.9343E-03     15.2335E-03
            2651            3101     14.9343E-03     15.2335E-03
            2652            3101     14.9343E-03     15.2335E-03
            2652            3102     13.8414E-03     14.6875E-03
            2670            3102     13.8414E-03     14.6875E-03
            2653            3102     13.8414E-03     14.6875E-03
            2671            3102     13.8414E-03     14.6875E-03
            2653            3103     13.5233E-03     14.0910E-03
            2654            3103     13.5233E-03     14.0910E-03
            2671            3103     13.5233E-03     14.0910E-03
            2672            3103     13.5233E-03     14.0910E-03
            2674            3104     33.2977E-03     33.4565E-03
            2655            3104     33.2977E-03     33.4565E-03
            2656            3104     33.2977E-03     33.4565E-03
            2673            3104     33.2977E-03     33.4565E-03
            2675            3105     32.7186E-03     33.2284E-03
            2657            3105     32.7186E-03     33.2284E-03
            2656            3105     32.7186E-03     33.2284E-03
            2674            3105     32.7186E-03     33.2284E-03
            2676            3106     33.1048E-03     33.4457E-03
            2657            3106     33.1048E-03     33.4457E-03
            2658            3106     33.1048E-03     33.4457E-03
            2675            3106     33.1048E-03     33.4457E-03
            2659            3107     32.9435E-03     33.0398E-03
            2677            3107     32.9435E-03     33.0398E-03
            2676            3107     32.9435E-03     33.0398E-03
            2658            3107     32.9435E-03     33.0398E-03
            2659            3108     32.0000E-03     31.9262E-03
            2678            3108     32.0000E-03     31.9262E-03
            2677            3108     32.0000E-03     31.9262E-03
            2660            3108     32.0000E-03     31.9262E-03
            2678            3109     30.5515E-03     30.3756E-03
            2679            3109     30.5515E-03     30.3756E-03
            2660            3109     30.5515E-03     30.3756E-03
            2661            3109     30.5515E-03     30.3756E-03
            2680            3110     28.7768E-03     28.5538E-03
            2662            3110     28.7768E-03     28.5538E-03
            2679            3110     28.7768E-03     28.5538E-03
            2661            3110     28.7768E-03     28.5538E-03
            2663            3111     26.8406E-03     26.5916E-03
            2662            3111     26.8406E-03     26.5916E-03
            2680            3111     26.8406E-03     26.5916E-03
            2681            3111     26.8406E-03     26.5916E-03
            2663            3112     24.8234E-03     24.5749E-03
            2664            3112     24.8234E-03     24.5749E-03
            2681            3112     24.8234E-03     24.5749E-03
            2682            3112     24.8234E-03     24.5749E-03
            2664            3113     22.8031E-03     22.5670E-03
            2665            3113     22.8031E-03     22.5670E-03
            2683            3113     22.8031E-03     22.5670E-03
            2682            3113     22.8031E-03     22.5670E-03
            2684            3114     20.8169E-03     20.6127E-03
            2683            3114     20.8169E-03     20.6127E-03
            2666            3114     20.8169E-03     20.6127E-03
            2665            3114     20.8169E-03     20.6127E-03
            2684            3115     18.9016E-03     18.7612E-03
            2667            3115     18.9016E-03     18.7612E-03
            2666            3115     18.9016E-03     18.7612E-03
            2685            3115     18.9016E-03     18.7612E-03
            2685            3116     17.0958E-03     17.0601E-03
            2667            3116     17.0958E-03     17.0601E-03
            2686            3116     17.0958E-03     17.0601E-03
            2668            3116     17.0958E-03     17.0601E-03
            2668            3117     15.4263E-03     15.5737E-03
            2669            3117     15.4263E-03     15.5737E-03
            2686            3117     15.4263E-03     15.5737E-03
            2687            3117     15.4263E-03     15.5737E-03
            2669            3118     13.9899E-03     14.3829E-03
            2670            3118     13.9899E-03     14.3829E-03
            2688            3118     13.9899E-03     14.3829E-03
            2687            3118     13.9899E-03     14.3829E-03
            2688            3119     13.0335E-03     13.3275E-03
            2670            3119     13.0335E-03     13.3275E-03
            2689            3119     13.0335E-03     13.3275E-03
            2671            3119     13.0335E-03     13.3275E-03
            2690            3120     12.5116E-03     12.3607E-03
            2672            3120     12.5116E-03     12.3607E-03
            2671            3120     12.5116E-03     12.3607E-03
            2689            3120     12.5116E-03     12.3607E-03
            2691            3121     37.4584E-03     37.7918E-03
            2674            3121     37.4584E-03     37.7918E-03
            2673            3121     37.4584E-03     37.7918E-03
            2692            3121     37.4584E-03     37.7918E-03
            2693            3122     35.9668E-03     36.5604E-03
            2674            3122     35.9668E-03     36.5604E-03
            2675            3122     35.9668E-03     36.5604E-03
            2692            3122     35.9668E-03     36.5604E-03
            2694            3123     35.1290E-03     35.8383E-03
            2676            3123     35.1290E-03     35.8383E-03
            2693            3123     35.1290E-03     35.8383E-03
            2675            3123     35.1290E-03     35.8383E-03
            2695            3124     34.2732E-03     34.8401E-03
            2694            3124     34.2732E-03     34.8401E-03
            2676            3124     34.2732E-03     34.8401E-03
            2677            3124     34.2732E-03     34.8401E-03
            2696            3125     32.9429E-03     33.3477E-03
            2678            3125     32.9429E-03     33.3477E-03
            2695            3125     32.9429E-03     33.3477E-03
            2677            3125     32.9429E-03     33.3477E-03
            2678            3126     31.1815E-03     31.4701E-03
            2697            3126     31.1815E-03     31.4701E-03
            2696            3126     31.1815E-03     31.4701E-03
            2679            3126     31.1815E-03     31.4701E-03
            2680            3127     29.1741E-03     29.3702E-03
            2698            3127     29.1741E-03     29.3702E-03
            2697            3127     29.1741E-03     29.3702E-03
            2679            3127     29.1741E-03     29.3702E-03
            2680            3128     27.0134E-03     27.1620E-03
            2699            3128     27.0134E-03     27.1620E-03
            2681            3128     27.0134E-03     27.1620E-03
            2698            3128     27.0134E-03     27.1620E-03
            2700            3129     24.8145E-03     24.9306E-03
            2681            3129     24.8145E-03     24.9306E-03
            2682            3129     24.8145E-03     24.9306E-03
            2699            3129     24.8145E-03     24.9306E-03
            2701            3130     22.6151E-03     22.7224E-03
            2683            3130     22.6151E-03     22.7224E-03
            2700            3130     22.6151E-03     22.7224E-03
            2682            3130     22.6151E-03     22.7224E-03
            2701            3131     20.4654E-03     20.5829E-03
            2702            3131     20.4654E-03     20.5829E-03
            2683            3131     20.4654E-03     20.5829E-03
            2684            3131     20.4654E-03     20.5829E-03
            2702            3132     18.3951E-03     18.5466E-03
            2685            3132     18.3951E-03     18.5466E-03
            2703            3132     18.3951E-03     18.5466E-03
            2684            3132     18.3951E-03     18.5466E-03
            2704            3133     16.4410E-03     16.6530E-03
            2703            3133     16.4410E-03     16.6530E-03
            2686            3133     16.4410E-03     16.6530E-03
            2685            3133     16.4410E-03     16.6530E-03
            2705            3134     14.6623E-03     14.9576E-03
            2687            3134     14.6623E-03     14.9576E-03
            2704            3134     14.6623E-03     14.9576E-03
            2686            3134     14.6623E-03     14.9576E-03
            2706            3135     13.1895E-03     13.4445E-03
            2688            3135     13.1895E-03     13.4445E-03
            2705            3135     13.1895E-03     13.4445E-03
            2687            3135     13.1895E-03     13.4445E-03
            2688            3136     12.0943E-03     12.1290E-03
            2707            3136     12.0943E-03     12.1290E-03
            2689            3136     12.0943E-03     12.1290E-03
            2706            3136     12.0943E-03     12.1290E-03
            2707            3137     11.4653E-03     11.2371E-03
            2689            3137     11.4653E-03     11.2371E-03
            2708            3137     11.4653E-03     11.2371E-03
            2690            3137     11.4653E-03     11.2371E-03
            2709            3138     41.4341E-03     41.8339E-03
            2691            3138     41.4341E-03     41.8339E-03
            2692            3138     41.4341E-03     41.8339E-03
            2710            3138     41.4341E-03     41.8339E-03
            2692            3139     38.9969E-03     39.7309E-03
            2711            3139     38.9969E-03     39.7309E-03
            2693            3139     38.9969E-03     39.7309E-03
            2710            3139     38.9969E-03     39.7309E-03
            2711            3140     37.2331E-03     38.0615E-03
            2694            3140     37.2331E-03     38.0615E-03
            2693            3140     37.2331E-03     38.0615E-03
            2712            3140     37.2331E-03     38.0615E-03
            2695            3141     35.4946E-03     36.3438E-03
            2712            3141     35.4946E-03     36.3438E-03
            2694            3141     35.4946E-03     36.3438E-03
            2713            3141     35.4946E-03     36.3438E-03
            2714            3142     33.6033E-03     34.3720E-03
            2695            3142     33.6033E-03     34.3720E-03
            2696            3142     33.6033E-03     34.3720E-03
            2713            3142     33.6033E-03     34.3720E-03
            2715            3143     31.5028E-03     32.1589E-03
            2697            3143     31.5028E-03     32.1589E-03
            2696            3143     31.5028E-03     32.1589E-03
            2714            3143     31.5028E-03     32.1589E-03
            2698            3144     29.2309E-03     29.8156E-03
            2716            3144     29.2309E-03     29.8156E-03
            2715            3144     29.2309E-03     29.8156E-03
            2697            3144     29.2309E-03     29.8156E-03
            2698            3145     26.9137E-03     27.4302E-03
            2717            3145     26.9137E-03     27.4302E-03
            2716            3145     26.9137E-03     27.4302E-03
            2699            3145     26.9137E-03     27.4302E-03
            2700            3146     24.5707E-03     25.0451E-03
            2699            3146     24.5707E-03     25.0451E-03
            2718            3146     24.5707E-03     25.0451E-03
            2717            3146     24.5707E-03     25.0451E-03
            2700            3147     22.2602E-03     22.7062E-03
            2718            3147     22.2602E-03     22.7062E-03
            2701            3147     22.2602E-03     22.7062E-03
            2719            3147     22.2602E-03     22.7062E-03
            2719            3148     20.0010E-03     20.4347E-03
            2701            3148     20.0010E-03     20.4347E-03
            2702            3148     20.0010E-03     20.4347E-03
            2720            3148     20.0010E-03     20.4347E-03
            2702            3149     17.8281E-03     18.2586E-03
            2703            3149     17.8281E-03     18.2586E-03
            2721            3149     17.8281E-03     18.2586E-03
            2720            3149     17.8281E-03     18.2586E-03
            2704            3150     15.7769E-03     16.2083E-03
            2721            3150     15.7769E-03     16.2083E-03
            2722            3150     15.7769E-03     16.2083E-03
            2703            3150     15.7769E-03     16.2083E-03
            2705            3151     13.9219E-03     14.3046E-03
            2722            3151     13.9219E-03     14.3046E-03
            2704            3151     13.9219E-03     14.3046E-03
            2723            3151     13.9219E-03     14.3046E-03
            2706            3152     12.3413E-03     12.5755E-03
            2705            3152     12.3413E-03     12.5755E-03
            2724            3152     12.3413E-03     12.5755E-03
            2723            3152     12.3413E-03     12.5755E-03
            2724            3153     11.1492E-03     11.1404E-03
            2706            3153     11.1492E-03     11.1404E-03
            2707            3153     11.1492E-03     11.1404E-03
            2725            3153     11.1492E-03     11.1404E-03
            2708            3154     10.4523E-03     10.0583E-03
            2707            3154     10.4523E-03     10.0583E-03
            2726            3154     10.4523E-03     10.0583E-03
            2725            3154     10.4523E-03     10.0583E-03
            2710            3155     45.1663E-03     45.7694E-03
            2727            3155     45.1663E-03     45.7694E-03
            2728            3155     45.1663E-03     45.7694E-03
            2709            3155     45.1663E-03     45.7694E-03
            2729            3156     41.9612E-03     42.6894E-03
            2711            3156     41.9612E-03     42.6894E-03
            2710            3156     41.9612E-03     42.6894E-03
            2728            3156     41.9612E-03     42.6894E-03
            2712            3157     39.1202E-03     40.0897E-03
            2730            3157     39.1202E-03     40.0897E-03
            2711            3157     39.1202E-03     40.0897E-03
            2729            3157     39.1202E-03     40.0897E-03
            2731            3158     36.5321E-03     37.5652E-03
            2713            3158     36.5321E-03     37.5652E-03
            2712            3158     36.5321E-03     37.5652E-03
            2730            3158     36.5321E-03     37.5652E-03
            2731            3159     33.9997E-03     35.0087E-03
            2732            3159     33.9997E-03     35.0087E-03
            2713            3159     33.9997E-03     35.0087E-03
            2714            3159     33.9997E-03     35.0087E-03
            2732            3160     31.4644E-03     32.4467E-03
            2733            3160     31.4644E-03     32.4467E-03
            2714            3160     31.4644E-03     32.4467E-03
            2715            3160     31.4644E-03     32.4467E-03
            2715            3161     28.9895E-03     29.9050E-03
            2734            3161     28.9895E-03     29.9050E-03
            2716            3161     28.9895E-03     29.9050E-03
            2733            3161     28.9895E-03     29.9050E-03
            2716            3162     26.5222E-03     27.3826E-03
            2735            3162     26.5222E-03     27.3826E-03
            2734            3162     26.5222E-03     27.3826E-03
            2717            3162     26.5222E-03     27.3826E-03
            2717            3163     24.0994E-03     24.9122E-03
            2718            3163     24.0994E-03     24.9122E-03
            2735            3163     24.0994E-03     24.9122E-03
            2736            3163     24.0994E-03     24.9122E-03
            2737            3164     21.7195E-03     22.4933E-03
            2736            3164     21.7195E-03     22.4933E-03
            2718            3164     21.7195E-03     22.4933E-03
            2719            3164     21.7195E-03     22.4933E-03
            2738            3165     19.4027E-03     20.1440E-03
            2737            3165     19.4027E-03     20.1440E-03
            2719            3165     19.4027E-03     20.1440E-03
            2720            3165     19.4027E-03     20.1440E-03
            2720            3166     17.1677E-03     17.8751E-03
            2721            3166     17.1677E-03     17.8751E-03
            2739            3166     17.1677E-03     17.8751E-03
            2738            3166     17.1677E-03     17.8751E-03
            2721            3167     15.0573E-03     15.7032E-03
            2740            3167     15.0573E-03     15.7032E-03
            2722            3167     15.0573E-03     15.7032E-03
            2739            3167     15.0573E-03     15.7032E-03
            2740            3168     13.1238E-03     13.6471E-03
            2723            3168     13.1238E-03     13.6471E-03
            2722            3168     13.1238E-03     13.6471E-03
            2741            3168     13.1238E-03     13.6471E-03
            2723            3169     11.4540E-03     11.7780E-03
            2741            3169     11.4540E-03     11.7780E-03
            2742            3169     11.4540E-03     11.7780E-03
            2724            3169     11.4540E-03     11.7780E-03
            2724            3170     10.1701E-03     10.1576E-03
            2742            3170     10.1701E-03     10.1576E-03
            2743            3170     10.1701E-03     10.1576E-03
            2725            3170     10.1701E-03     10.1576E-03
            2744            3171     9.37168E-03     8.99090E-03
            2726            3171     9.37168E-03     8.99090E-03
            2725            3171     9.37168E-03     8.99090E-03
            2743            3171     9.37168E-03     8.99090E-03
            2728            3172     48.9862E-03     49.5319E-03
            2745            3172     48.9862E-03     49.5319E-03
            2746            3172     48.9862E-03     49.5319E-03
            2727            3172     48.9862E-03     49.5319E-03
            2746            3173     44.6141E-03     45.5461E-03
            2747            3173     44.6141E-03     45.5461E-03
            2728            3173     44.6141E-03     45.5461E-03
            2729            3173     44.6141E-03     45.5461E-03
            2748            3174     40.7618E-03     41.8015E-03
            2747            3174     40.7618E-03     41.8015E-03
            2730            3174     40.7618E-03     41.8015E-03
            2729            3174     40.7618E-03     41.8015E-03
            2730            3175     37.1998E-03     38.3488E-03
            2748            3175     37.1998E-03     38.3488E-03
            2749            3175     37.1998E-03     38.3488E-03
            2731            3175     37.1998E-03     38.3488E-03
            2731            3176     33.9636E-03     35.2223E-03
            2750            3176     33.9636E-03     35.2223E-03
            2749            3176     33.9636E-03     35.2223E-03
            2732            3176     33.9636E-03     35.2223E-03
            2751            3177     31.1198E-03     32.3699E-03
            2750            3177     31.1198E-03     32.3699E-03
            2732            3177     31.1198E-03     32.3699E-03
            2733            3177     31.1198E-03     32.3699E-03
            2751            3178     28.4417E-03     29.6593E-03
            2733            3178     28.4417E-03     29.6593E-03
            2752            3178     28.4417E-03     29.6593E-03
            2734            3178     28.4417E-03     29.6593E-03
            2752            3179     25.8914E-03     27.0695E-03
            2753            3179     25.8914E-03     27.0695E-03
            2735            3179     25.8914E-03     27.0695E-03
            2734            3179     25.8914E-03     27.0695E-03
            2753            3180     23.4215E-03     24.5545E-03
            2754            3180     23.4215E-03     24.5545E-03
            2736            3180     23.4215E-03     24.5545E-03
            2735            3180     23.4215E-03     24.5545E-03
            2754            3181     21.0154E-03     22.1093E-03
            2736            3181     21.0154E-03     22.1093E-03
            2755            3181     21.0154E-03     22.1093E-03
            2737            3181     21.0154E-03     22.1093E-03
            2755            3182     18.6742E-03     19.7244E-03
            2738            3182     18.6742E-03     19.7244E-03
            2737            3182     18.6742E-03     19.7244E-03
            2756            3182     18.6742E-03     19.7244E-03
            2756            3183     16.4103E-03     17.4033E-03
            2757            3183     16.4103E-03     17.4033E-03
            2739            3183     16.4103E-03     17.4033E-03
            2738            3183     16.4103E-03     17.4033E-03
            2739            3184     14.2518E-03     15.1540E-03
            2758            3184     14.2518E-03     15.1540E-03
            2757            3184     14.2518E-03     15.1540E-03
            2740            3184     14.2518E-03     15.1540E-03
            2741            3185     12.2558E-03     13.0042E-03
            2758            3185     12.2558E-03     13.0042E-03
            2740            3185     12.2558E-03     13.0042E-03
            2759            3185     12.2558E-03     13.0042E-03
            2742            3186     10.5091E-03     10.9851E-03
            2759            3186     10.5091E-03     10.9851E-03
            2760            3186     10.5091E-03     10.9851E-03
            2741            3186     10.5091E-03     10.9851E-03
            2742            3187     9.11462E-03     9.23692E-03
            2760            3187     9.11462E-03     9.23692E-03
            2743            3187     9.11462E-03     9.23692E-03
            2761            3187     9.11462E-03     9.23692E-03
            2761            3188     8.25619E-03     7.92922E-03
            2744            3188     8.25619E-03     7.92922E-03
            2762            3188     8.25619E-03     7.92922E-03
            2743            3188     8.25619E-03     7.92922E-03
            2746            3189     52.5540E-03     53.5538E-03
            2745            3189     52.5540E-03     53.5538E-03
            2764            3189     52.5540E-03     53.5538E-03
            2763            3189     52.5540E-03     53.5538E-03
            2764            3190     47.1419E-03     47.9666E-03
            2747            3190     47.1419E-03     47.9666E-03
            2746            3190     47.1419E-03     47.9666E-03
            2765            3190     47.1419E-03     47.9666E-03
            2748            3191     41.7587E-03     42.8473E-03
            2747            3191     41.7587E-03     42.8473E-03
            2765            3191     41.7587E-03     42.8473E-03
            2766            3191     41.7587E-03     42.8473E-03
            2749            3192     37.1239E-03     38.5269E-03
            2748            3192     37.1239E-03     38.5269E-03
            2766            3192     37.1239E-03     38.5269E-03
            2767            3192     37.1239E-03     38.5269E-03
            2750            3193     33.5400E-03     35.0282E-03
            2767            3193     33.5400E-03     35.0282E-03
            2749            3193     33.5400E-03     35.0282E-03
            2768            3193     33.5400E-03     35.0282E-03
            2751            3194     30.4472E-03     31.9496E-03
            2750            3194     30.4472E-03     31.9496E-03
            2768            3194     30.4472E-03     31.9496E-03
            2769            3194     30.4472E-03     31.9496E-03
            2769            3195     27.6665E-03     29.1682E-03
            2770            3195     27.6665E-03     29.1682E-03
            2751            3195     27.6665E-03     29.1682E-03
            2752            3195     27.6665E-03     29.1682E-03
            2770            3196     25.0790E-03     26.5512E-03
            2753            3196     25.0790E-03     26.5512E-03
            2771            3196     25.0790E-03     26.5512E-03
            2752            3196     25.0790E-03     26.5512E-03
            2754            3197     22.5954E-03     24.0432E-03
            2771            3197     22.5954E-03     24.0432E-03
            2772            3197     22.5954E-03     24.0432E-03
            2753            3197     22.5954E-03     24.0432E-03
            2772            3198     20.1930E-03     21.6054E-03
            2755            3198     20.1930E-03     21.6054E-03
            2754            3198     20.1930E-03     21.6054E-03
            2773            3198     20.1930E-03     21.6054E-03
            2755            3199     17.8477E-03     19.2190E-03
            2773            3199     17.8477E-03     19.2190E-03
            2756            3199     17.8477E-03     19.2190E-03
            2774            3199     17.8477E-03     19.2190E-03
            2756            3200     15.5695E-03     16.8788E-03
            2774            3200     15.5695E-03     16.8788E-03
            2757            3200     15.5695E-03     16.8788E-03
            2775            3200     15.5695E-03     16.8788E-03
            2775            3201     13.3770E-03     14.5897E-03
            2776            3201     13.3770E-03     14.5897E-03
            2758            3201     13.3770E-03     14.5897E-03
            2757            3201     13.3770E-03     14.5897E-03
            2759            3202     11.3153E-03     12.3693E-03
            2777            3202     11.3153E-03     12.3693E-03
            2776            3202     11.3153E-03     12.3693E-03
            2758            3202     11.3153E-03     12.3693E-03
            2760            3203     9.47265E-03     10.2609E-03
            2777            3203     9.47265E-03     10.2609E-03
            2778            3203     9.47265E-03     10.2609E-03
            2759            3203     9.47265E-03     10.2609E-03
            2779            3204     8.00523E-03     8.33852E-03
            2760            3204     8.00523E-03     8.33852E-03
            2778            3204     8.00523E-03     8.33852E-03
            2761            3204     8.00523E-03     8.33852E-03
            2779            3205     7.05115E-03     6.85400E-03
            2762            3205     7.05115E-03     6.85400E-03
            2761            3205     7.05115E-03     6.85400E-03
            2780            3205     7.05115E-03     6.85400E-03
            2763            3206     56.5419E-03     56.7172E-03
            2764            3206     56.5419E-03     56.7172E-03
            2782            3206     56.5419E-03     56.7172E-03
            2781            3206     56.5419E-03     56.7172E-03
            2765            3207     48.4410E-03     49.3837E-03
            2764            3207     48.4410E-03     49.3837E-03
            2783            3207     48.4410E-03     49.3837E-03
            2782            3207     48.4410E-03     49.3837E-03
            2783            3208     41.3131E-03     42.8436E-03
            2784            3208     41.3131E-03     42.8436E-03
            2765            3208     41.3131E-03     42.8436E-03
            2766            3208     41.3131E-03     42.8436E-03
            2766            3209     36.4962E-03     38.1746E-03
            2785            3209     36.4962E-03     38.1746E-03
            2767            3209     36.4962E-03     38.1746E-03
            2784            3209     36.4962E-03     38.1746E-03
            2786            3210     32.7394E-03     34.4523E-03
            2785            3210     32.7394E-03     34.4523E-03
            2768            3210     32.7394E-03     34.4523E-03
            2767            3210     32.7394E-03     34.4523E-03
            2768            3211     29.5614E-03     31.3162E-03
            2786            3211     29.5614E-03     31.3162E-03
            2769            3211     29.5614E-03     31.3162E-03
            2787            3211     29.5614E-03     31.3162E-03
            2770            3212     26.7708E-03     28.5290E-03
            2769            3212     26.7708E-03     28.5290E-03
            2788            3212     26.7708E-03     28.5290E-03
            2787            3212     26.7708E-03     28.5290E-03
            2771            3213     24.1702E-03     25.9365E-03
            2789            3213     24.1702E-03     25.9365E-03
            2788            3213     24.1702E-03     25.9365E-03
            2770            3213     24.1702E-03     25.9365E-03
            2789            3214     21.7063E-03     23.4649E-03
            2771            3214     21.7063E-03     23.4649E-03
            2790            3214     21.7063E-03     23.4649E-03
            2772            3214     21.7063E-03     23.4649E-03
            2791            3215     19.3107E-03     21.0555E-03
            2773            3215     19.3107E-03     21.0555E-03
            2772            3215     19.3107E-03     21.0555E-03
            2790            3215     19.3107E-03     21.0555E-03
            2774            3216     16.9747E-03     18.6893E-03
            2773            3216     16.9747E-03     18.6893E-03
            2792            3216     16.9747E-03     18.6893E-03
            2791            3216     16.9747E-03     18.6893E-03
            2774            3217     14.6856E-03     16.3504E-03
            2792            3217     14.6856E-03     16.3504E-03
            2775            3217     14.6856E-03     16.3504E-03
            2793            3217     14.6856E-03     16.3504E-03
            2776            3218     12.4623E-03     14.0423E-03
            2793            3218     12.4623E-03     14.0423E-03
            2794            3218     12.4623E-03     14.0423E-03
            2775            3218     12.4623E-03     14.0423E-03
            2776            3219     10.3336E-03     11.7781E-03
            2777            3219     10.3336E-03     11.7781E-03
            2794            3219     10.3336E-03     11.7781E-03
            2795            3219     10.3336E-03     11.7781E-03
            2778            3220     8.37097E-03     9.60045E-03
            2795            3220     8.37097E-03     9.60045E-03
            2777            3220     8.37097E-03     9.60045E-03
            2796            3220     8.37097E-03     9.60045E-03
            2778            3221     6.74152E-03     7.56780E-03
            2796            3221     6.74152E-03     7.56780E-03
            2797            3221     6.74152E-03     7.56780E-03
            2779            3221     6.74152E-03     7.56780E-03
            2798            3222     5.74457E-03     5.84916E-03
            2779            3222     5.74457E-03     5.84916E-03
            2797            3222     5.74457E-03     5.84916E-03
            2780            3222     5.74457E-03     5.84916E-03
            2799            3223     57.9633E-03     59.6522E-03
            2781            3223     57.9633E-03     59.6522E-03
            2782            3223     57.9633E-03     59.6522E-03
            2800            3223     57.9633E-03     59.6522E-03
            2783            3224     46.9392E-03     49.0272E-03
            2782            3224     46.9392E-03     49.0272E-03
            2800            3224     46.9392E-03     49.0272E-03
            2801            3224     46.9392E-03     49.0272E-03
            2784            3225     40.1635E-03     42.1193E-03
            2802            3225     40.1635E-03     42.1193E-03
            2801            3225     40.1635E-03     42.1193E-03
            2783            3225     40.1635E-03     42.1193E-03
            2785            3226     35.5479E-03     37.4425E-03
            2802            3226     35.5479E-03     37.4425E-03
            2803            3226     35.5479E-03     37.4425E-03
            2784            3226     35.5479E-03     37.4425E-03
            2786            3227     31.7849E-03     33.7083E-03
            2804            3227     31.7849E-03     33.7083E-03
            2803            3227     31.7849E-03     33.7083E-03
            2785            3227     31.7849E-03     33.7083E-03
            2787            3228     28.6699E-03     30.6354E-03
            2786            3228     28.6699E-03     30.6354E-03
            2805            3228     28.6699E-03     30.6354E-03
            2804            3228     28.6699E-03     30.6354E-03
            2806            3229     25.8652E-03     27.8813E-03
            2788            3229     25.8652E-03     27.8813E-03
            2787            3229     25.8652E-03     27.8813E-03
            2805            3229     25.8652E-03     27.8813E-03
            2806            3230     23.2892E-03     25.3475E-03
            2788            3230     23.2892E-03     25.3475E-03
            2789            3230     23.2892E-03     25.3475E-03
            2807            3230     23.2892E-03     25.3475E-03
            2789            3231     20.8259E-03     22.9119E-03
            2807            3231     20.8259E-03     22.9119E-03
            2808            3231     20.8259E-03     22.9119E-03
            2790            3231     20.8259E-03     22.9119E-03
            2808            3232     18.4447E-03     20.5436E-03
            2791            3232     18.4447E-03     20.5436E-03
            2790            3232     18.4447E-03     20.5436E-03
            2809            3232     18.4447E-03     20.5436E-03
            2810            3233     16.1078E-03     18.1991E-03
            2792            3233     16.1078E-03     18.1991E-03
            2809            3233     16.1078E-03     18.1991E-03
            2791            3233     16.1078E-03     18.1991E-03
            2811            3234     13.8131E-03     15.8731E-03
            2793            3234     13.8131E-03     15.8731E-03
            2792            3234     13.8131E-03     15.8731E-03
            2810            3234     13.8131E-03     15.8731E-03
            2812            3235     11.5564E-03     13.5579E-03
            2811            3235     11.5564E-03     13.5579E-03
            2793            3235     11.5564E-03     13.5579E-03
            2794            3235     11.5564E-03     13.5579E-03
            2794            3236     9.36425E-03     11.2653E-03
            2812            3236     9.36425E-03     11.2653E-03
            2813            3236     9.36425E-03     11.2653E-03
            2795            3236     9.36425E-03     11.2653E-03
            2814            3237     7.27470E-03     9.02171E-03
            2813            3237     7.27470E-03     9.02171E-03
            2796            3237     7.27470E-03     9.02171E-03
            2795            3237     7.27470E-03     9.02171E-03
            2796            3238     5.41257E-03     6.91308E-03
            2814            3238     5.41257E-03     6.91308E-03
            2797            3238     5.41257E-03     6.91308E-03
            2815            3238     5.41257E-03     6.91308E-03
            2798            3239     4.15311E-03     5.05845E-03
            2797            3239     4.15311E-03     5.05845E-03
            2815            3239     4.15311E-03     5.05845E-03
            2816            3239     4.15311E-03     5.05845E-03
            2817            3240     57.2134E-03     58.2860E-03
            2818            3240     57.2134E-03     58.2860E-03
            2800            3240     57.2134E-03     58.2860E-03
            2799            3240     57.2134E-03     58.2860E-03
            2800            3241     52.1187E-03     52.1151E-03
            2818            3241     52.1187E-03     52.1151E-03
            2801            3241     52.1187E-03     52.1151E-03
            2819            3241     52.1187E-03     52.1151E-03
            2801            3242     48.7005E-03     48.6105E-03
            2820            3242     48.7005E-03     48.6105E-03
            2802            3242     48.7005E-03     48.6105E-03
            2819            3242     48.7005E-03     48.6105E-03
            2803            3243     45.5035E-03     45.5898E-03
            2802            3243     45.5035E-03     45.5898E-03
            2820            3243     45.5035E-03     45.5898E-03
            2821            3243     45.5035E-03     45.5898E-03
            2804            3244     42.5746E-03     42.8107E-03
            2822            3244     42.5746E-03     42.8107E-03
            2821            3244     42.5746E-03     42.8107E-03
            2803            3244     42.5746E-03     42.8107E-03
            2822            3245     39.6919E-03     40.1275E-03
            2804            3245     39.6919E-03     40.1275E-03
            2805            3245     39.6919E-03     40.1275E-03
            2823            3245     39.6919E-03     40.1275E-03
            2824            3246     36.8684E-03     37.4363E-03
            2823            3246     36.8684E-03     37.4363E-03
            2805            3246     36.8684E-03     37.4363E-03
            2806            3246     36.8684E-03     37.4363E-03
            2825            3247     34.0442E-03     34.7422E-03
            2806            3247     34.0442E-03     34.7422E-03
            2807            3247     34.0442E-03     34.7422E-03
            2824            3247     34.0442E-03     34.7422E-03
            2807            3248     31.2367E-03     32.0143E-03
            2826            3248     31.2367E-03     32.0143E-03
            2808            3248     31.2367E-03     32.0143E-03
            2825            3248     31.2367E-03     32.0143E-03
            2826            3249     28.4373E-03     29.2795E-03
            2808            3249     28.4373E-03     29.2795E-03
            2827            3249     28.4373E-03     29.2795E-03
            2809            3249     28.4373E-03     29.2795E-03
            2810            3250     25.6752E-03     26.5456E-03
            2809            3250     25.6752E-03     26.5456E-03
            2828            3250     25.6752E-03     26.5456E-03
            2827            3250     25.6752E-03     26.5456E-03
            2811            3251     22.9665E-03     23.8466E-03
            2828            3251     22.9665E-03     23.8466E-03
            2810            3251     22.9665E-03     23.8466E-03
            2829            3251     22.9665E-03     23.8466E-03
            2812            3252     20.3574E-03     21.2116E-03
            2811            3252     20.3574E-03     21.2116E-03
            2830            3252     20.3574E-03     21.2116E-03
            2829            3252     20.3574E-03     21.2116E-03
            2813            3253     17.8837E-03     18.7130E-03
            2830            3253     17.8837E-03     18.7130E-03
            2831            3253     17.8837E-03     18.7130E-03
            2812            3253     17.8837E-03     18.7130E-03
            2813            3254     15.6090E-03     16.3908E-03
            2814            3254     15.6090E-03     16.3908E-03
            2831            3254     15.6090E-03     16.3908E-03
            2832            3254     15.6090E-03     16.3908E-03
            2815            3255     13.5953E-03     14.5161E-03
            2833            3255     13.5953E-03     14.5161E-03
            2832            3255     13.5953E-03     14.5161E-03
            2814            3255     13.5953E-03     14.5161E-03
            2834            3256     11.6023E-03     13.4956E-03
            2816            3256     11.6023E-03     13.4956E-03
            2833            3256     11.6023E-03     13.4956E-03
            2815            3256     11.6023E-03     13.4956E-03
            2817            3257     59.9531E-03     58.4383E-03
            2818            3257     59.9531E-03     58.4383E-03
            2836            3257     59.9531E-03     58.4383E-03
            2835            3257     59.9531E-03     58.4383E-03
            2837            3258     60.4291E-03     59.0360E-03
            2818            3258     60.4291E-03     59.0360E-03
            2819            3258     60.4291E-03     59.0360E-03
            2836            3258     60.4291E-03     59.0360E-03
            2838            3259     59.4972E-03     58.1036E-03
            2819            3259     59.4972E-03     58.1036E-03
            2820            3259     59.4972E-03     58.1036E-03
            2837            3259     59.4972E-03     58.1036E-03
            2820            3260     57.5901E-03     56.3529E-03
            2838            3260     57.5901E-03     56.3529E-03
            2839            3260     57.5901E-03     56.3529E-03
            2821            3260     57.5901E-03     56.3529E-03
            2839            3261     55.0981E-03     54.0340E-03
            2840            3261     55.0981E-03     54.0340E-03
            2821            3261     55.0981E-03     54.0340E-03
            2822            3261     55.0981E-03     54.0340E-03
            2822            3262     52.2082E-03     51.3164E-03
            2841            3262     52.2082E-03     51.3164E-03
            2823            3262     52.2082E-03     51.3164E-03
            2840            3262     52.2082E-03     51.3164E-03
            2823            3263     49.0559E-03     48.3144E-03
            2842            3263     49.0559E-03     48.3144E-03
            2841            3263     49.0559E-03     48.3144E-03
            2824            3263     49.0559E-03     48.3144E-03
            2843            3264     45.7377E-03     45.1124E-03
            2824            3264     45.7377E-03     45.1124E-03
            2842            3264     45.7377E-03     45.1124E-03
            2825            3264     45.7377E-03     45.1124E-03
            2843            3265     42.3213E-03     41.7947E-03
            2844            3265     42.3213E-03     41.7947E-03
            2826            3265     42.3213E-03     41.7947E-03
            2825            3265     42.3213E-03     41.7947E-03
            2827            3266     38.8805E-03     38.4180E-03
            2844            3266     38.8805E-03     38.4180E-03
            2845            3266     38.8805E-03     38.4180E-03
            2826            3266     38.8805E-03     38.4180E-03
            2827            3267     35.4602E-03     35.0517E-03
            2846            3267     35.4602E-03     35.0517E-03
            2845            3267     35.4602E-03     35.0517E-03
            2828            3267     35.4602E-03     35.0517E-03
            2846            3268     32.1356E-03     31.7575E-03
            2828            3268     32.1356E-03     31.7575E-03
            2847            3268     32.1356E-03     31.7575E-03
            2829            3268     32.1356E-03     31.7575E-03
            2847            3269     28.9521E-03     28.6177E-03
            2829            3269     28.9521E-03     28.6177E-03
            2848            3269     28.9521E-03     28.6177E-03
            2830            3269     28.9521E-03     28.6177E-03
            2849            3270     26.0053E-03     25.7524E-03
            2831            3270     26.0053E-03     25.7524E-03
            2848            3270     26.0053E-03     25.7524E-03
            2830            3270     26.0053E-03     25.7524E-03
            2849            3271     23.3305E-03     23.3170E-03
            2831            3271     23.3305E-03     23.3170E-03
            2832            3271     23.3305E-03     23.3170E-03
            2850            3271     23.3305E-03     23.3170E-03
            2850            3272     20.9349E-03     21.7595E-03
            2832            3272     20.9349E-03     21.7595E-03
            2851            3272     20.9349E-03     21.7595E-03
            2833            3272     20.9349E-03     21.7595E-03
            2852            3273     19.1103E-03     21.4181E-03
            2833            3273     19.1103E-03     21.4181E-03
            2851            3273     19.1103E-03     21.4181E-03
            2834            3273     19.1103E-03     21.4181E-03
            2836            3274     64.9262E-03     65.1881E-03
            2854            3274     64.9262E-03     65.1881E-03
            2835            3274     64.9262E-03     65.1881E-03
            2853            3274     64.9262E-03     65.1881E-03
            2837            3275     64.0201E-03     64.3677E-03
            2855            3275     64.0201E-03     64.3677E-03
            2854            3275     64.0201E-03     64.3677E-03
            2836            3275     64.0201E-03     64.3677E-03
            2856            3276     62.7252E-03     62.8268E-03
            2838            3276     62.7252E-03     62.8268E-03
            2855            3276     62.7252E-03     62.8268E-03
            2837            3276     62.7252E-03     62.8268E-03
            2856            3277     60.4650E-03     60.3526E-03
            2839            3277     60.4650E-03     60.3526E-03
            2857            3277     60.4650E-03     60.3526E-03
            2838            3277     60.4650E-03     60.3526E-03
            2840            3278     57.5239E-03     57.3232E-03
            2839            3278     57.5239E-03     57.3232E-03
            2858            3278     57.5239E-03     57.3232E-03
            2857            3278     57.5239E-03     57.3232E-03
            2859            3279     54.1487E-03     53.9268E-03
            2840            3279     54.1487E-03     53.9268E-03
            2841            3279     54.1487E-03     53.9268E-03
            2858            3279     54.1487E-03     53.9268E-03
            2860            3280     50.5062E-03     50.2894E-03
            2842            3280     50.5062E-03     50.2894E-03
            2841            3280     50.5062E-03     50.2894E-03
            2859            3280     50.5062E-03     50.2894E-03
            2861            3281     46.7052E-03     46.5191E-03
            2843            3281     46.7052E-03     46.5191E-03
            2860            3281     46.7052E-03     46.5191E-03
            2842            3281     46.7052E-03     46.5191E-03
            2861            3282     42.8413E-03     42.6788E-03
            2843            3282     42.8413E-03     42.6788E-03
            2862            3282     42.8413E-03     42.6788E-03
            2844            3282     42.8413E-03     42.6788E-03
            2863            3283     38.9638E-03     38.8337E-03
            2845            3283     38.9638E-03     38.8337E-03
            2862            3283     38.9638E-03     38.8337E-03
            2844            3283     38.9638E-03     38.8337E-03
            2845            3284     35.1341E-03     35.0340E-03
            2864            3284     35.1341E-03     35.0340E-03
            2846            3284     35.1341E-03     35.0340E-03
            2863            3284     35.1341E-03     35.0340E-03
            2847            3285     31.3923E-03     31.3385E-03
            2865            3285     31.3923E-03     31.3385E-03
            2864            3285     31.3923E-03     31.3385E-03
            2846            3285     31.3923E-03     31.3385E-03
            2866            3286     27.7896E-03     27.8333E-03
            2865            3286     27.7896E-03     27.8333E-03
            2847            3286     27.7896E-03     27.8333E-03
            2848            3286     27.7896E-03     27.8333E-03
            2849            3287     24.3952E-03     24.6302E-03
            2848            3287     24.3952E-03     24.6302E-03
            2867            3287     24.3952E-03     24.6302E-03
            2866            3287     24.3952E-03     24.6302E-03
            2850            3288     21.2507E-03     21.9623E-03
            2849            3288     21.2507E-03     21.9623E-03
            2868            3288     21.2507E-03     21.9623E-03
            2867            3288     21.2507E-03     21.9623E-03
            2869            3289     18.6273E-03     20.1171E-03
            2850            3289     18.6273E-03     20.1171E-03
            2851            3289     18.6273E-03     20.1171E-03
            2868            3289     18.6273E-03     20.1171E-03
            2870            3290     17.3986E-03     18.5860E-03
            2852            3290     17.3986E-03     18.5860E-03
            2851            3290     17.3986E-03     18.5860E-03
            2869            3290     17.3986E-03     18.5860E-03
            2871            3291     69.8605E-03     70.6332E-03
            2853            3291     69.8605E-03     70.6332E-03
            2854            3291     69.8605E-03     70.6332E-03
            2872            3291     69.8605E-03     70.6332E-03
            2873            3292     67.6851E-03     68.7956E-03
            2854            3292     67.6851E-03     68.7956E-03
            2872            3292     67.6851E-03     68.7956E-03
            2855            3292     67.6851E-03     68.7956E-03
            2873            3293     65.6129E-03     66.5848E-03
            2856            3293     65.6129E-03     66.5848E-03
            2855            3293     65.6129E-03     66.5848E-03
            2874            3293     65.6129E-03     66.5848E-03
            2856            3294     62.8616E-03     63.6303E-03
            2857            3294     62.8616E-03     63.6303E-03
            2874            3294     62.8616E-03     63.6303E-03
            2875            3294     62.8616E-03     63.6303E-03
            2875            3295     59.5102E-03     60.0667E-03
            2876            3295     59.5102E-03     60.0667E-03
            2858            3295     59.5102E-03     60.0667E-03
            2857            3295     59.5102E-03     60.0667E-03
            2859            3296     55.7209E-03     56.1405E-03
            2876            3296     55.7209E-03     56.1405E-03
            2858            3296     55.7209E-03     56.1405E-03
            2877            3296     55.7209E-03     56.1405E-03
            2878            3297     51.6715E-03     52.0122E-03
            2860            3297     51.6715E-03     52.0122E-03
            2859            3297     51.6715E-03     52.0122E-03
            2877            3297     51.6715E-03     52.0122E-03
            2861            3298     47.4963E-03     47.7809E-03
            2860            3298     47.4963E-03     47.7809E-03
            2879            3298     47.4963E-03     47.7809E-03
            2878            3298     47.4963E-03     47.7809E-03
            2879            3299     43.2624E-03     43.5275E-03
            2862            3299     43.2624E-03     43.5275E-03
            2880            3299     43.2624E-03     43.5275E-03
            2861            3299     43.2624E-03     43.5275E-03
            2880            3300     39.0428E-03     39.3000E-03
            2862            3300     39.0428E-03     39.3000E-03
            2881            3300     39.0428E-03     39.3000E-03
            2863            3300     39.0428E-03     39.3000E-03
            2863            3301     34.8685E-03     35.1446E-03
            2864            3301     34.8685E-03     35.1446E-03
            2881            3301     34.8685E-03     35.1446E-03
            2882            3301     34.8685E-03     35.1446E-03
            2882            3302     30.7807E-03     31.1108E-03
            2865            3302     30.7807E-03     31.1108E-03
            2864            3302     30.7807E-03     31.1108E-03
            2883            3302     30.7807E-03     31.1108E-03
            2883            3303     26.8247E-03     27.2707E-03
            2865            3303     26.8247E-03     27.2707E-03
            2866            3303     26.8247E-03     27.2707E-03
            2884            3303     26.8247E-03     27.2707E-03
            2866            3304     23.0559E-03     23.7235E-03
            2884            3304     23.0559E-03     23.7235E-03
            2867            3304     23.0559E-03     23.7235E-03
            2885            3304     23.0559E-03     23.7235E-03
            2867            3305     19.6227E-03     20.6623E-03
            2885            3305     19.6227E-03     20.6623E-03
            2868            3305     19.6227E-03     20.6623E-03
            2886            3305     19.6227E-03     20.6623E-03
            2886            3306     16.9909E-03     17.9934E-03
            2887            3306     16.9909E-03     17.9934E-03
            2869            3306     16.9909E-03     17.9934E-03
            2868            3306     16.9909E-03     17.9934E-03
            2870            3307     15.3911E-03     15.7096E-03
            2887            3307     15.3911E-03     15.7096E-03
            2888            3307     15.3911E-03     15.7096E-03
            2869            3307     15.3911E-03     15.7096E-03
            2872            3308     74.3187E-03     75.1372E-03
            2889            3308     74.3187E-03     75.1372E-03
            2890            3308     74.3187E-03     75.1372E-03
            2871            3308     74.3187E-03     75.1372E-03
            2890            3309     71.2667E-03     72.5469E-03
            2873            3309     71.2667E-03     72.5469E-03
            2872            3309     71.2667E-03     72.5469E-03
            2891            3309     71.2667E-03     72.5469E-03
            2892            3310     68.1970E-03     69.6350E-03
            2891            3310     68.1970E-03     69.6350E-03
            2874            3310     68.1970E-03     69.6350E-03
            2873            3310     68.1970E-03     69.6350E-03
            2875            3311     64.8378E-03     66.1338E-03
            2874            3311     64.8378E-03     66.1338E-03
            2893            3311     64.8378E-03     66.1338E-03
            2892            3311     64.8378E-03     66.1338E-03
            2876            3312     60.9843E-03     62.1178E-03
            2894            3312     60.9843E-03     62.1178E-03
            2893            3312     60.9843E-03     62.1178E-03
            2875            3312     60.9843E-03     62.1178E-03
            2877            3313     56.7974E-03     57.7701E-03
            2876            3313     56.7974E-03     57.7701E-03
            2895            3313     56.7974E-03     57.7701E-03
            2894            3313     56.7974E-03     57.7701E-03
            2878            3314     52.4169E-03     53.2556E-03
            2896            3314     52.4169E-03     53.2556E-03
            2877            3314     52.4169E-03     53.2556E-03
            2895            3314     52.4169E-03     53.2556E-03
            2879            3315     47.9328E-03     48.6876E-03
            2897            3315     47.9328E-03     48.6876E-03
            2878            3315     47.9328E-03     48.6876E-03
            2896            3315     47.9328E-03     48.6876E-03
            2879            3316     43.4389E-03     44.1303E-03
            2897            3316     43.4389E-03     44.1303E-03
            2898            3316     43.4389E-03     44.1303E-03
            2880            3316     43.4389E-03     44.1303E-03
            2898            3317     38.9595E-03     39.6242E-03
            2881            3317     38.9595E-03     39.6242E-03
            2880            3317     38.9595E-03     39.6242E-03
            2899            3317     38.9595E-03     39.6242E-03
            2900            3318     34.5364E-03     35.2033E-03
            2881            3318     34.5364E-03     35.2033E-03
            2899            3318     34.5364E-03     35.2033E-03
            2882            3318     34.5364E-03     35.2033E-03
            2901            3319     30.1916E-03     30.9063E-03
            2882            3319     30.1916E-03     30.9063E-03
            2883            3319     30.1916E-03     30.9063E-03
            2900            3319     30.1916E-03     30.9063E-03
            2883            3320     25.9666E-03     26.7747E-03
            2901            3320     25.9666E-03     26.7747E-03
            2902            3320     25.9666E-03     26.7747E-03
            2884            3320     25.9666E-03     26.7747E-03
            2884            3321     21.9277E-03     22.9045E-03
            2885            3321     21.9277E-03     22.9045E-03
            2902            3321     21.9277E-03     22.9045E-03
            2903            3321     21.9277E-03     22.9045E-03
            2903            3322     18.2944E-03     19.3220E-03
            2886            3322     18.2944E-03     19.3220E-03
            2885            3322     18.2944E-03     19.3220E-03
            2904            3322     18.2944E-03     19.3220E-03
            2905            3323     15.3201E-03     16.0882E-03
            2887            3323     15.3201E-03     16.0882E-03
            2886            3323     15.3201E-03     16.0882E-03
            2904            3323     15.3201E-03     16.0882E-03
            2887            3324     13.4106E-03     13.7115E-03
            2888            3324     13.4106E-03     13.7115E-03
            2906            3324     13.4106E-03     13.7115E-03
            2905            3324     13.4106E-03     13.7115E-03
            2908            3325     78.4184E-03     79.3444E-03
            2889            3325     78.4184E-03     79.3444E-03
            2907            3325     78.4184E-03     79.3444E-03
            2890            3325     78.4184E-03     79.3444E-03
            2909            3326     74.4608E-03     75.8569E-03
            2908            3326     74.4608E-03     75.8569E-03
            2891            3326     74.4608E-03     75.8569E-03
            2890            3326     74.4608E-03     75.8569E-03
            2910            3327     70.5520E-03     72.1303E-03
            2891            3327     70.5520E-03     72.1303E-03
            2892            3327     70.5520E-03     72.1303E-03
            2909            3327     70.5520E-03     72.1303E-03
            2910            3328     66.3597E-03     67.9874E-03
            2892            3328     66.3597E-03     67.9874E-03
            2911            3328     66.3597E-03     67.9874E-03
            2893            3328     66.3597E-03     67.9874E-03
            2894            3329     61.9429E-03     63.4740E-03
            2912            3329     61.9429E-03     63.4740E-03
            2911            3329     61.9429E-03     63.4740E-03
            2893            3329     61.9429E-03     63.4740E-03
            2913            3330     57.3490E-03     58.7388E-03
            2895            3330     57.3490E-03     58.7388E-03
            2912            3330     57.3490E-03     58.7388E-03
            2894            3330     57.3490E-03     58.7388E-03
            2913            3331     52.6535E-03     53.9299E-03
            2896            3331     52.6535E-03     53.9299E-03
            2895            3331     52.6535E-03     53.9299E-03
            2914            3331     52.6535E-03     53.9299E-03
            2896            3332     47.9624E-03     49.1311E-03
            2914            3332     47.9624E-03     49.1311E-03
            2897            3332     47.9624E-03     49.1311E-03
            2915            3332     47.9624E-03     49.1311E-03
            2916            3333     43.2781E-03     44.3750E-03
            2898            3333     43.2781E-03     44.3750E-03
            2915            3333     43.2781E-03     44.3750E-03
            2897            3333     43.2781E-03     44.3750E-03
            2917            3334     38.6412E-03     39.6927E-03
            2898            3334     38.6412E-03     39.6927E-03
            2899            3334     38.6412E-03     39.6927E-03
            2916            3334     38.6412E-03     39.6927E-03
            2918            3335     34.0559E-03     35.0969E-03
            2899            3335     34.0559E-03     35.0969E-03
            2900            3335     34.0559E-03     35.0969E-03
            2917            3335     34.0559E-03     35.0969E-03
            2901            3336     29.5461E-03     30.6078E-03
            2900            3336     29.5461E-03     30.6078E-03
            2919            3336     29.5461E-03     30.6078E-03
            2918            3336     29.5461E-03     30.6078E-03
            2902            3337     25.1368E-03     26.2607E-03
            2920            3337     25.1368E-03     26.2607E-03
            2919            3337     25.1368E-03     26.2607E-03
            2901            3337     25.1368E-03     26.2607E-03
            2921            3338     20.9180E-03     22.0805E-03
            2903            3338     20.9180E-03     22.0805E-03
            2902            3338     20.9180E-03     22.0805E-03
            2920            3338     20.9180E-03     22.0805E-03
            2921            3339     17.0179E-03     18.1076E-03
            2904            3339     17.0179E-03     18.1076E-03
            2903            3339     17.0179E-03     18.1076E-03
            2922            3339     17.0179E-03     18.1076E-03
            2922            3340     13.7244E-03     14.5628E-03
            2904            3340     13.7244E-03     14.5628E-03
            2923            3340     13.7244E-03     14.5628E-03
            2905            3340     13.7244E-03     14.5628E-03
            2905            3341     11.5410E-03     11.6920E-03
            2924            3341     11.5410E-03     11.6920E-03
            2923            3341     11.5410E-03     11.6920E-03
            2906            3341     11.5410E-03     11.6920E-03
            2925            3342     82.2039E-03     83.3322E-03
            2907            3342     82.2039E-03     83.3322E-03
            2926            3342     82.2039E-03     83.3322E-03
            2908            3342     82.2039E-03     83.3322E-03
            2908            3343     77.4324E-03     78.8207E-03
            2927            3343     77.4324E-03     78.8207E-03
            2909            3343     77.4324E-03     78.8207E-03
            2926            3343     77.4324E-03     78.8207E-03
            2928            3344     72.4445E-03     74.1658E-03
            2909            3344     72.4445E-03     74.1658E-03
            2910            3344     72.4445E-03     74.1658E-03
            2927            3344     72.4445E-03     74.1658E-03
            2910            3345     67.4086E-03     69.2232E-03
            2929            3345     67.4086E-03     69.2232E-03
            2911            3345     67.4086E-03     69.2232E-03
            2928            3345     67.4086E-03     69.2232E-03
            2911            3346     62.3469E-03     64.1238E-03
            2930            3346     62.3469E-03     64.1238E-03
            2929            3346     62.3469E-03     64.1238E-03
            2912            3346     62.3469E-03     64.1238E-03
            2931            3347     57.3088E-03     59.0352E-03
            2930            3347     57.3088E-03     59.0352E-03
            2912            3347     57.3088E-03     59.0352E-03
            2913            3347     57.3088E-03     59.0352E-03
            2932            3348     52.4015E-03     54.0225E-03
            2913            3348     52.4015E-03     54.0225E-03
            2914            3348     52.4015E-03     54.0225E-03
            2931            3348     52.4015E-03     54.0225E-03
            2914            3349     47.5506E-03     49.0810E-03
            2933            3349     47.5506E-03     49.0810E-03
            2932            3349     47.5506E-03     49.0810E-03
            2915            3349     47.5506E-03     49.0810E-03
            2915            3350     42.7766E-03     44.2338E-03
            2934            3350     42.7766E-03     44.2338E-03
            2933            3350     42.7766E-03     44.2338E-03
            2916            3350     42.7766E-03     44.2338E-03
            2934            3351     38.0581E-03     39.4638E-03
            2917            3351     38.0581E-03     39.4638E-03
            2935            3351     38.0581E-03     39.4638E-03
            2916            3351     38.0581E-03     39.4638E-03
            2935            3352     33.3982E-03     34.7788E-03
            2917            3352     33.3982E-03     34.7788E-03
            2918            3352     33.3982E-03     34.7788E-03
            2936            3352     33.3982E-03     34.7788E-03
            2936            3353     28.8003E-03     30.1781E-03
            2918            3353     28.8003E-03     30.1781E-03
            2937            3353     28.8003E-03     30.1781E-03
            2919            3353     28.8003E-03     30.1781E-03
            2920            3354     24.2913E-03     25.6745E-03
            2937            3354     24.2913E-03     25.6745E-03
            2938            3354     24.2913E-03     25.6745E-03
            2919            3354     24.2913E-03     25.6745E-03
            2939            3355     19.9187E-03     21.2791E-03
            2920            3355     19.9187E-03     21.2791E-03
            2921            3355     19.9187E-03     21.2791E-03
            2938            3355     19.9187E-03     21.2791E-03
            2940            3356     15.8014E-03     17.0616E-03
            2922            3356     15.8014E-03     17.0616E-03
            2939            3356     15.8014E-03     17.0616E-03
            2921            3356     15.8014E-03     17.0616E-03
            2923            3357     12.1934E-03     13.1208E-03
            2940            3357     12.1934E-03     13.1208E-03
            2922            3357     12.1934E-03     13.1208E-03
            2941            3357     12.1934E-03     13.1208E-03
            2924            3358     9.62511E-03     9.91705E-03
            2941            3358     9.62511E-03     9.91705E-03
            2942            3358     9.62511E-03     9.91705E-03
            2923            3358     9.62511E-03     9.91705E-03
            2926            3359     86.0127E-03     87.0308E-03
            2944            3359     86.0127E-03     87.0308E-03
            2943            3359     86.0127E-03     87.0308E-03
            2925            3359     86.0127E-03     87.0308E-03
            2944            3360     79.9312E-03     81.5487E-03
            2926            3360     79.9312E-03     81.5487E-03
            2945            3360     79.9312E-03     81.5487E-03
            2927            3360     79.9312E-03     81.5487E-03
            2927            3361     73.8511E-03     75.6235E-03
            2945            3361     73.8511E-03     75.6235E-03
            2928            3361     73.8511E-03     75.6235E-03
            2946            3361     73.8511E-03     75.6235E-03
            2947            3362     67.7980E-03     69.6846E-03
            2946            3362     67.7980E-03     69.6846E-03
            2928            3362     67.7980E-03     69.6846E-03
            2929            3362     67.7980E-03     69.6846E-03
            2948            3363     62.0253E-03     64.0311E-03
            2947            3363     62.0253E-03     64.0311E-03
            2929            3363     62.0253E-03     64.0311E-03
            2930            3363     62.0253E-03     64.0311E-03
            2931            3364     56.7316E-03     58.6958E-03
            2949            3364     56.7316E-03     58.6958E-03
            2948            3364     56.7316E-03     58.6958E-03
            2930            3364     56.7316E-03     58.6958E-03
            2950            3365     51.6536E-03     53.5550E-03
            2932            3365     51.6536E-03     53.5550E-03
            2949            3365     51.6536E-03     53.5550E-03
            2931            3365     51.6536E-03     53.5550E-03
            2950            3366     46.7534E-03     48.5898E-03
            2951            3366     46.7534E-03     48.5898E-03
            2933            3366     46.7534E-03     48.5898E-03
            2932            3366     46.7534E-03     48.5898E-03
            2933            3367     41.9591E-03     43.7313E-03
            2934            3367     41.9591E-03     43.7313E-03
            2952            3367     41.9591E-03     43.7313E-03
            2951            3367     41.9591E-03     43.7313E-03
            2934            3368     37.2363E-03     38.9657E-03
            2952            3368     37.2363E-03     38.9657E-03
            2935            3368     37.2363E-03     38.9657E-03
            2953            3368     37.2363E-03     38.9657E-03
            2936            3369     32.5707E-03     34.2651E-03
            2953            3369     32.5707E-03     34.2651E-03
            2935            3369     32.5707E-03     34.2651E-03
            2954            3369     32.5707E-03     34.2651E-03
            2936            3370     27.9548E-03     29.6264E-03
            2937            3370     27.9548E-03     29.6264E-03
            2954            3370     27.9548E-03     29.6264E-03
            2955            3370     27.9548E-03     29.6264E-03
            2938            3371     23.4018E-03     25.0378E-03
            2937            3371     23.4018E-03     25.0378E-03
            2956            3371     23.4018E-03     25.0378E-03
            2955            3371     23.4018E-03     25.0378E-03
            2938            3372     18.9365E-03     20.5255E-03
            2957            3372     18.9365E-03     20.5255E-03
            2939            3372     18.9365E-03     20.5255E-03
            2956            3372     18.9365E-03     20.5255E-03
            2958            3373     14.6397E-03     16.1105E-03
            2940            3373     14.6397E-03     16.1105E-03
            2957            3373     14.6397E-03     16.1105E-03
            2939            3373     14.6397E-03     16.1105E-03
            2940            3374     10.7148E-03     11.8955E-03
            2958            3374     10.7148E-03     11.8955E-03
            2959            3374     10.7148E-03     11.8955E-03
            2941            3374     10.7148E-03     11.8955E-03
            2960            3375     7.76313E-03     8.21172E-03
            2941            3375     7.76313E-03     8.21172E-03
            2942            3375     7.76313E-03     8.21172E-03
            2959            3375     7.76313E-03     8.21172E-03
            2943            3376     89.3920E-03     90.9919E-03
            2944            3376     89.3920E-03     90.9919E-03
            2961            3376     89.3920E-03     90.9919E-03
            2962            3376     89.3920E-03     90.9919E-03
            2962            3377     82.1397E-03     83.5610E-03
            2944            3377     82.1397E-03     83.5610E-03
            2963            3377     82.1397E-03     83.5610E-03
            2945            3377     82.1397E-03     83.5610E-03
            2963            3378     74.3090E-03     76.0334E-03
            2945            3378     74.3090E-03     76.0334E-03
            2964            3378     74.3090E-03     76.0334E-03
            2946            3378     74.3090E-03     76.0334E-03
            2964            3379     67.0934E-03     69.1840E-03
            2965            3379     67.0934E-03     69.1840E-03
            2946            3379     67.0934E-03     69.1840E-03
            2947            3379     67.0934E-03     69.1840E-03
            2965            3380     61.0794E-03     63.2299E-03
            2947            3380     61.0794E-03     63.2299E-03
            2948            3380     61.0794E-03     63.2299E-03
            2966            3380     61.0794E-03     63.2299E-03
            2948            3381     55.6111E-03     57.7575E-03
            2966            3381     55.6111E-03     57.7575E-03
            2949            3381     55.6111E-03     57.7575E-03
            2967            3381     55.6111E-03     57.7575E-03
            2950            3382     50.5168E-03     52.6475E-03
            2967            3382     50.5168E-03     52.6475E-03
            2968            3382     50.5168E-03     52.6475E-03
            2949            3382     50.5168E-03     52.6475E-03
            2968            3383     45.6490E-03     47.7374E-03
            2951            3383     45.6490E-03     47.7374E-03
            2969            3383     45.6490E-03     47.7374E-03
            2950            3383     45.6490E-03     47.7374E-03
            2951            3384     40.9010E-03     42.9642E-03
            2969            3384     40.9010E-03     42.9642E-03
            2952            3384     40.9010E-03     42.9642E-03
            2970            3384     40.9010E-03     42.9642E-03
            2970            3385     36.2383E-03     38.2685E-03
            2971            3385     36.2383E-03     38.2685E-03
            2952            3385     36.2383E-03     38.2685E-03
            2953            3385     36.2383E-03     38.2685E-03
            2972            3386     31.6191E-03     33.6240E-03
            2971            3386     31.6191E-03     33.6240E-03
            2953            3386     31.6191E-03     33.6240E-03
            2954            3386     31.6191E-03     33.6240E-03
            2955            3387     27.0409E-03     29.0071E-03
            2972            3387     27.0409E-03     29.0071E-03
            2973            3387     27.0409E-03     29.0071E-03
            2954            3387     27.0409E-03     29.0071E-03
            2974            3388     22.4957E-03     24.4165E-03
            2955            3388     22.4957E-03     24.4165E-03
            2973            3388     22.4957E-03     24.4165E-03
            2956            3388     22.4957E-03     24.4165E-03
            2975            3389     18.0067E-03     19.8371E-03
            2974            3389     18.0067E-03     19.8371E-03
            2957            3389     18.0067E-03     19.8371E-03
            2956            3389     18.0067E-03     19.8371E-03
            2976            3390     13.5902E-03     15.3116E-03
            2958            3390     13.5902E-03     15.3116E-03
            2975            3390     13.5902E-03     15.3116E-03
            2957            3390     13.5902E-03     15.3116E-03
            2959            3391     9.36683E-03     10.9114E-03
            2976            3391     9.36683E-03     10.9114E-03
            2958            3391     9.36683E-03     10.9114E-03
            2977            3391     9.36683E-03     10.9114E-03
            2978            3392     5.89575E-03     6.77226E-03
            2959            3392     5.89575E-03     6.77226E-03
            2960            3392     5.89575E-03     6.77226E-03
            2977            3392     5.89575E-03     6.77226E-03
            2961            3393     93.1692E-03     93.5438E-03
            2962            3393     93.1692E-03     93.5438E-03
            2979            3393     93.1692E-03     93.5438E-03
            2980            3393     93.1692E-03     93.5438E-03
            2962            3394     82.7079E-03     84.0634E-03
            2980            3394     82.7079E-03     84.0634E-03
            2981            3394     82.7079E-03     84.0634E-03
            2963            3394     82.7079E-03     84.0634E-03
            2981            3395     72.8381E-03     74.8995E-03
            2982            3395     72.8381E-03     74.8995E-03
            2964            3395     72.8381E-03     74.8995E-03
            2963            3395     72.8381E-03     74.8995E-03
            2964            3396     65.6064E-03     67.8087E-03
            2982            3396     65.6064E-03     67.8087E-03
            2983            3396     65.6064E-03     67.8087E-03
            2965            3396     65.6064E-03     67.8087E-03
            2983            3397     59.5440E-03     61.7755E-03
            2984            3397     59.5440E-03     61.7755E-03
            2966            3397     59.5440E-03     61.7755E-03
            2965            3397     59.5440E-03     61.7755E-03
            2966            3398     54.1258E-03     56.4113E-03
            2984            3398     54.1258E-03     56.4113E-03
            2985            3398     54.1258E-03     56.4113E-03
            2967            3398     54.1258E-03     56.4113E-03
            2967            3399     49.1385E-03     51.4368E-03
            2985            3399     49.1385E-03     51.4368E-03
            2986            3399     49.1385E-03     51.4368E-03
            2968            3399     49.1385E-03     51.4368E-03
            2986            3400     44.3556E-03     46.6827E-03
            2987            3400     44.3556E-03     46.6827E-03
            2969            3400     44.3556E-03     46.6827E-03
            2968            3400     44.3556E-03     46.6827E-03
            2969            3401     39.7207E-03     42.0558E-03
            2970            3401     39.7207E-03     42.0558E-03
            2988            3401     39.7207E-03     42.0558E-03
            2987            3401     39.7207E-03     42.0558E-03
            2970            3402     35.1481E-03     37.4895E-03
            2988            3402     35.1481E-03     37.4895E-03
            2971            3402     35.1481E-03     37.4895E-03
            2989            3402     35.1481E-03     37.4895E-03
            2971            3403     30.6247E-03     32.9522E-03
            2990            3403     30.6247E-03     32.9522E-03
            2989            3403     30.6247E-03     32.9522E-03
            2972            3403     30.6247E-03     32.9522E-03
            2973            3404     26.1218E-03     28.4199E-03
            2972            3404     26.1218E-03     28.4199E-03
            2990            3404     26.1218E-03     28.4199E-03
            2991            3404     26.1218E-03     28.4199E-03
            2992            3405     21.6442E-03     23.8779E-03
            2974            3405     21.6442E-03     23.8779E-03
            2973            3405     21.6442E-03     23.8779E-03
            2991            3405     21.6442E-03     23.8779E-03
            2974            3406     17.1845E-03     19.3254E-03
            2992            3406     17.1845E-03     19.3254E-03
            2975            3406     17.1845E-03     19.3254E-03
            2993            3406     17.1845E-03     19.3254E-03
            2975            3407     12.7698E-03     14.7483E-03
            2994            3407     12.7698E-03     14.7483E-03
            2993            3407     12.7698E-03     14.7483E-03
            2976            3407     12.7698E-03     14.7483E-03
            2976            3408     8.39158E-03     10.2167E-03
            2995            3408     8.39158E-03     10.2167E-03
            2994            3408     8.39158E-03     10.2167E-03
            2977            3408     8.39158E-03     10.2167E-03
            2996            3409     4.23461E-03     5.92084E-03
            2978            3409     4.23461E-03     5.92084E-03
            2995            3409     4.23461E-03     5.92084E-03
            2977            3409     4.23461E-03     5.92084E-03
            2979            3410     93.6426E-03     95.3591E-03
            2998            3410     93.6426E-03     95.3591E-03
            2997            3410     93.6426E-03     95.3591E-03
            2980            3410     93.6426E-03     95.3591E-03
            2999            3411     79.6949E-03     81.9948E-03
            2998            3411     79.6949E-03     81.9948E-03
            2981            3411     79.6949E-03     81.9948E-03
            2980            3411     79.6949E-03     81.9948E-03
            2981            3412     70.4347E-03     72.5967E-03
            3000            3412     70.4347E-03     72.5967E-03
            2999            3412     70.4347E-03     72.5967E-03
            2982            3412     70.4347E-03     72.5967E-03
            2982            3413     63.6361E-03     65.7769E-03
            2983            3413     63.6361E-03     65.7769E-03
            3000            3413     63.6361E-03     65.7769E-03
            3001            3413     63.6361E-03     65.7769E-03
            2983            3414     57.7377E-03     59.9743E-03
            3001            3414     57.7377E-03     59.9743E-03
            3002            3414     57.7377E-03     59.9743E-03
            2984            3414     57.7377E-03     59.9743E-03
            3003            3415     52.5490E-03     54.8952E-03
            2984            3415     52.5490E-03     54.8952E-03
            3002            3415     52.5490E-03     54.8952E-03
            2985            3415     52.5490E-03     54.8952E-03
            2986            3416     47.6772E-03     50.1401E-03
            3003            3416     47.6772E-03     50.1401E-03
            3004            3416     47.6772E-03     50.1401E-03
            2985            3416     47.6772E-03     50.1401E-03
            2986            3417     43.0481E-03     45.6070E-03
            3005            3417     43.0481E-03     45.6070E-03
            2987            3417     43.0481E-03     45.6070E-03
            3004            3417     43.0481E-03     45.6070E-03
            2987            3418     38.5269E-03     41.1598E-03
            3005            3418     38.5269E-03     41.1598E-03
            3006            3418     38.5269E-03     41.1598E-03
            2988            3418     38.5269E-03     41.1598E-03
            3006            3419     34.0864E-03     36.7643E-03
            2989            3419     34.0864E-03     36.7643E-03
            3007            3419     34.0864E-03     36.7643E-03
            2988            3419     34.0864E-03     36.7643E-03
            2990            3420     29.6780E-03     32.3713E-03
            2989            3420     29.6780E-03     32.3713E-03
            3008            3420     29.6780E-03     32.3713E-03
            3007            3420     29.6780E-03     32.3713E-03
            3008            3421     25.2993E-03     27.9701E-03
            2991            3421     25.2993E-03     27.9701E-03
            3009            3421     25.2993E-03     27.9701E-03
            2990            3421     25.2993E-03     27.9701E-03
            3010            3422     20.9345E-03     23.5422E-03
            2991            3422     20.9345E-03     23.5422E-03
            2992            3422     20.9345E-03     23.5422E-03
            3009            3422     20.9345E-03     23.5422E-03
            2993            3423     16.5994E-03     19.0846E-03
            3010            3423     16.5994E-03     19.0846E-03
            3011            3423     16.5994E-03     19.0846E-03
            2992            3423     16.5994E-03     19.0846E-03
            3011            3424     12.2937E-03     14.5898E-03
            3012            3424     12.2937E-03     14.5898E-03
            2993            3424     12.2937E-03     14.5898E-03
            2994            3424     12.2937E-03     14.5898E-03
            2995            3425     8.08256E-03     10.0609E-03
            3013            3425     8.08256E-03     10.0609E-03
            2994            3425     8.08256E-03     10.0609E-03
            3012            3425     8.08256E-03     10.0609E-03
            3014            3426     3.92134E-03     5.76810E-03
            2996            3426     3.92134E-03     5.76810E-03
            3013            3426     3.92134E-03     5.76810E-03
            2995            3426     3.92134E-03     5.76810E-03
            3015            3427     91.9045E-03     93.5107E-03
            3016            3427     91.9045E-03     93.5107E-03
            2997            3427     91.9045E-03     93.5107E-03
            2998            3427     91.9045E-03     93.5107E-03
            2998            3428     83.9544E-03     83.9292E-03
            3017            3428     83.9544E-03     83.9292E-03
            3016            3428     83.9544E-03     83.9292E-03
            2999            3428     83.9544E-03     83.9292E-03
            3000            3429     78.3591E-03     78.2399E-03
            3017            3429     78.3591E-03     78.2399E-03
            3018            3429     78.3591E-03     78.2399E-03
            2999            3429     78.3591E-03     78.2399E-03
            3000            3430     73.0703E-03     73.2352E-03
            3019            3430     73.0703E-03     73.2352E-03
            3001            3430     73.0703E-03     73.2352E-03
            3018            3430     73.0703E-03     73.2352E-03
            3001            3431     68.1704E-03     68.5769E-03
            3002            3431     68.1704E-03     68.5769E-03
            3019            3431     68.1704E-03     68.5769E-03
            3020            3431     68.1704E-03     68.5769E-03
            3002            3432     63.3188E-03     64.0438E-03
            3003            3432     63.3188E-03     64.0438E-03
            3020            3432     63.3188E-03     64.0438E-03
            3021            3432     63.3188E-03     64.0438E-03
            3003            3433     58.5636E-03     59.4974E-03
            3022            3433     58.5636E-03     59.4974E-03
            3004            3433     58.5636E-03     59.4974E-03
            3021            3433     58.5636E-03     59.4974E-03
            3004            3434     53.7986E-03     54.9392E-03
            3023            3434     53.7986E-03     54.9392E-03
            3022            3434     53.7986E-03     54.9392E-03
            3005            3434     53.7986E-03     54.9392E-03
            3005            3435     49.0655E-03     50.3287E-03
            3024            3435     49.0655E-03     50.3287E-03
            3006            3435     49.0655E-03     50.3287E-03
            3023            3435     49.0655E-03     50.3287E-03
            3007            3436     44.3356E-03     45.6961E-03
            3024            3436     44.3356E-03     45.6961E-03
            3006            3436     44.3356E-03     45.6961E-03
            3025            3436     44.3356E-03     45.6961E-03
            3007            3437     39.6573E-03     41.0531E-03
            3008            3437     39.6573E-03     41.0531E-03
            3026            3437     39.6573E-03     41.0531E-03
            3025            3437     39.6573E-03     41.0531E-03
            3008            3438     35.0421E-03     36.4342E-03
            3026            3438     35.0421E-03     36.4342E-03
            3009            3438     35.0421E-03     36.4342E-03
            3027            3438     35.0421E-03     36.4342E-03
            3010            3439     30.5590E-03     31.8852E-03
            3028            3439     30.5590E-03     31.8852E-03
            3009            3439     30.5590E-03     31.8852E-03
            3027            3439     30.5590E-03     31.8852E-03
            3029            3440     26.2561E-03     27.4799E-03
            3010            3440     26.2561E-03     27.4799E-03
            3011            3440     26.2561E-03     27.4799E-03
            3028            3440     26.2561E-03     27.4799E-03
            3012            3441     22.2267E-03     23.2940E-03
            3029            3441     22.2267E-03     23.2940E-03
            3030            3441     22.2267E-03     23.2940E-03
            3011            3441     22.2267E-03     23.2940E-03
            3013            3442     18.5493E-03     19.6395E-03
            3012            3442     18.5493E-03     19.6395E-03
            3030            3442     18.5493E-03     19.6395E-03
            3031            3442     18.5493E-03     19.6395E-03
            3013            3443     14.8480E-03     17.0929E-03
            3031            3443     14.8480E-03     17.0929E-03
            3032            3443     14.8480E-03     17.0929E-03
            3014            3443     14.8480E-03     17.0929E-03
            3033            3444     95.6162E-03     94.1160E-03
            3034            3444     95.6162E-03     94.1160E-03
            3016            3444     95.6162E-03     94.1160E-03
            3015            3444     95.6162E-03     94.1160E-03
            3035            3445     93.1950E-03     92.0104E-03
            3016            3445     93.1950E-03     92.0104E-03
            3034            3445     93.1950E-03     92.0104E-03
            3017            3445     93.1950E-03     92.0104E-03
            3017            3446     89.8097E-03     88.6105E-03
            3036            3446     89.8097E-03     88.6105E-03
            3018            3446     89.8097E-03     88.6105E-03
            3035            3446     89.8097E-03     88.6105E-03
            3018            3447     85.7763E-03     84.7628E-03
            3036            3447     85.7763E-03     84.7628E-03
            3019            3447     85.7763E-03     84.7628E-03
            3037            3447     85.7763E-03     84.7628E-03
            3038            3448     81.2238E-03     80.4398E-03
            3037            3448     81.2238E-03     80.4398E-03
            3019            3448     81.2238E-03     80.4398E-03
            3020            3448     81.2238E-03     80.4398E-03
            3038            3449     76.3464E-03     75.7913E-03
            3020            3449     76.3464E-03     75.7913E-03
            3021            3449     76.3464E-03     75.7913E-03
            3039            3449     76.3464E-03     75.7913E-03
            3039            3450     71.2219E-03     70.8702E-03
            3040            3450     71.2219E-03     70.8702E-03
            3021            3450     71.2219E-03     70.8702E-03
            3022            3450     71.2219E-03     70.8702E-03
            3041            3451     65.9529E-03     65.7559E-03
            3023            3451     65.9529E-03     65.7559E-03
            3022            3451     65.9529E-03     65.7559E-03
            3040            3451     65.9529E-03     65.7559E-03
            3042            3452     60.5917E-03     60.5210E-03
            3023            3452     60.5917E-03     60.5210E-03
            3041            3452     60.5917E-03     60.5210E-03
            3024            3452     60.5917E-03     60.5210E-03
            3025            3453     55.2220E-03     55.2243E-03
            3024            3453     55.2220E-03     55.2243E-03
            3042            3453     55.2220E-03     55.2243E-03
            3043            3453     55.2220E-03     55.2243E-03
            3025            3454     49.8883E-03     49.9394E-03
            3043            3454     49.8883E-03     49.9394E-03
            3044            3454     49.8883E-03     49.9394E-03
            3026            3454     49.8883E-03     49.9394E-03
            3027            3455     44.6850E-03     44.7389E-03
            3045            3455     44.6850E-03     44.7389E-03
            3044            3455     44.6850E-03     44.7389E-03
            3026            3455     44.6850E-03     44.7389E-03
            3045            3456     39.6730E-03     39.7238E-03
            3027            3456     39.6730E-03     39.7238E-03
            3046            3456     39.6730E-03     39.7238E-03
            3028            3456     39.6730E-03     39.7238E-03
            3029            3457     34.9909E-03     35.0566E-03
            3028            3457     34.9909E-03     35.0566E-03
            3046            3457     34.9909E-03     35.0566E-03
            3047            3457     34.9909E-03     35.0566E-03
            3030            3458     30.7158E-03     30.9664E-03
            3047            3458     30.7158E-03     30.9664E-03
            3029            3458     30.7158E-03     30.9664E-03
            3048            3458     30.7158E-03     30.9664E-03
            3048            3459     26.9227E-03     28.0984E-03
            3049            3459     26.9227E-03     28.0984E-03
            3031            3459     26.9227E-03     28.0984E-03
            3030            3459     26.9227E-03     28.0984E-03
            3050            3460     24.0439E-03     27.0848E-03
            3031            3460     24.0439E-03     27.0848E-03
            3032            3460     24.0439E-03     27.0848E-03
            3049            3460     24.0439E-03     27.0848E-03
            3034            3461     101.581E-03     102.038E-03
            3033            3461     101.581E-03     102.038E-03
            3051            3461     101.581E-03     102.038E-03
            3052            3461     101.581E-03     102.038E-03
            3052            3462     98.3053E-03     99.0612E-03
            3035            3462     98.3053E-03     99.0612E-03
            3034            3462     98.3053E-03     99.0612E-03
            3053            3462     98.3053E-03     99.0612E-03
            3053            3463     94.3134E-03     94.9342E-03
            3054            3463     94.3134E-03     94.9342E-03
            3036            3463     94.3134E-03     94.9342E-03
            3035            3463     94.3134E-03     94.9342E-03
            3036            3464     89.7160E-03     90.1053E-03
            3054            3464     89.7160E-03     90.1053E-03
            3055            3464     89.7160E-03     90.1053E-03
            3037            3464     89.7160E-03     90.1053E-03
            3055            3465     84.5579E-03     84.8423E-03
            3056            3465     84.5579E-03     84.8423E-03
            3038            3465     84.5579E-03     84.8423E-03
            3037            3465     84.5579E-03     84.8423E-03
            3038            3466     79.0303E-03     79.2949E-03
            3056            3466     79.0303E-03     79.2949E-03
            3039            3466     79.0303E-03     79.2949E-03
            3057            3466     79.0303E-03     79.2949E-03
            3058            3467     73.2790E-03     73.5468E-03
            3039            3467     73.2790E-03     73.5468E-03
            3057            3467     73.2790E-03     73.5468E-03
            3040            3467     73.2790E-03     73.5468E-03
            3059            3468     67.3850E-03     67.6910E-03
            3041            3468     67.3850E-03     67.6910E-03
            3058            3468     67.3850E-03     67.6910E-03
            3040            3468     67.3850E-03     67.6910E-03
            3042            3469     61.4470E-03     61.7763E-03
            3059            3469     61.4470E-03     61.7763E-03
            3041            3469     61.4470E-03     61.7763E-03
            3060            3469     61.4470E-03     61.7763E-03
            3043            3470     55.5038E-03     55.8654E-03
            3042            3470     55.5038E-03     55.8654E-03
            3060            3470     55.5038E-03     55.8654E-03
            3061            3470     55.5038E-03     55.8654E-03
            3044            3471     49.6243E-03     50.0069E-03
            3062            3471     49.6243E-03     50.0069E-03
            3061            3471     49.6243E-03     50.0069E-03
            3043            3471     49.6243E-03     50.0069E-03
            3063            3472     43.8501E-03     44.2659E-03
            3062            3472     43.8501E-03     44.2659E-03
            3044            3472     43.8501E-03     44.2659E-03
            3045            3472     43.8501E-03     44.2659E-03
            3064            3473     38.2465E-03     38.7425E-03
            3045            3473     38.2465E-03     38.7425E-03
            3046            3473     38.2465E-03     38.7425E-03
            3063            3473     38.2465E-03     38.7425E-03
            3046            3474     32.9031E-03     33.5860E-03
            3064            3474     32.9031E-03     33.5860E-03
            3047            3474     32.9031E-03     33.5860E-03
            3065            3474     32.9031E-03     33.5860E-03
            3065            3475     27.9006E-03     29.1128E-03
            3047            3475     27.9006E-03     29.1128E-03
            3048            3475     27.9006E-03     29.1128E-03
            3066            3475     27.9006E-03     29.1128E-03
            3066            3476     23.6143E-03     25.8155E-03
            3067            3476     23.6143E-03     25.8155E-03
            3048            3476     23.6143E-03     25.8155E-03
            3049            3476     23.6143E-03     25.8155E-03
            3050            3477     21.3390E-03     23.1921E-03
            3067            3477     21.3390E-03     23.1921E-03
            3068            3477     21.3390E-03     23.1921E-03
            3049            3477     21.3390E-03     23.1921E-03
            3070            3478     106.783E-03     108.144E-03
            3052            3478     106.783E-03     108.144E-03
            3069            3478     106.783E-03     108.144E-03
            3051            3478     106.783E-03     108.144E-03
            3053            3479     102.700E-03     104.407E-03
            3070            3479     102.700E-03     104.407E-03
            3052            3479     102.700E-03     104.407E-03
            3071            3479     102.700E-03     104.407E-03
            3053            3480     98.2291E-03     99.8332E-03
            3054            3480     98.2291E-03     99.8332E-03
            3071            3480     98.2291E-03     99.8332E-03
            3072            3480     98.2291E-03     99.8332E-03
            3073            3481     92.9945E-03     94.4377E-03
            3055            3481     92.9945E-03     94.4377E-03
            3054            3481     92.9945E-03     94.4377E-03
            3072            3481     92.9945E-03     94.4377E-03
            3055            3482     87.3171E-03     88.5119E-03
            3074            3482     87.3171E-03     88.5119E-03
            3073            3482     87.3171E-03     88.5119E-03
            3056            3482     87.3171E-03     88.5119E-03
            3056            3483     81.2489E-03     82.2758E-03
            3074            3483     81.2489E-03     82.2758E-03
            3075            3483     81.2489E-03     82.2758E-03
            3057            3483     81.2489E-03     82.2758E-03
            3058            3484     74.9694E-03     75.8922E-03
            3076            3484     74.9694E-03     75.8922E-03
            3075            3484     74.9694E-03     75.8922E-03
            3057            3484     74.9694E-03     75.8922E-03
            3076            3485     68.5935E-03     69.4357E-03
            3058            3485     68.5935E-03     69.4357E-03
            3077            3485     68.5935E-03     69.4357E-03
            3059            3485     68.5935E-03     69.4357E-03
            3060            3486     62.1756E-03     62.9849E-03
            3078            3486     62.1756E-03     62.9849E-03
            3059            3486     62.1756E-03     62.9849E-03
            3077            3486     62.1756E-03     62.9849E-03
            3079            3487     55.7871E-03     56.5757E-03
            3061            3487     55.7871E-03     56.5757E-03
            3060            3487     55.7871E-03     56.5757E-03
            3078            3487     55.7871E-03     56.5757E-03
            3079            3488     49.4516E-03     50.2542E-03
            3080            3488     49.4516E-03     50.2542E-03
            3062            3488     49.4516E-03     50.2542E-03
            3061            3488     49.4516E-03     50.2542E-03
            3063            3489     43.2116E-03     44.0671E-03
            3080            3489     43.2116E-03     44.0671E-03
            3062            3489     43.2116E-03     44.0671E-03
            3081            3489     43.2116E-03     44.0671E-03
            3064            3490     37.1116E-03     38.1003E-03
            3063            3490     37.1116E-03     38.1003E-03
            3082            3490     37.1116E-03     38.1003E-03
            3081            3490     37.1116E-03     38.1003E-03
            3083            3491     31.2201E-03     32.4695E-03
            3064            3491     31.2201E-03     32.4695E-03
            3065            3491     31.2201E-03     32.4695E-03
            3082            3491     31.2201E-03     32.4695E-03
            3083            3492     25.7100E-03     27.4539E-03
            3066            3492     25.7100E-03     27.4539E-03
            3065            3492     25.7100E-03     27.4539E-03
            3084            3492     25.7100E-03     27.4539E-03
            3066            3493     21.2395E-03     23.0174E-03
            3085            3493     21.2395E-03     23.0174E-03
            3084            3493     21.2395E-03     23.0174E-03
            3067            3493     21.2395E-03     23.0174E-03
            3086            3494     18.3698E-03     19.2219E-03
            3067            3494     18.3698E-03     19.2219E-03
            3068            3494     18.3698E-03     19.2219E-03
            3085            3494     18.3698E-03     19.2219E-03
            3088            3495     111.489E-03     112.767E-03
            3070            3495     111.489E-03     112.767E-03
            3087            3495     111.489E-03     112.767E-03
            3069            3495     111.489E-03     112.767E-03
            3071            3496     106.607E-03     108.570E-03
            3089            3496     106.607E-03     108.570E-03
            3088            3496     106.607E-03     108.570E-03
            3070            3496     106.607E-03     108.570E-03
            3071            3497     101.343E-03     103.520E-03
            3072            3497     101.343E-03     103.520E-03
            3089            3497     101.343E-03     103.520E-03
            3090            3497     101.343E-03     103.520E-03
            3072            3498     95.6054E-03     97.6388E-03
            3091            3498     95.6054E-03     97.6388E-03
            3090            3498     95.6054E-03     97.6388E-03
            3073            3498     95.6054E-03     97.6388E-03
            3091            3499     89.3347E-03     91.2033E-03
            3073            3499     89.3347E-03     91.2033E-03
            3074            3499     89.3347E-03     91.2033E-03
            3092            3499     89.3347E-03     91.2033E-03
            3093            3500     82.7990E-03     84.4631E-03
            3074            3500     82.7990E-03     84.4631E-03
            3092            3500     82.7990E-03     84.4631E-03
            3075            3500     82.7990E-03     84.4631E-03
            3076            3501     76.1014E-03     77.5905E-03
            3075            3501     76.1014E-03     77.5905E-03
            3094            3501     76.1014E-03     77.5905E-03
            3093            3501     76.1014E-03     77.5905E-03
            3076            3502     69.3360E-03     70.7075E-03
            3077            3502     69.3360E-03     70.7075E-03
            3094            3502     69.3360E-03     70.7075E-03
            3095            3502     69.3360E-03     70.7075E-03
            3077            3503     62.5847E-03     63.8644E-03
            3096            3503     62.5847E-03     63.8644E-03
            3078            3503     62.5847E-03     63.8644E-03
            3095            3503     62.5847E-03     63.8644E-03
            3078            3504     55.8608E-03     57.0994E-03
            3096            3504     55.8608E-03     57.0994E-03
            3097            3504     55.8608E-03     57.0994E-03
            3079            3504     55.8608E-03     57.0994E-03
            3079            3505     49.2006E-03     50.4370E-03
            3098            3505     49.2006E-03     50.4370E-03
            3080            3505     49.2006E-03     50.4370E-03
            3097            3505     49.2006E-03     50.4370E-03
            3080            3506     42.6170E-03     43.9171E-03
            3081            3506     42.6170E-03     43.9171E-03
            3098            3506     42.6170E-03     43.9171E-03
            3099            3506     42.6170E-03     43.9171E-03
            3081            3507     36.1490E-03     37.5761E-03
            3099            3507     36.1490E-03     37.5761E-03
            3082            3507     36.1490E-03     37.5761E-03
            3100            3507     36.1490E-03     37.5761E-03
            3083            3508     29.8537E-03     31.5324E-03
            3100            3508     29.8537E-03     31.5324E-03
            3101            3508     29.8537E-03     31.5324E-03
            3082            3508     29.8537E-03     31.5324E-03
            3084            3509     23.9960E-03     25.8255E-03
            3101            3509     23.9960E-03     25.8255E-03
            3102            3509     23.9960E-03     25.8255E-03
            3083            3509     23.9960E-03     25.8255E-03
            3102            3510     18.9557E-03     20.5302E-03
            3084            3510     18.9557E-03     20.5302E-03
            3103            3510     18.9557E-03     20.5302E-03
            3085            3510     18.9557E-03     20.5302E-03
            3086            3511     15.5057E-03     16.4299E-03
            3104            3511     15.5057E-03     16.4299E-03
            3085            3511     15.5057E-03     16.4299E-03
            3103            3511     15.5057E-03     16.4299E-03
            3106            3512     115.663E-03     117.096E-03
            3088            3512     115.663E-03     117.096E-03
            3087            3512     115.663E-03     117.096E-03
            3105            3512     115.663E-03     117.096E-03
            3089            3513     109.962E-03     112.015E-03
            3106            3513     109.962E-03     112.015E-03
            3088            3513     109.962E-03     112.015E-03
            3107            3513     109.962E-03     112.015E-03
            3108            3514     103.933E-03     106.271E-03
            3090            3514     103.933E-03     106.271E-03
            3089            3514     103.933E-03     106.271E-03
            3107            3514     103.933E-03     106.271E-03
            3091            3515     97.4088E-03     99.8268E-03
            3108            3515     97.4088E-03     99.8268E-03
            3090            3515     97.4088E-03     99.8268E-03
            3109            3515     97.4088E-03     99.8268E-03
            3092            3516     90.5895E-03     92.8890E-03
            3109            3516     90.5895E-03     92.8890E-03
            3110            3516     90.5895E-03     92.8890E-03
            3091            3516     90.5895E-03     92.8890E-03
            3092            3517     83.5947E-03     85.7188E-03
            3093            3517     83.5947E-03     85.7188E-03
            3111            3517     83.5947E-03     85.7188E-03
            3110            3517     83.5947E-03     85.7188E-03
            3112            3518     76.5414E-03     78.5074E-03
            3093            3518     76.5414E-03     78.5074E-03
            3111            3518     76.5414E-03     78.5074E-03
            3094            3518     76.5414E-03     78.5074E-03
            3112            3519     69.5264E-03     71.3436E-03
            3094            3519     69.5264E-03     71.3436E-03
            3095            3519     69.5264E-03     71.3436E-03
            3113            3519     69.5264E-03     71.3436E-03
            3095            3520     62.5437E-03     64.2590E-03
            3114            3520     62.5437E-03     64.2590E-03
            3113            3520     62.5437E-03     64.2590E-03
            3096            3520     62.5437E-03     64.2590E-03
            3096            3521     55.6236E-03     57.2759E-03
            3097            3521     55.6236E-03     57.2759E-03
            3114            3521     55.6236E-03     57.2759E-03
            3115            3521     55.6236E-03     57.2759E-03
            3115            3522     48.7591E-03     50.4016E-03
            3097            3522     48.7591E-03     50.4016E-03
            3098            3522     48.7591E-03     50.4016E-03
            3116            3522     48.7591E-03     50.4016E-03
            3117            3523     41.9642E-03     43.6488E-03
            3099            3523     41.9642E-03     43.6488E-03
            3098            3523     41.9642E-03     43.6488E-03
            3116            3523     41.9642E-03     43.6488E-03
            3118            3524     35.2508E-03     37.0524E-03
            3117            3524     35.2508E-03     37.0524E-03
            3100            3524     35.2508E-03     37.0524E-03
            3099            3524     35.2508E-03     37.0524E-03
            3119            3525     28.7050E-03     30.6282E-03
            3101            3525     28.7050E-03     30.6282E-03
            3100            3525     28.7050E-03     30.6282E-03
            3118            3525     28.7050E-03     30.6282E-03
            3101            3526     22.4566E-03     24.4046E-03
            3120            3526     22.4566E-03     24.4046E-03
            3102            3526     22.4566E-03     24.4046E-03
            3119            3526     22.4566E-03     24.4046E-03
            3121            3527     16.8751E-03     18.6367E-03
            3103            3527     16.8751E-03     18.6367E-03
            3102            3527     16.8751E-03     18.6367E-03
            3120            3527     16.8751E-03     18.6367E-03
            3121            3528     12.8602E-03     13.6919E-03
            3122            3528     12.8602E-03     13.6919E-03
            3103            3528     12.8602E-03     13.6919E-03
            3104            3528     12.8602E-03     13.6919E-03
            3124            3529     119.460E-03     121.095E-03
            3105            3529     119.460E-03     121.095E-03
            3106            3529     119.460E-03     121.095E-03
            3123            3529     119.460E-03     121.095E-03
            3124            3530     112.935E-03     114.980E-03
            3106            3530     112.935E-03     114.980E-03
            3125            3530     112.935E-03     114.980E-03
            3107            3530     112.935E-03     114.980E-03
            3107            3531     105.827E-03     108.308E-03
            3108            3531     105.827E-03     108.308E-03
            3125            3531     105.827E-03     108.308E-03
            3126            3531     105.827E-03     108.308E-03
            3109            3532     98.4602E-03     101.066E-03
            3108            3532     98.4602E-03     101.066E-03
            3126            3532     98.4602E-03     101.066E-03
            3127            3532     98.4602E-03     101.066E-03
            3127            3533     90.9952E-03     93.5417E-03
            3109            3533     90.9952E-03     93.5417E-03
            3110            3533     90.9952E-03     93.5417E-03
            3128            3533     90.9952E-03     93.5417E-03
            3111            3534     83.5541E-03     86.0171E-03
            3110            3534     83.5541E-03     86.0171E-03
            3129            3534     83.5541E-03     86.0171E-03
            3128            3534     83.5541E-03     86.0171E-03
            3112            3535     76.2869E-03     78.6007E-03
            3129            3535     76.2869E-03     78.6007E-03
            3111            3535     76.2869E-03     78.6007E-03
            3130            3535     76.2869E-03     78.6007E-03
            3131            3536     69.1098E-03     71.2929E-03
            3112            3536     69.1098E-03     71.2929E-03
            3130            3536     69.1098E-03     71.2929E-03
            3113            3536     69.1098E-03     71.2929E-03
            3131            3537     62.0351E-03     64.1159E-03
            3113            3537     62.0351E-03     64.1159E-03
            3114            3537     62.0351E-03     64.1159E-03
            3132            3537     62.0351E-03     64.1159E-03
            3115            3538     55.0301E-03     57.0432E-03
            3132            3538     55.0301E-03     57.0432E-03
            3133            3538     55.0301E-03     57.0432E-03
            3114            3538     55.0301E-03     57.0432E-03
            3134            3539     48.0864E-03     50.0766E-03
            3116            3539     48.0864E-03     50.0766E-03
            3115            3539     48.0864E-03     50.0766E-03
            3133            3539     48.0864E-03     50.0766E-03
            3116            3540     41.1957E-03     43.2070E-03
            3134            3540     41.1957E-03     43.2070E-03
            3135            3540     41.1957E-03     43.2070E-03
            3117            3540     41.1957E-03     43.2070E-03
            3135            3541     34.3688E-03     36.4433E-03
            3118            3541     34.3688E-03     36.4433E-03
            3136            3541     34.3688E-03     36.4433E-03
            3117            3541     34.3688E-03     36.4433E-03
            3136            3542     27.6389E-03     29.7820E-03
            3118            3542     27.6389E-03     29.7820E-03
            3119            3542     27.6389E-03     29.7820E-03
            3137            3542     27.6389E-03     29.7820E-03
            3120            3543     21.1055E-03     23.2672E-03
            3137            3543     21.1055E-03     23.2672E-03
            3138            3543     21.1055E-03     23.2672E-03
            3119            3543     21.1055E-03     23.2672E-03
            3138            3544     15.0227E-03     16.9734E-03
            3139            3544     15.0227E-03     16.9734E-03
            3121            3544     15.0227E-03     16.9734E-03
            3120            3544     15.0227E-03     16.9734E-03
            3122            3545     10.2453E-03     11.4258E-03
            3121            3545     10.2453E-03     11.4258E-03
            3140            3545     10.2453E-03     11.4258E-03
            3139            3545     10.2453E-03     11.4258E-03
            3141            3546     123.218E-03     124.693E-03
            3142            3546     123.218E-03     124.693E-03
            3123            3546     123.218E-03     124.693E-03
            3124            3546     123.218E-03     124.693E-03
            3125            3547     115.275E-03     117.575E-03
            3142            3547     115.275E-03     117.575E-03
            3124            3547     115.275E-03     117.575E-03
            3143            3547     115.275E-03     117.575E-03
            3143            3548     107.001E-03     109.513E-03
            3144            3548     107.001E-03     109.513E-03
            3125            3548     107.001E-03     109.513E-03
            3126            3548     107.001E-03     109.513E-03
            3126            3549     98.5728E-03     101.199E-03
            3127            3549     98.5728E-03     101.199E-03
            3145            3549     98.5728E-03     101.199E-03
            3144            3549     98.5728E-03     101.199E-03
            3128            3550     90.3802E-03     93.1250E-03
            3146            3550     90.3802E-03     93.1250E-03
            3127            3550     90.3802E-03     93.1250E-03
            3145            3550     90.3802E-03     93.1250E-03
            3129            3551     82.7323E-03     85.3946E-03
            3128            3551     82.7323E-03     85.3946E-03
            3146            3551     82.7323E-03     85.3946E-03
            3147            3551     82.7323E-03     85.3946E-03
            3129            3552     75.3311E-03     77.8922E-03
            3130            3552     75.3311E-03     77.8922E-03
            3147            3552     75.3311E-03     77.8922E-03
            3148            3552     75.3311E-03     77.8922E-03
            3131            3553     68.1433E-03     70.6085E-03
            3130            3553     68.1433E-03     70.6085E-03
            3148            3553     68.1433E-03     70.6085E-03
            3149            3553     68.1433E-03     70.6085E-03
            3149            3554     61.0843E-03     63.4601E-03
            3131            3554     61.0843E-03     63.4601E-03
            3150            3554     61.0843E-03     63.4601E-03
            3132            3554     61.0843E-03     63.4601E-03
            3150            3555     54.1076E-03     56.4299E-03
            3151            3555     54.1076E-03     56.4299E-03
            3133            3555     54.1076E-03     56.4299E-03
            3132            3555     54.1076E-03     56.4299E-03
            3134            3556     47.1910E-03     49.4789E-03
            3152            3556     47.1910E-03     49.4789E-03
            3151            3556     47.1910E-03     49.4789E-03
            3133            3556     47.1910E-03     49.4789E-03
            3152            3557     40.3135E-03     42.6014E-03
            3153            3557     40.3135E-03     42.6014E-03
            3135            3557     40.3135E-03     42.6014E-03
            3134            3557     40.3135E-03     42.6014E-03
            3153            3558     33.4769E-03     35.7725E-03
            3135            3558     33.4769E-03     35.7725E-03
            3136            3558     33.4769E-03     35.7725E-03
            3154            3558     33.4769E-03     35.7725E-03
            3155            3559     26.6735E-03     29.0215E-03
            3137            3559     26.6735E-03     29.0215E-03
            3136            3559     26.6735E-03     29.0215E-03
            3154            3559     26.6735E-03     29.0215E-03
            3155            3560     19.9555E-03     22.3452E-03
            3137            3560     19.9555E-03     22.3452E-03
            3156            3560     19.9555E-03     22.3452E-03
            3138            3560     19.9555E-03     22.3452E-03
            3156            3561     13.4727E-03     15.7450E-03
            3157            3561     13.4727E-03     15.7450E-03
            3138            3561     13.4727E-03     15.7450E-03
            3139            3561     13.4727E-03     15.7450E-03
            3157            3562     7.87818E-03     9.50657E-03
            3140            3562     7.87818E-03     9.50657E-03
            3158            3562     7.87818E-03     9.50657E-03
            3139            3562     7.87818E-03     9.50657E-03
            3142            3563     126.372E-03     128.557E-03
            3159            3563     126.372E-03     128.557E-03
            3141            3563     126.372E-03     128.557E-03
            3160            3563     126.372E-03     128.557E-03
            3142            3564     117.161E-03     119.178E-03
            3160            3564     117.161E-03     119.178E-03
            3143            3564     117.161E-03     119.178E-03
            3161            3564     117.161E-03     119.178E-03
            3162            3565     106.934E-03     109.292E-03
            3143            3565     106.934E-03     109.292E-03
            3161            3565     106.934E-03     109.292E-03
            3144            3565     106.934E-03     109.292E-03
            3144            3566     97.2373E-03     100.006E-03
            3162            3566     97.2373E-03     100.006E-03
            3163            3566     97.2373E-03     100.006E-03
            3145            3566     97.2373E-03     100.006E-03
            3146            3567     88.8927E-03     91.6885E-03
            3163            3567     88.8927E-03     91.6885E-03
            3164            3567     88.8927E-03     91.6885E-03
            3145            3567     88.8927E-03     91.6885E-03
            3147            3568     81.1378E-03     83.9022E-03
            3165            3568     81.1378E-03     83.9022E-03
            3146            3568     81.1378E-03     83.9022E-03
            3164            3568     81.1378E-03     83.9022E-03
            3166            3569     73.8045E-03     76.5321E-03
            3147            3569     73.8045E-03     76.5321E-03
            3165            3569     73.8045E-03     76.5321E-03
            3148            3569     73.8045E-03     76.5321E-03
            3148            3570     66.7264E-03     69.3914E-03
            3167            3570     66.7264E-03     69.3914E-03
            3166            3570     66.7264E-03     69.3914E-03
            3149            3570     66.7264E-03     69.3914E-03
            3167            3571     59.7828E-03     62.4142E-03
            3168            3571     59.7828E-03     62.4142E-03
            3149            3571     59.7828E-03     62.4142E-03
            3150            3571     59.7828E-03     62.4142E-03
            3168            3572     52.9358E-03     55.5275E-03
            3169            3572     52.9358E-03     55.5275E-03
            3150            3572     52.9358E-03     55.5275E-03
            3151            3572     52.9358E-03     55.5275E-03
            3151            3573     46.1325E-03     48.7021E-03
            3170            3573     46.1325E-03     48.7021E-03
            3169            3573     46.1325E-03     48.7021E-03
            3152            3573     46.1325E-03     48.7021E-03
            3153            3574     39.3656E-03     41.9058E-03
            3171            3574     39.3656E-03     41.9058E-03
            3170            3574     39.3656E-03     41.9058E-03
            3152            3574     39.3656E-03     41.9058E-03
            3153            3575     32.6128E-03     35.1396E-03
            3171            3575     32.6128E-03     35.1396E-03
            3172            3575     32.6128E-03     35.1396E-03
            3154            3575     32.6128E-03     35.1396E-03
            3154            3576     25.8828E-03     28.3764E-03
            3172            3576     25.8828E-03     28.3764E-03
            3173            3576     25.8828E-03     28.3764E-03
            3155            3576     25.8828E-03     28.3764E-03
            3173            3577     19.1284E-03     21.6842E-03
            3155            3577     19.1284E-03     21.6842E-03
            3156            3577     19.1284E-03     21.6842E-03
            3174            3577     19.1284E-03     21.6842E-03
            3174            3578     12.3956E-03     15.1061E-03
            3156            3578     12.3956E-03     15.1061E-03
            3175            3578     12.3956E-03     15.1061E-03
            3157            3578     12.3956E-03     15.1061E-03
            3157            3579     6.07654E-03     8.41965E-03
            3158            3579     6.07654E-03     8.41965E-03
            3175            3579     6.07654E-03     8.41965E-03
            3176            3579     6.07654E-03     8.41965E-03
            3178            3580     129.906E-03     130.465E-03
            3177            3580     129.906E-03     130.465E-03
            3159            3580     129.906E-03     130.465E-03
            3160            3580     129.906E-03     130.465E-03
            3160            3581     117.000E-03     118.763E-03
            3178            3581     117.000E-03     118.763E-03
            3161            3581     117.000E-03     118.763E-03
            3179            3581     117.000E-03     118.763E-03
            3161            3582     104.438E-03     107.020E-03
            3162            3582     104.438E-03     107.020E-03
            3180            3582     104.438E-03     107.020E-03
            3179            3582     104.438E-03     107.020E-03
            3162            3583     94.8697E-03     97.5786E-03
            3180            3583     94.8697E-03     97.5786E-03
            3181            3583     94.8697E-03     97.5786E-03
            3163            3583     94.8697E-03     97.5786E-03
            3164            3584     86.5855E-03     89.3113E-03
            3181            3584     86.5855E-03     89.3113E-03
            3182            3584     86.5855E-03     89.3113E-03
            3163            3584     86.5855E-03     89.3113E-03
            3182            3585     79.0066E-03     81.7924E-03
            3183            3585     79.0066E-03     81.7924E-03
            3164            3585     79.0066E-03     81.7924E-03
            3165            3585     79.0066E-03     81.7924E-03
            3165            3586     71.9003E-03     74.7021E-03
            3166            3586     71.9003E-03     74.7021E-03
            3184            3586     71.9003E-03     74.7021E-03
            3183            3586     71.9003E-03     74.7021E-03
            3167            3587     65.0120E-03     67.8556E-03
            3166            3587     65.0120E-03     67.8556E-03
            3184            3587     65.0120E-03     67.8556E-03
            3185            3587     65.0120E-03     67.8556E-03
            3168            3588     58.2873E-03     61.1452E-03
            3167            3588     58.2873E-03     61.1452E-03
            3185            3588     58.2873E-03     61.1452E-03
            3186            3588     58.2873E-03     61.1452E-03
            3187            3589     51.6278E-03     54.5000E-03
            3169            3589     51.6278E-03     54.5000E-03
            3186            3589     51.6278E-03     54.5000E-03
            3168            3589     51.6278E-03     54.5000E-03
            3188            3590     45.0236E-03     47.8831E-03
            3187            3590     45.0236E-03     47.8831E-03
            3169            3590     45.0236E-03     47.8831E-03
            3170            3590     45.0236E-03     47.8831E-03
            3188            3591     38.4403E-03     41.2703E-03
            3170            3591     38.4403E-03     41.2703E-03
            3189            3591     38.4403E-03     41.2703E-03
            3171            3591     38.4403E-03     41.2703E-03
            3189            3592     31.8837E-03     34.6465E-03
            3190            3592     31.8837E-03     34.6465E-03
            3172            3592     31.8837E-03     34.6465E-03
            3171            3592     31.8837E-03     34.6465E-03
            3190            3593     25.3394E-03     28.0210E-03
            3191            3593     25.3394E-03     28.0210E-03
            3172            3593     25.3394E-03     28.0210E-03
            3173            3593     25.3394E-03     28.0210E-03
            3174            3594     18.8233E-03     21.3957E-03
            3173            3594     18.8233E-03     21.3957E-03
            3191            3594     18.8233E-03     21.3957E-03
            3192            3594     18.8233E-03     21.3957E-03
            3174            3595     12.2369E-03     14.9886E-03
            3175            3595     12.2369E-03     14.9886E-03
            3193            3595     12.2369E-03     14.9886E-03
            3192            3595     12.2369E-03     14.9886E-03
            3194            3596     6.01888E-03     9.03002E-03
            3175            3596     6.01888E-03     9.03002E-03
            3176            3596     6.01888E-03     9.03002E-03
            3193            3596     6.01888E-03     9.03002E-03
            3178            3597     129.391E-03     131.138E-03
            3195            3597     129.391E-03     131.138E-03
            3177            3597     129.391E-03     131.138E-03
            3196            3597     129.391E-03     131.138E-03
            3179            3598     112.464E-03     114.975E-03
            3197            3598     112.464E-03     114.975E-03
            3178            3598     112.464E-03     114.975E-03
            3196            3598     112.464E-03     114.975E-03
            3198            3599     100.756E-03     103.114E-03
            3180            3599     100.756E-03     103.114E-03
            3179            3599     100.756E-03     103.114E-03
            3197            3599     100.756E-03     103.114E-03
            3181            3600     91.8331E-03     94.2027E-03
            3198            3600     91.8331E-03     94.2027E-03
            3199            3600     91.8331E-03     94.2027E-03
            3180            3600     91.8331E-03     94.2027E-03
            3199            3601     83.8712E-03     86.3979E-03
            3182            3601     83.8712E-03     86.3979E-03
            3200            3601     83.8712E-03     86.3979E-03
            3181            3601     83.8712E-03     86.3979E-03
            3201            3602     76.6880E-03     79.3864E-03
            3200            3602     76.6880E-03     79.3864E-03
            3183            3602     76.6880E-03     79.3864E-03
            3182            3602     76.6880E-03     79.3864E-03
            3202            3603     69.8331E-03     72.7073E-03
            3184            3603     69.8331E-03     72.7073E-03
            3183            3603     69.8331E-03     72.7073E-03
            3201            3603     69.8331E-03     72.7073E-03
            3202            3604     63.2386E-03     66.2542E-03
            3203            3604     63.2386E-03     66.2542E-03
            3185            3604     63.2386E-03     66.2542E-03
            3184            3604     63.2386E-03     66.2542E-03
            3185            3605     56.7530E-03     59.8780E-03
            3204            3605     56.7530E-03     59.8780E-03
            3203            3605     56.7530E-03     59.8780E-03
            3186            3605     56.7530E-03     59.8780E-03
            3186            3606     50.3567E-03     53.5452E-03
            3187            3606     50.3567E-03     53.5452E-03
            3205            3606     50.3567E-03     53.5452E-03
            3204            3606     50.3567E-03     53.5452E-03
            3188            3607     43.9975E-03     47.2068E-03
            3187            3607     43.9975E-03     47.2068E-03
            3206            3607     43.9975E-03     47.2068E-03
            3205            3607     43.9975E-03     47.2068E-03
            3189            3608     37.6850E-03     40.8566E-03
            3206            3608     37.6850E-03     40.8566E-03
            3188            3608     37.6850E-03     40.8566E-03
            3207            3608     37.6850E-03     40.8566E-03
            3208            3609     31.4100E-03     34.4823E-03
            3189            3609     31.4100E-03     34.4823E-03
            3190            3609     31.4100E-03     34.4823E-03
            3207            3609     31.4100E-03     34.4823E-03
            3209            3610     25.2161E-03     28.1000E-03
            3208            3610     25.2161E-03     28.1000E-03
            3191            3610     25.2161E-03     28.1000E-03
            3190            3610     25.2161E-03     28.1000E-03
            3191            3611     19.1339E-03     21.7382E-03
            3192            3611     19.1339E-03     21.7382E-03
            3209            3611     19.1339E-03     21.7382E-03
            3210            3611     19.1339E-03     21.7382E-03
            3210            3612     13.3153E-03     15.5666E-03
            3193            3612     13.3153E-03     15.5666E-03
            3211            3612     13.3153E-03     15.5666E-03
            3192            3612     13.3153E-03     15.5666E-03
            3193            3613     8.03854E-03     10.5217E-03
            3212            3613     8.03854E-03     10.5217E-03
            3211            3613     8.03854E-03     10.5217E-03
            3194            3613     8.03854E-03     10.5217E-03
            3196            3614     126.608E-03     128.803E-03
            3195            3614     126.608E-03     128.803E-03
            3214            3614     126.608E-03     128.803E-03
            3213            3614     126.608E-03     128.803E-03
            3197            3615     115.848E-03     115.830E-03
            3215            3615     115.848E-03     115.830E-03
            3214            3615     115.848E-03     115.830E-03
            3196            3615     115.848E-03     115.830E-03
            3197            3616     108.149E-03     108.023E-03
            3216            3616     108.149E-03     108.023E-03
            3215            3616     108.149E-03     108.023E-03
            3198            3616     108.149E-03     108.023E-03
            3198            3617     100.791E-03     101.076E-03
            3199            3617     100.791E-03     101.076E-03
            3217            3617     100.791E-03     101.076E-03
            3216            3617     100.791E-03     101.076E-03
            3200            3618     93.9621E-03     94.5738E-03
            3217            3618     93.9621E-03     94.5738E-03
            3199            3618     93.9621E-03     94.5738E-03
            3218            3618     93.9621E-03     94.5738E-03
            3218            3619     87.1426E-03     88.1853E-03
            3219            3619     87.1426E-03     88.1853E-03
            3200            3619     87.1426E-03     88.1853E-03
            3201            3619     87.1426E-03     88.1853E-03
            3202            3620     80.4715E-03     81.7868E-03
            3220            3620     80.4715E-03     81.7868E-03
            3219            3620     80.4715E-03     81.7868E-03
            3201            3620     80.4715E-03     81.7868E-03
            3221            3621     73.7621E-03     75.3413E-03
            3202            3621     73.7621E-03     75.3413E-03
            3220            3621     73.7621E-03     75.3413E-03
            3203            3621     73.7621E-03     75.3413E-03
            3204            3622     67.1029E-03     68.8335E-03
            3203            3622     67.1029E-03     68.8335E-03
            3222            3622     67.1029E-03     68.8335E-03
            3221            3622     67.1029E-03     68.8335E-03
            3222            3623     60.4400E-03     62.2862E-03
            3204            3623     60.4400E-03     62.2862E-03
            3205            3623     60.4400E-03     62.2862E-03
            3223            3623     60.4400E-03     62.2862E-03
            3224            3624     53.8393E-03     55.7187E-03
            3223            3624     53.8393E-03     55.7187E-03
            3205            3624     53.8393E-03     55.7187E-03
            3206            3624     53.8393E-03     55.7187E-03
            3224            3625     47.3234E-03     49.1809E-03
            3207            3625     47.3234E-03     49.1809E-03
            3225            3625     47.3234E-03     49.1809E-03
            3206            3625     47.3234E-03     49.1809E-03
            3225            3626     40.9744E-03     42.7180E-03
            3226            3626     40.9744E-03     42.7180E-03
            3208            3626     40.9744E-03     42.7180E-03
            3207            3626     40.9744E-03     42.7180E-03
            3208            3627     34.8928E-03     36.4472E-03
            3226            3627     34.8928E-03     36.4472E-03
            3227            3627     34.8928E-03     36.4472E-03
            3209            3627     34.8928E-03     36.4472E-03
            3227            3628     29.2255E-03     30.4716E-03
            3210            3628     29.2255E-03     30.4716E-03
            3209            3628     29.2255E-03     30.4716E-03
            3228            3628     29.2255E-03     30.4716E-03
            3210            3629     24.1928E-03     25.2979E-03
            3228            3629     24.1928E-03     25.2979E-03
            3229            3629     24.1928E-03     25.2979E-03
            3211            3629     24.1928E-03     25.2979E-03
            3212            3630     19.4096E-03     21.9831E-03
            3211            3630     19.4096E-03     21.9831E-03
            3230            3630     19.4096E-03     21.9831E-03
            3229            3630     19.4096E-03     21.9831E-03
            3214            3631     131.324E-03     129.894E-03
            3213            3631     131.324E-03     129.894E-03
            3232            3631     131.324E-03     129.894E-03
            3231            3631     131.324E-03     129.894E-03
            3214            3632     126.052E-03     125.120E-03
            3233            3632     126.052E-03     125.120E-03
            3232            3632     126.052E-03     125.120E-03
            3215            3632     126.052E-03     125.120E-03
            3215            3633     120.269E-03     119.360E-03
            3216            3633     120.269E-03     119.360E-03
            3233            3633     120.269E-03     119.360E-03
            3234            3633     120.269E-03     119.360E-03
            3235            3634     114.131E-03     113.407E-03
            3217            3634     114.131E-03     113.407E-03
            3234            3634     114.131E-03     113.407E-03
            3216            3634     114.131E-03     113.407E-03
            3217            3635     107.448E-03     107.040E-03
            3235            3635     107.448E-03     107.040E-03
            3236            3635     107.448E-03     107.040E-03
            3218            3635     107.448E-03     107.040E-03
            3218            3636     100.523E-03     100.381E-03
            3236            3636     100.523E-03     100.381E-03
            3219            3636     100.523E-03     100.381E-03
            3237            3636     100.523E-03     100.381E-03
            3238            3637     93.3347E-03     93.4311E-03
            3219            3637     93.3347E-03     93.4311E-03
            3237            3637     93.3347E-03     93.4311E-03
            3220            3637     93.3347E-03     93.4311E-03
            3220            3638     86.0241E-03     86.3052E-03
            3238            3638     86.0241E-03     86.3052E-03
            3221            3638     86.0241E-03     86.3052E-03
            3239            3638     86.0241E-03     86.3052E-03
            3240            3639     78.6294E-03     79.0359E-03
            3222            3639     78.6294E-03     79.0359E-03
            3239            3639     78.6294E-03     79.0359E-03
            3221            3639     78.6294E-03     79.0359E-03
            3223            3640     71.2280E-03     71.7185E-03
            3241            3640     71.2280E-03     71.7185E-03
            3222            3640     71.2280E-03     71.7185E-03
            3240            3640     71.2280E-03     71.7185E-03
            3241            3641     63.8799E-03     64.4021E-03
            3242            3641     63.8799E-03     64.4021E-03
            3224            3641     63.8799E-03     64.4021E-03
            3223            3641     63.8799E-03     64.4021E-03
            3242            3642     56.6696E-03     57.1824E-03
            3243            3642     56.6696E-03     57.1824E-03
            3224            3642     56.6696E-03     57.1824E-03
            3225            3642     56.6696E-03     57.1824E-03
            3244            3643     49.6890E-03     50.1585E-03
            3225            3643     49.6890E-03     50.1585E-03
            3243            3643     49.6890E-03     50.1585E-03
            3226            3643     49.6890E-03     50.1585E-03
            3226            3644     43.0936E-03     43.5196E-03
            3244            3644     43.0936E-03     43.5196E-03
            3227            3644     43.0936E-03     43.5196E-03
            3245            3644     43.0936E-03     43.5196E-03
            3245            3645     37.0225E-03     37.5656E-03
            3228            3645     37.0225E-03     37.5656E-03
            3227            3645     37.0225E-03     37.5656E-03
            3246            3645     37.0225E-03     37.5656E-03
            3247            3646     31.6428E-03     33.0917E-03
            3228            3646     31.6428E-03     33.0917E-03
            3229            3646     31.6428E-03     33.0917E-03
            3246            3646     31.6428E-03     33.0917E-03
            3247            3647     27.5389E-03     31.1243E-03
            3230            3647     27.5389E-03     31.1243E-03
            3229            3647     27.5389E-03     31.1243E-03
            3248            3647     27.5389E-03     31.1243E-03
            3232            3648     138.290E-03     138.975E-03
            3249            3648     138.290E-03     138.975E-03
            3250            3648     138.290E-03     138.975E-03
            3231            3648     138.290E-03     138.975E-03
            3251            3649     132.590E-03     133.880E-03
            3250            3649     132.590E-03     133.880E-03
            3232            3649     132.590E-03     133.880E-03
            3233            3649     132.590E-03     133.880E-03
            3251            3650     125.920E-03     127.122E-03
            3233            3650     125.920E-03     127.122E-03
            3234            3650     125.920E-03     127.122E-03
            3252            3650     125.920E-03     127.122E-03
            3252            3651     118.879E-03     119.882E-03
            3235            3651     118.879E-03     119.882E-03
            3253            3651     118.879E-03     119.882E-03
            3234            3651     118.879E-03     119.882E-03
            3253            3652     111.423E-03     112.268E-03
            3236            3652     111.423E-03     112.268E-03
            3235            3652     111.423E-03     112.268E-03
            3254            3652     111.423E-03     112.268E-03
            3236            3653     103.625E-03     104.447E-03
            3254            3653     103.625E-03     104.447E-03
            3255            3653     103.625E-03     104.447E-03
            3237            3653     103.625E-03     104.447E-03
            3237            3654     95.6625E-03     96.4851E-03
            3238            3654     95.6625E-03     96.4851E-03
            3255            3654     95.6625E-03     96.4851E-03
            3256            3654     95.6625E-03     96.4851E-03
            3256            3655     87.6017E-03     88.4452E-03
            3238            3655     87.6017E-03     88.4452E-03
            3257            3655     87.6017E-03     88.4452E-03
            3239            3655     87.6017E-03     88.4452E-03
            3240            3656     79.5153E-03     80.3873E-03
            3257            3656     79.5153E-03     80.3873E-03
            3258            3656     79.5153E-03     80.3873E-03
            3239            3656     79.5153E-03     80.3873E-03
            3258            3657     71.4601E-03     72.3453E-03
            3240            3657     71.4601E-03     72.3453E-03
            3241            3657     71.4601E-03     72.3453E-03
            3259            3657     71.4601E-03     72.3453E-03
            3241            3658     63.4704E-03     64.3730E-03
            3242            3658     63.4704E-03     64.3730E-03
            3259            3658     63.4704E-03     64.3730E-03
            3260            3658     63.4704E-03     64.3730E-03
            3243            3659     55.6083E-03     56.5192E-03
            3261            3659     55.6083E-03     56.5192E-03
            3242            3659     55.6083E-03     56.5192E-03
            3260            3659     55.6083E-03     56.5192E-03
            3243            3660     47.9175E-03     48.8923E-03
            3244            3660     47.9175E-03     48.8923E-03
            3262            3660     47.9175E-03     48.8923E-03
            3261            3660     47.9175E-03     48.8923E-03
            3263            3661     40.5187E-03     41.6525E-03
            3245            3661     40.5187E-03     41.6525E-03
            3262            3661     40.5187E-03     41.6525E-03
            3244            3661     40.5187E-03     41.6525E-03
            3245            3662     33.5011E-03     35.1626E-03
            3263            3662     33.5011E-03     35.1626E-03
            3246            3662     33.5011E-03     35.1626E-03
            3264            3662     33.5011E-03     35.1626E-03
            3246            3663     27.3257E-03     30.1361E-03
            3264            3663     27.3257E-03     30.1361E-03
            3265            3663     27.3257E-03     30.1361E-03
            3247            3663     27.3257E-03     30.1361E-03
            3265            3664     23.7402E-03     26.1613E-03
            3247            3664     23.7402E-03     26.1613E-03
            3248            3664     23.7402E-03     26.1613E-03
            3266            3664     23.7402E-03     26.1613E-03
            3249            3665     143.704E-03     145.804E-03
            3268            3665     143.704E-03     145.804E-03
            3267            3665     143.704E-03     145.804E-03
            3250            3665     143.704E-03     145.804E-03
            3250            3666     137.634E-03     140.004E-03
            3268            3666     137.634E-03     140.004E-03
            3251            3666     137.634E-03     140.004E-03
            3269            3666     137.634E-03     140.004E-03
            3269            3667     130.561E-03     132.976E-03
            3270            3667     130.561E-03     132.976E-03
            3252            3667     130.561E-03     132.976E-03
            3251            3667     130.561E-03     132.976E-03
            3270            3668     122.740E-03     124.949E-03
            3271            3668     122.740E-03     124.949E-03
            3253            3668     122.740E-03     124.949E-03
            3252            3668     122.740E-03     124.949E-03
            3271            3669     114.558E-03     116.487E-03
            3254            3669     114.558E-03     116.487E-03
            3272            3669     114.558E-03     116.487E-03
            3253            3669     114.558E-03     116.487E-03
            3255            3670     106.075E-03     107.795E-03
            3254            3670     106.075E-03     107.795E-03
            3272            3670     106.075E-03     107.795E-03
            3273            3670     106.075E-03     107.795E-03
            3256            3671     97.4859E-03     99.0450E-03
            3255            3671     97.4859E-03     99.0450E-03
            3273            3671     97.4859E-03     99.0450E-03
            3274            3671     97.4859E-03     99.0450E-03
            3274            3672     88.8400E-03     90.3063E-03
            3275            3672     88.8400E-03     90.3063E-03
            3257            3672     88.8400E-03     90.3063E-03
            3256            3672     88.8400E-03     90.3063E-03
            3258            3673     80.2317E-03     81.6285E-03
            3276            3673     80.2317E-03     81.6285E-03
            3275            3673     80.2317E-03     81.6285E-03
            3257            3673     80.2317E-03     81.6285E-03
            3258            3674     71.6614E-03     73.0292E-03
            3276            3674     71.6614E-03     73.0292E-03
            3277            3674     71.6614E-03     73.0292E-03
            3259            3674     71.6614E-03     73.0292E-03
            3278            3675     63.1768E-03     64.5376E-03
            3277            3675     63.1768E-03     64.5376E-03
            3260            3675     63.1768E-03     64.5376E-03
            3259            3675     63.1768E-03     64.5376E-03
            3261            3676     54.7795E-03     56.1893E-03
            3278            3676     54.7795E-03     56.1893E-03
            3279            3676     54.7795E-03     56.1893E-03
            3260            3676     54.7795E-03     56.1893E-03
            3280            3677     46.5244E-03     48.0580E-03
            3279            3677     46.5244E-03     48.0580E-03
            3261            3677     46.5244E-03     48.0580E-03
            3262            3677     46.5244E-03     48.0580E-03
            3262            3678     38.4510E-03     40.2671E-03
            3263            3678     38.4510E-03     40.2671E-03
            3280            3678     38.4510E-03     40.2671E-03
            3281            3678     38.4510E-03     40.2671E-03
            3264            3679     30.7452E-03     33.1348E-03
            3282            3679     30.7452E-03     33.1348E-03
            3263            3679     30.7452E-03     33.1348E-03
            3281            3679     30.7452E-03     33.1348E-03
            3282            3680     24.1644E-03     26.6838E-03
            3283            3680     24.1644E-03     26.6838E-03
            3265            3680     24.1644E-03     26.6838E-03
            3264            3680     24.1644E-03     26.6838E-03
            3283            3681     19.6750E-03     21.1036E-03
            3265            3681     19.6750E-03     21.1036E-03
            3266            3681     19.6750E-03     21.1036E-03
            3284            3681     19.6750E-03     21.1036E-03
            3285            3682     148.675E-03     150.436E-03
            3286            3682     148.675E-03     150.436E-03
            3267            3682     148.675E-03     150.436E-03
            3268            3682     148.675E-03     150.436E-03
            3269            3683     141.544E-03     144.471E-03
            3286            3683     141.544E-03     144.471E-03
            3287            3683     141.544E-03     144.471E-03
            3268            3683     141.544E-03     144.471E-03
            3270            3684     133.931E-03     136.952E-03
            3269            3684     133.931E-03     136.952E-03
            3287            3684     133.931E-03     136.952E-03
            3288            3684     133.931E-03     136.952E-03
            3271            3685     125.497E-03     128.420E-03
            3270            3685     125.497E-03     128.420E-03
            3289            3685     125.497E-03     128.420E-03
            3288            3685     125.497E-03     128.420E-03
            3289            3686     116.599E-03     119.317E-03
            3272            3686     116.599E-03     119.317E-03
            3290            3686     116.599E-03     119.317E-03
            3271            3686     116.599E-03     119.317E-03
            3291            3687     107.598E-03     110.014E-03
            3272            3687     107.598E-03     110.014E-03
            3290            3687     107.598E-03     110.014E-03
            3273            3687     107.598E-03     110.014E-03
            3291            3688     98.4974E-03     100.718E-03
            3292            3688     98.4974E-03     100.718E-03
            3273            3688     98.4974E-03     100.718E-03
            3274            3688     98.4974E-03     100.718E-03
            3274            3689     89.4854E-03     91.5219E-03
            3275            3689     89.4854E-03     91.5219E-03
            3292            3689     89.4854E-03     91.5219E-03
            3293            3689     89.4854E-03     91.5219E-03
            3293            3690     80.5037E-03     82.4295E-03
            3276            3690     80.5037E-03     82.4295E-03
            3275            3690     80.5037E-03     82.4295E-03
            3294            3690     80.5037E-03     82.4295E-03
            3276            3691     71.6112E-03     73.4665E-03
            3294            3691     71.6112E-03     73.4665E-03
            3277            3691     71.6112E-03     73.4665E-03
            3295            3691     71.6112E-03     73.4665E-03
            3277            3692     62.7791E-03     64.6220E-03
            3278            3692     62.7791E-03     64.6220E-03
            3296            3692     62.7791E-03     64.6220E-03
            3295            3692     62.7791E-03     64.6220E-03
            3278            3693     54.0270E-03     55.9291E-03
            3279            3693     54.0270E-03     55.9291E-03
            3296            3693     54.0270E-03     55.9291E-03
            3297            3693     54.0270E-03     55.9291E-03
            3280            3694     45.3609E-03     47.4129E-03
            3297            3694     45.3609E-03     47.4129E-03
            3279            3694     45.3609E-03     47.4129E-03
            3298            3694     45.3609E-03     47.4129E-03
            3280            3695     36.8254E-03     39.1691E-03
            3298            3695     36.8254E-03     39.1691E-03
            3281            3695     36.8254E-03     39.1691E-03
            3299            3695     36.8254E-03     39.1691E-03
            3299            3696     28.6392E-03     31.2663E-03
            3300            3696     28.6392E-03     31.2663E-03
            3281            3696     28.6392E-03     31.2663E-03
            3282            3696     28.6392E-03     31.2663E-03
            3283            3697     21.2711E-03     23.7127E-03
            3300            3697     21.2711E-03     23.7127E-03
            3282            3697     21.2711E-03     23.7127E-03
            3301            3697     21.2711E-03     23.7127E-03
            3301            3698     15.8561E-03     17.4453E-03
            3302            3698     15.8561E-03     17.4453E-03
            3284            3698     15.8561E-03     17.4453E-03
            3283            3698     15.8561E-03     17.4453E-03
            3286            3699     152.580E-03     154.869E-03
            3285            3699     152.580E-03     154.869E-03
            3304            3699     152.580E-03     154.869E-03
            3303            3699     152.580E-03     154.869E-03
            3305            3700     144.944E-03     147.694E-03
            3304            3700     144.944E-03     147.694E-03
            3286            3700     144.944E-03     147.694E-03
            3287            3700     144.944E-03     147.694E-03
            3287            3701     136.184E-03     139.537E-03
            3306            3701     136.184E-03     139.537E-03
            3288            3701     136.184E-03     139.537E-03
            3305            3701     136.184E-03     139.537E-03
            3306            3702     126.960E-03     130.310E-03
            3288            3702     126.960E-03     130.310E-03
            3307            3702     126.960E-03     130.310E-03
            3289            3702     126.960E-03     130.310E-03
            3307            3703     117.491E-03     120.620E-03
            3308            3703     117.491E-03     120.620E-03
            3289            3703     117.491E-03     120.620E-03
            3290            3703     117.491E-03     120.620E-03
            3291            3704     107.948E-03     110.910E-03
            3308            3704     107.948E-03     110.910E-03
            3309            3704     107.948E-03     110.910E-03
            3290            3704     107.948E-03     110.910E-03
            3309            3705     98.6268E-03     101.331E-03
            3292            3705     98.6268E-03     101.331E-03
            3310            3705     98.6268E-03     101.331E-03
            3291            3705     98.6268E-03     101.331E-03
            3293            3706     89.3630E-03     91.8940E-03
            3310            3706     89.3630E-03     91.8940E-03
            3311            3706     89.3630E-03     91.8940E-03
            3292            3706     89.3630E-03     91.8940E-03
            3312            3707     80.2333E-03     82.6232E-03
            3293            3707     80.2333E-03     82.6232E-03
            3294            3707     80.2333E-03     82.6232E-03
            3311            3707     80.2333E-03     82.6232E-03
            3294            3708     71.1669E-03     73.4765E-03
            3295            3708     71.1669E-03     73.4765E-03
            3313            3708     71.1669E-03     73.4765E-03
            3312            3708     71.1669E-03     73.4765E-03
            3313            3709     62.1736E-03     64.4640E-03
            3296            3709     62.1736E-03     64.4640E-03
            3314            3709     62.1736E-03     64.4640E-03
            3295            3709     62.1736E-03     64.4640E-03
            3315            3710     53.2333E-03     55.5653E-03
            3296            3710     53.2333E-03     55.5653E-03
            3297            3710     53.2333E-03     55.5653E-03
            3314            3710     53.2333E-03     55.5653E-03
            3298            3711     44.3363E-03     46.8122E-03
            3316            3711     44.3363E-03     46.8122E-03
            3315            3711     44.3363E-03     46.8122E-03
            3297            3711     44.3363E-03     46.8122E-03
            3317            3712     35.5347E-03     38.2276E-03
            3316            3712     35.5347E-03     38.2276E-03
            3298            3712     35.5347E-03     38.2276E-03
            3299            3712     35.5347E-03     38.2276E-03
            3317            3713     26.9439E-03     29.7388E-03
            3299            3713     26.9439E-03     29.7388E-03
            3318            3713     26.9439E-03     29.7388E-03
            3300            3713     26.9439E-03     29.7388E-03
            3301            3714     18.7992E-03     21.6366E-03
            3319            3714     18.7992E-03     21.6366E-03
            3300            3714     18.7992E-03     21.6366E-03
            3318            3714     18.7992E-03     21.6366E-03
            3302            3715     12.3177E-03     14.1825E-03
            3301            3715     12.3177E-03     14.1825E-03
            3319            3715     12.3177E-03     14.1825E-03
            3320            3715     12.3177E-03     14.1825E-03
            3303            3716     156.610E-03     158.511E-03
            3304            3716     156.610E-03     158.511E-03
            3322            3716     156.610E-03     158.511E-03
            3321            3716     156.610E-03     158.511E-03
            3323            3717     147.281E-03     150.425E-03
            3304            3717     147.281E-03     150.425E-03
            3305            3717     147.281E-03     150.425E-03
            3322            3717     147.281E-03     150.425E-03
            3323            3718     137.434E-03     140.764E-03
            3306            3718     137.434E-03     140.764E-03
            3305            3718     137.434E-03     140.764E-03
            3324            3718     137.434E-03     140.764E-03
            3324            3719     127.113E-03     130.532E-03
            3306            3719     127.113E-03     130.532E-03
            3325            3719     127.113E-03     130.532E-03
            3307            3719     127.113E-03     130.532E-03
            3326            3720     116.915E-03     120.360E-03
            3307            3720     116.915E-03     120.360E-03
            3308            3720     116.915E-03     120.360E-03
            3325            3720     116.915E-03     120.360E-03
            3309            3721     107.247E-03     110.482E-03
            3326            3721     107.247E-03     110.482E-03
            3327            3721     107.247E-03     110.482E-03
            3308            3721     107.247E-03     110.482E-03
            3327            3722     97.7676E-03     100.833E-03
            3310            3722     97.7676E-03     100.833E-03
            3309            3722     97.7676E-03     100.833E-03
            3328            3722     97.7676E-03     100.833E-03
            3310            3723     88.5194E-03     91.4189E-03
            3329            3723     88.5194E-03     91.4189E-03
            3311            3723     88.5194E-03     91.4189E-03
            3328            3723     88.5194E-03     91.4189E-03
            3311            3724     79.3748E-03     82.1563E-03
            3330            3724     79.3748E-03     82.1563E-03
            3312            3724     79.3748E-03     82.1563E-03
            3329            3724     79.3748E-03     82.1563E-03
            3312            3725     70.3225E-03     73.0316E-03
            3330            3725     70.3225E-03     73.0316E-03
            3331            3725     70.3225E-03     73.0316E-03
            3313            3725     70.3225E-03     73.0316E-03
            3331            3726     61.3220E-03     64.0003E-03
            3332            3726     61.3220E-03     64.0003E-03
            3313            3726     61.3220E-03     64.0003E-03
            3314            3726     61.3220E-03     64.0003E-03
            3332            3727     52.3548E-03     55.0618E-03
            3314            3727     52.3548E-03     55.0618E-03
            3315            3727     52.3548E-03     55.0618E-03
            3333            3727     52.3548E-03     55.0618E-03
            3333            3728     43.4207E-03     46.2035E-03
            3316            3728     43.4207E-03     46.2035E-03
            3334            3728     43.4207E-03     46.2035E-03
            3315            3728     43.4207E-03     46.2035E-03
            3317            3729     34.5042E-03     37.4184E-03
            3334            3729     34.5042E-03     37.4184E-03
            3316            3729     34.5042E-03     37.4184E-03
            3335            3729     34.5042E-03     37.4184E-03
            3317            3730     25.6333E-03     28.7845E-03
            3336            3730     25.6333E-03     28.7845E-03
            3318            3730     25.6333E-03     28.7845E-03
            3335            3730     25.6333E-03     28.7845E-03
            3336            3731     17.0311E-03     20.1175E-03
            3337            3731     17.0311E-03     20.1175E-03
            3319            3731     17.0311E-03     20.1175E-03
            3318            3731     17.0311E-03     20.1175E-03
            3320            3732     9.20746E-03     11.8954E-03
            3338            3732     9.20746E-03     11.8954E-03
            3319            3732     9.20746E-03     11.8954E-03
            3337            3732     9.20746E-03     11.8954E-03
            3339            3733     159.604E-03     162.402E-03
            3340            3733     159.604E-03     162.402E-03
            3322            3733     159.604E-03     162.402E-03
            3321            3733     159.604E-03     162.402E-03
            3322            3734     149.073E-03     151.740E-03
            3341            3734     149.073E-03     151.740E-03
            3340            3734     149.073E-03     151.740E-03
            3323            3734     149.073E-03     151.740E-03
            3323            3735     137.027E-03     140.153E-03
            3341            3735     137.027E-03     140.153E-03
            3342            3735     137.027E-03     140.153E-03
            3324            3735     137.027E-03     140.153E-03
            3343            3736     125.412E-03     128.928E-03
            3324            3736     125.412E-03     128.928E-03
            3325            3736     125.412E-03     128.928E-03
            3342            3736     125.412E-03     128.928E-03
            3325            3737     115.152E-03     118.629E-03
            3344            3737     115.152E-03     118.629E-03
            3326            3737     115.152E-03     118.629E-03
            3343            3737     115.152E-03     118.629E-03
            3345            3738     105.434E-03     108.806E-03
            3344            3738     105.434E-03     108.806E-03
            3327            3738     105.434E-03     108.806E-03
            3326            3738     105.434E-03     108.806E-03
            3328            3739     96.1140E-03     99.3833E-03
            3345            3739     96.1140E-03     99.3833E-03
            3346            3739     96.1140E-03     99.3833E-03
            3327            3739     96.1140E-03     99.3833E-03
            3328            3740     87.0101E-03     90.1823E-03
            3329            3740     87.0101E-03     90.1823E-03
            3347            3740     87.0101E-03     90.1823E-03
            3346            3740     87.0101E-03     90.1823E-03
            3348            3741     78.0324E-03     81.1413E-03
            3330            3741     78.0324E-03     81.1413E-03
            3329            3741     78.0324E-03     81.1413E-03
            3347            3741     78.0324E-03     81.1413E-03
            3349            3742     69.1306E-03     72.1930E-03
            3330            3742     69.1306E-03     72.1930E-03
            3348            3742     69.1306E-03     72.1930E-03
            3331            3742     69.1306E-03     72.1930E-03
            3349            3743     60.2686E-03     63.3081E-03
            3331            3743     60.2686E-03     63.3081E-03
            3332            3743     60.2686E-03     63.3081E-03
            3350            3743     60.2686E-03     63.3081E-03
            3351            3744     51.4326E-03     54.4659E-03
            3350            3744     51.4326E-03     54.4659E-03
            3333            3744     51.4326E-03     54.4659E-03
            3332            3744     51.4326E-03     54.4659E-03
            3334            3745     42.6074E-03     45.6526E-03
            3351            3745     42.6074E-03     45.6526E-03
            3352            3745     42.6074E-03     45.6526E-03
            3333            3745     42.6074E-03     45.6526E-03
            3334            3746     33.7847E-03     36.8780E-03
            3352            3746     33.7847E-03     36.8780E-03
            3335            3746     33.7847E-03     36.8780E-03
            3353            3746     33.7847E-03     36.8780E-03
            3336            3747     24.9276E-03     28.1872E-03
            3354            3747     24.9276E-03     28.1872E-03
            3353            3747     24.9276E-03     28.1872E-03
            3335            3747     24.9276E-03     28.1872E-03
            3337            3748     16.0307E-03     19.6809E-03
            3336            3748     16.0307E-03     19.6809E-03
            3354            3748     16.0307E-03     19.6809E-03
            3355            3748     16.0307E-03     19.6809E-03
            3356            3749     7.68568E-03     10.9760E-03
            3355            3749     7.68568E-03     10.9760E-03
            3337            3749     7.68568E-03     10.9760E-03
            3338            3749     7.68568E-03     10.9760E-03
            3357            3750     162.986E-03     163.742E-03
            3358            3750     162.986E-03     163.742E-03
            3340            3750     162.986E-03     163.742E-03
            3339            3750     162.986E-03     163.742E-03
            3341            3751     148.311E-03     150.575E-03
            3340            3751     148.311E-03     150.575E-03
            3358            3751     148.311E-03     150.575E-03
            3359            3751     148.311E-03     150.575E-03
            3360            3752     133.739E-03     136.925E-03
            3359            3752     133.739E-03     136.925E-03
            3342            3752     133.739E-03     136.925E-03
            3341            3752     133.739E-03     136.925E-03
            3361            3753     122.349E-03     125.681E-03
            3342            3753     122.349E-03     125.681E-03
            3360            3753     122.349E-03     125.681E-03
            3343            3753     122.349E-03     125.681E-03
            3343            3754     112.270E-03     115.579E-03
            3361            3754     112.270E-03     115.579E-03
            3362            3754     112.270E-03     115.579E-03
            3344            3754     112.270E-03     115.579E-03
            3345            3755     102.843E-03     106.203E-03
            3362            3755     102.843E-03     106.203E-03
            3363            3755     102.843E-03     106.203E-03
            3344            3755     102.843E-03     106.203E-03
            3364            3756     93.8558E-03     97.2169E-03
            3363            3756     93.8558E-03     97.2169E-03
            3346            3756     93.8558E-03     97.2169E-03
            3345            3756     93.8558E-03     97.2169E-03
            3346            3757     85.0438E-03     88.4364E-03
            3365            3757     85.0438E-03     88.4364E-03
            3347            3757     85.0438E-03     88.4364E-03
            3364            3757     85.0438E-03     88.4364E-03
            3365            3758     76.3634E-03     79.7694E-03
            3366            3758     76.3634E-03     79.7694E-03
            3348            3758     76.3634E-03     79.7694E-03
            3347            3758     76.3634E-03     79.7694E-03
            3366            3759     67.7287E-03     71.1438E-03
            3349            3759     67.7287E-03     71.1438E-03
            3367            3759     67.7287E-03     71.1438E-03
            3348            3759     67.7287E-03     71.1438E-03
            3367            3760     59.1324E-03     62.5406E-03
            3350            3760     59.1324E-03     62.5406E-03
            3368            3760     59.1324E-03     62.5406E-03
            3349            3760     59.1324E-03     62.5406E-03
            3350            3761     50.5554E-03     53.9294E-03
            3351            3761     50.5554E-03     53.9294E-03
            3368            3761     50.5554E-03     53.9294E-03
            3369            3761     50.5554E-03     53.9294E-03
            3352            3762     41.9976E-03     45.3209E-03
            3351            3762     41.9976E-03     45.3209E-03
            3369            3762     41.9976E-03     45.3209E-03
            3370            3762     41.9976E-03     45.3209E-03
            3352            3763     33.4735E-03     36.7156E-03
            3371            3763     33.4735E-03     36.7156E-03
            3353            3763     33.4735E-03     36.7156E-03
            3370            3763     33.4735E-03     36.7156E-03
            3353            3764     24.9762E-03     28.1629E-03
            3354            3764     24.9762E-03     28.1629E-03
            3372            3764     24.9762E-03     28.1629E-03
            3371            3764     24.9762E-03     28.1629E-03
            3373            3765     16.4421E-03     20.0207E-03
            3354            3765     16.4421E-03     20.0207E-03
            3355            3765     16.4421E-03     20.0207E-03
            3372            3765     16.4421E-03     20.0207E-03
            3373            3766     8.71855E-03     12.5478E-03
            3355            3766     8.71855E-03     12.5478E-03
            3356            3766     8.71855E-03     12.5478E-03
            3374            3766     8.71855E-03     12.5478E-03
            3376            3767     161.652E-03     163.432E-03
            3357            3767     161.652E-03     163.432E-03
            3375            3767     161.652E-03     163.432E-03
            3358            3767     161.652E-03     163.432E-03
            3358            3768     142.491E-03     145.241E-03
            3377            3768     142.491E-03     145.241E-03
            3359            3768     142.491E-03     145.241E-03
            3376            3768     142.491E-03     145.241E-03
            3378            3769     128.952E-03     131.611E-03
            3360            3769     128.952E-03     131.611E-03
            3377            3769     128.952E-03     131.611E-03
            3359            3769     128.952E-03     131.611E-03
            3379            3770     118.401E-03     121.131E-03
            3360            3770     118.401E-03     121.131E-03
            3361            3770     118.401E-03     121.131E-03
            3378            3770     118.401E-03     121.131E-03
            3361            3771     108.755E-03     111.744E-03
            3362            3771     108.755E-03     111.744E-03
            3379            3771     108.755E-03     111.744E-03
            3380            3771     108.755E-03     111.744E-03
            3362            3772     99.8891E-03     103.108E-03
            3381            3772     99.8891E-03     103.108E-03
            3380            3772     99.8891E-03     103.108E-03
            3363            3772     99.8891E-03     103.108E-03
            3382            3773     91.2814E-03     94.7274E-03
            3381            3773     91.2814E-03     94.7274E-03
            3363            3773     91.2814E-03     94.7274E-03
            3364            3773     91.2814E-03     94.7274E-03
            3364            3774     82.8996E-03     86.5175E-03
            3382            3774     82.8996E-03     86.5175E-03
            3383            3774     82.8996E-03     86.5175E-03
            3365            3774     82.8996E-03     86.5175E-03
            3365            3775     74.5816E-03     78.3227E-03
            3383            3775     74.5816E-03     78.3227E-03
            3384            3775     74.5816E-03     78.3227E-03
            3366            3775     74.5816E-03     78.3227E-03
            3367            3776     66.3249E-03     70.1398E-03
            3385            3776     66.3249E-03     70.1398E-03
            3366            3776     66.3249E-03     70.1398E-03
            3384            3776     66.3249E-03     70.1398E-03
            3386            3777     58.0874E-03     61.9177E-03
            3385            3777     58.0874E-03     61.9177E-03
            3367            3777     58.0874E-03     61.9177E-03
            3368            3777     58.0874E-03     61.9177E-03
            3368            3778     49.8888E-03     53.6766E-03
            3369            3778     49.8888E-03     53.6766E-03
            3386            3778     49.8888E-03     53.6766E-03
            3387            3778     49.8888E-03     53.6766E-03
            3370            3779     41.7479E-03     45.4045E-03
            3388            3779     41.7479E-03     45.4045E-03
            3369            3779     41.7479E-03     45.4045E-03
            3387            3779     41.7479E-03     45.4045E-03
            3389            3780     33.7188E-03     37.1452E-03
            3371            3780     33.7188E-03     37.1452E-03
            3370            3780     33.7188E-03     37.1452E-03
            3388            3780     33.7188E-03     37.1452E-03
            3390            3781     25.8924E-03     28.9737E-03
            3371            3781     25.8924E-03     28.9737E-03
            3389            3781     25.8924E-03     28.9737E-03
            3372            3781     25.8924E-03     28.9737E-03
            3372            3782     18.4820E-03     21.1778E-03
            3373            3782     18.4820E-03     21.1778E-03
            3391            3782     18.4820E-03     21.1778E-03
            3390            3782     18.4820E-03     21.1778E-03
            3374            3783     11.9820E-03     15.1811E-03
            3373            3783     11.9820E-03     15.1811E-03
            3391            3783     11.9820E-03     15.1811E-03
            3392            3783     11.9820E-03     15.1811E-03
            4348            4562     148.235E-03     152.971E-03
            4366            4562     148.235E-03     152.971E-03
            4365            4562     148.235E-03     152.971E-03
            4347            4562     148.235E-03     152.971E-03
            4366            4563     133.573E-03     136.309E-03
            4367            4563     133.573E-03     136.309E-03
            4349            4563     133.573E-03     136.309E-03
            4348            4563     133.573E-03     136.309E-03
            4349            4564     123.132E-03     125.504E-03
            4350            4564     123.132E-03     125.504E-03
            4368            4564     123.132E-03     125.504E-03
            4367            4564     123.132E-03     125.504E-03
            4369            4565     113.527E-03     116.001E-03
            4368            4565     113.527E-03     116.001E-03
            4351            4565     113.527E-03     116.001E-03
            4350            4565     113.527E-03     116.001E-03
            4352            4566     104.718E-03     107.278E-03
            4351            4566     104.718E-03     107.278E-03
            4370            4566     104.718E-03     107.278E-03
            4369            4566     104.718E-03     107.278E-03
            4352            4567     96.1765E-03     98.9464E-03
            4370            4567     96.1765E-03     98.9464E-03
            4371            4567     96.1765E-03     98.9464E-03
            4353            4567     96.1765E-03     98.9464E-03
            4353            4568     87.9053E-03     90.7988E-03
            4371            4568     87.9053E-03     90.7988E-03
            4354            4568     87.9053E-03     90.7988E-03
            4372            4568     87.9053E-03     90.7988E-03
            4355            4569     79.7221E-03     82.7594E-03
            4373            4569     79.7221E-03     82.7594E-03
            4372            4569     79.7221E-03     82.7594E-03
            4354            4569     79.7221E-03     82.7594E-03
            4355            4570     71.6352E-03     74.7496E-03
            4374            4570     71.6352E-03     74.7496E-03
            4373            4570     71.6352E-03     74.7496E-03
            4356            4570     71.6352E-03     74.7496E-03
            4356            4571     63.5735E-03     66.7525E-03
            4375            4571     63.5735E-03     66.7525E-03
            4374            4571     63.5735E-03     66.7525E-03
            4357            4571     63.5735E-03     66.7525E-03
            4357            4572     55.5500E-03     58.7442E-03
            4376            4572     55.5500E-03     58.7442E-03
            4358            4572     55.5500E-03     58.7442E-03
            4375            4572     55.5500E-03     58.7442E-03
            4358            4573     47.5424E-03     50.7193E-03
            4377            4573     47.5424E-03     50.7193E-03
            4376            4573     47.5424E-03     50.7193E-03
            4359            4573     47.5424E-03     50.7193E-03
            4378            4574     39.5753E-03     42.6812E-03
            4377            4574     39.5753E-03     42.6812E-03
            4359            4574     39.5753E-03     42.6812E-03
            4360            4574     39.5753E-03     42.6812E-03
            4379            4575     31.6607E-03     34.6284E-03
            4378            4575     31.6607E-03     34.6284E-03
            4360            4575     31.6607E-03     34.6284E-03
            4361            4575     31.6607E-03     34.6284E-03
            4362            4576     23.8613E-03     26.5943E-03
            4380            4576     23.8613E-03     26.5943E-03
            4361            4576     23.8613E-03     26.5943E-03
            4379            4576     23.8613E-03     26.5943E-03
            4380            4577     16.2943E-03     18.6635E-03
            4363            4577     16.2943E-03     18.6635E-03
            4381            4577     16.2943E-03     18.6635E-03
            4362            4577     16.2943E-03     18.6635E-03
            4364            4578     9.12459E-03     11.3112E-03
            4382            4578     9.12459E-03     11.3112E-03
            4381            4578     9.12459E-03     11.3112E-03
            4363            4578     9.12459E-03     11.3112E-03
            4383            4579     153.374E-03     155.562E-03
            4365            4579     153.374E-03     155.562E-03
            4384            4579     153.374E-03     155.562E-03
            4366            4579     153.374E-03     155.562E-03
            4385            4580     132.977E-03     136.076E-03
            4367            4580     132.977E-03     136.076E-03
            4384            4580     132.977E-03     136.076E-03
            4366            4580     132.977E-03     136.076E-03
            4386            4581     119.038E-03     121.938E-03
            4385            4581     119.038E-03     121.938E-03
            4368            4581     119.038E-03     121.938E-03
            4367            4581     119.038E-03     121.938E-03
            4386            4582     108.464E-03     111.382E-03
            4369            4582     108.464E-03     111.382E-03
            4368            4582     108.464E-03     111.382E-03
            4387            4582     108.464E-03     111.382E-03
            4387            4583     99.0442E-03     102.157E-03
            4369            4583     99.0442E-03     102.157E-03
            4370            4583     99.0442E-03     102.157E-03
            4388            4583     99.0442E-03     102.157E-03
            4370            4584     90.5612E-03     93.8811E-03
            4371            4584     90.5612E-03     93.8811E-03
            4389            4584     90.5612E-03     93.8811E-03
            4388            4584     90.5612E-03     93.8811E-03
            4390            4585     82.4646E-03     85.9956E-03
            4371            4585     82.4646E-03     85.9956E-03
            4372            4585     82.4646E-03     85.9956E-03
            4389            4585     82.4646E-03     85.9956E-03
            4372            4586     74.6756E-03     78.3746E-03
            4373            4586     74.6756E-03     78.3746E-03
            4391            4586     74.6756E-03     78.3746E-03
            4390            4586     74.6756E-03     78.3746E-03
            4391            4587     67.0096E-03     70.8380E-03
            4373            4587     67.0096E-03     70.8380E-03
            4374            4587     67.0096E-03     70.8380E-03
            4392            4587     67.0096E-03     70.8380E-03
            4375            4588     59.4448E-03     63.3479E-03
            4374            4588     59.4448E-03     63.3479E-03
            4392            4588     59.4448E-03     63.3479E-03
            4393            4588     59.4448E-03     63.3479E-03
            4394            4589     51.9172E-03     55.8456E-03
            4376            4589     51.9172E-03     55.8456E-03
            4375            4589     51.9172E-03     55.8456E-03
            4393            4589     51.9172E-03     55.8456E-03
            4376            4590     44.4393E-03     48.3243E-03
            4395            4590     44.4393E-03     48.3243E-03
            4394            4590     44.4393E-03     48.3243E-03
            4377            4590     44.4393E-03     48.3243E-03
            4377            4591     36.9985E-03     40.7675E-03
            4395            4591     36.9985E-03     40.7675E-03
            4396            4591     36.9985E-03     40.7675E-03
            4378            4591     36.9985E-03     40.7675E-03
            4397            4592     29.6447E-03     33.1912E-03
            4379            4592     29.6447E-03     33.1912E-03
            4396            4592     29.6447E-03     33.1912E-03
            4378            4592     29.6447E-03     33.1912E-03
            4380            4593     22.4100E-03     25.6210E-03
            4398            4593     22.4100E-03     25.6210E-03
            4379            4593     22.4100E-03     25.6210E-03
            4397            4593     22.4100E-03     25.6210E-03
            4380            4594     15.4673E-03     18.2244E-03
            4399            4594     15.4673E-03     18.2244E-03
            4398            4594     15.4673E-03     18.2244E-03
            4381            4594     15.4673E-03     18.2244E-03
            4399            4595     9.08157E-03     12.0629E-03
            4382            4595     9.08157E-03     12.0629E-03
            4381            4595     9.08157E-03     12.0629E-03
            4400            4595     9.08157E-03     12.0629E-03
            4401            4596     153.915E-03     154.536E-03
            4384            4596     153.915E-03     154.536E-03
            4402            4596     153.915E-03     154.536E-03
            4383            4596     153.915E-03     154.536E-03
            4403            4597     138.325E-03     140.454E-03
            4402            4597     138.325E-03     140.454E-03
            4385            4597     138.325E-03     140.454E-03
            4384            4597     138.325E-03     140.454E-03
            4404            4598     123.295E-03     126.430E-03
            4386            4598     123.295E-03     126.430E-03
            4403            4598     123.295E-03     126.430E-03
            4385            4598     123.295E-03     126.430E-03
            4405            4599     111.967E-03     115.252E-03
            4387            4599     111.967E-03     115.252E-03
            4386            4599     111.967E-03     115.252E-03
            4404            4599     111.967E-03     115.252E-03
            4387            4600     102.179E-03     105.490E-03
            4406            4600     102.179E-03     105.490E-03
            4405            4600     102.179E-03     105.490E-03
            4388            4600     102.179E-03     105.490E-03
            4406            4601     93.2418E-03     96.6266E-03
            4388            4601     93.2418E-03     96.6266E-03
            4389            4601     93.2418E-03     96.6266E-03
            4407            4601     93.2418E-03     96.6266E-03
            4408            4602     84.8638E-03     88.2694E-03
            4407            4602     84.8638E-03     88.2694E-03
            4390            4602     84.8638E-03     88.2694E-03
            4389            4602     84.8638E-03     88.2694E-03
            4391            4603     76.7398E-03     80.1966E-03
            4408            4603     76.7398E-03     80.1966E-03
            4390            4603     76.7398E-03     80.1966E-03
            4409            4603     76.7398E-03     80.1966E-03
            4410            4604     68.8050E-03     72.2797E-03
            4409            4604     68.8050E-03     72.2797E-03
            4391            4604     68.8050E-03     72.2797E-03
            4392            4604     68.8050E-03     72.2797E-03
            4393            4605     60.9419E-03     64.4348E-03
            4410            4605     60.9419E-03     64.4348E-03
            4392            4605     60.9419E-03     64.4348E-03
            4411            4605     60.9419E-03     64.4348E-03
            4393            4606     53.1405E-03     56.6187E-03
            4411            4606     53.1405E-03     56.6187E-03
            4394            4606     53.1405E-03     56.6187E-03
            4412            4606     53.1405E-03     56.6187E-03
            4394            4607     45.3598E-03     48.8032E-03
            4413            4607     45.3598E-03     48.8032E-03
            4412            4607     45.3598E-03     48.8032E-03
            4395            4607     45.3598E-03     48.8032E-03
            4395            4608     37.6088E-03     40.9696E-03
            4396            4608     37.6088E-03     40.9696E-03
            4414            4608     37.6088E-03     40.9696E-03
            4413            4608     37.6088E-03     40.9696E-03
            4396            4609     29.8703E-03     33.1271E-03
            4397            4609     29.8703E-03     33.1271E-03
            4414            4609     29.8703E-03     33.1271E-03
            4415            4609     29.8703E-03     33.1271E-03
            4397            4610     22.1659E-03     25.2704E-03
            4398            4610     22.1659E-03     25.2704E-03
            4416            4610     22.1659E-03     25.2704E-03
            4415            4610     22.1659E-03     25.2704E-03
            4398            4611     14.3787E-03     17.6359E-03
            4416            4611     14.3787E-03     17.6359E-03
            4399            4611     14.3787E-03     17.6359E-03
            4417            4611     14.3787E-03     17.6359E-03
            4399            4612     6.94160E-03     10.5116E-03
            4400            4612     6.94160E-03     10.5116E-03
            4418            4612     6.94160E-03     10.5116E-03
            4417            4612     6.94160E-03     10.5116E-03
            4420            4613     149.582E-03     152.181E-03
            4419            4613     149.582E-03     152.181E-03
            4401            4613     149.582E-03     152.181E-03
            4402            4613     149.582E-03     152.181E-03
            4421            4614     138.509E-03     140.897E-03
            4420            4614     138.509E-03     140.897E-03
            4402            4614     138.509E-03     140.897E-03
            4403            4614     138.509E-03     140.897E-03
            4404            4615     126.239E-03     129.072E-03
            4403            4615     126.239E-03     129.072E-03
            4421            4615     126.239E-03     129.072E-03
            4422            4615     126.239E-03     129.072E-03
            4423            4616     114.714E-03     118.051E-03
            4405            4616     114.714E-03     118.051E-03
            4422            4616     114.714E-03     118.051E-03
            4404            4616     114.714E-03     118.051E-03
            4423            4617     104.863E-03     108.227E-03
            4424            4617     104.863E-03     108.227E-03
            4405            4617     104.863E-03     108.227E-03
            4406            4617     104.863E-03     108.227E-03
            4406            4618     95.7176E-03     99.0449E-03
            4424            4618     95.7176E-03     99.0449E-03
            4407            4618     95.7176E-03     99.0449E-03
            4425            4618     95.7176E-03     99.0449E-03
            4426            4619     87.0795E-03     90.3613E-03
            4407            4619     87.0795E-03     90.3613E-03
            4408            4619     87.0795E-03     90.3613E-03
            4425            4619     87.0795E-03     90.3613E-03
            4426            4620     78.7392E-03     81.9471E-03
            4427            4620     78.7392E-03     81.9471E-03
            4408            4620     78.7392E-03     81.9471E-03
            4409            4620     78.7392E-03     81.9471E-03
            4427            4621     70.5549E-03     73.7238E-03
            4428            4621     70.5549E-03     73.7238E-03
            4409            4621     70.5549E-03     73.7238E-03
            4410            4621     70.5549E-03     73.7238E-03
            4410            4622     62.4809E-03     65.6034E-03
            4428            4622     62.4809E-03     65.6034E-03
            4429            4622     62.4809E-03     65.6034E-03
            4411            4622     62.4809E-03     65.6034E-03
            4412            4623     54.4559E-03     57.5526E-03
            4429            4623     54.4559E-03     57.5526E-03
            4430            4623     54.4559E-03     57.5526E-03
            4411            4623     54.4559E-03     57.5526E-03
            4430            4624     46.4732E-03     49.5331E-03
            4431            4624     46.4732E-03     49.5331E-03
            4412            4624     46.4732E-03     49.5331E-03
            4413            4624     46.4732E-03     49.5331E-03
            4414            4625     38.5075E-03     41.5466E-03
            4413            4625     38.5075E-03     41.5466E-03
            4431            4625     38.5075E-03     41.5466E-03
            4432            4625     38.5075E-03     41.5466E-03
            4432            4626     30.5735E-03     33.5603E-03
            4433            4626     30.5735E-03     33.5603E-03
            4415            4626     30.5735E-03     33.5603E-03
            4414            4626     30.5735E-03     33.5603E-03
            4415            4627     22.6214E-03     25.6498E-03
            4416            4627     22.6214E-03     25.6498E-03
            4433            4627     22.6214E-03     25.6498E-03
            4434            4627     22.6214E-03     25.6498E-03
            4416            4628     14.7071E-03     17.8804E-03
            4417            4628     14.7071E-03     17.8804E-03
            4434            4628     14.7071E-03     17.8804E-03
            4435            4628     14.7071E-03     17.8804E-03
            4436            4629     7.34301E-03     10.0185E-03
            4435            4629     7.34301E-03     10.0185E-03
            4418            4629     7.34301E-03     10.0185E-03
            4417            4629     7.34301E-03     10.0185E-03
            4438            4630     145.714E-03     147.477E-03
            4437            4630     145.714E-03     147.477E-03
            4419            4630     145.714E-03     147.477E-03
            4420            4630     145.714E-03     147.477E-03
            4421            4631     136.205E-03     138.960E-03
            4438            4631     136.205E-03     138.960E-03
            4439            4631     136.205E-03     138.960E-03
            4420            4631     136.205E-03     138.960E-03
            4440            4632     126.326E-03     129.326E-03
            4422            4632     126.326E-03     129.326E-03
            4439            4632     126.326E-03     129.326E-03
            4421            4632     126.326E-03     129.326E-03
            4441            4633     116.298E-03     119.442E-03
            4422            4633     116.298E-03     119.442E-03
            4440            4633     116.298E-03     119.442E-03
            4423            4633     116.298E-03     119.442E-03
            4424            4634     106.607E-03     109.890E-03
            4441            4634     106.607E-03     109.890E-03
            4442            4634     106.607E-03     109.890E-03
            4423            4634     106.607E-03     109.890E-03
            4425            4635     97.5915E-03     100.767E-03
            4424            4635     97.5915E-03     100.767E-03
            4442            4635     97.5915E-03     100.767E-03
            4443            4635     97.5915E-03     100.767E-03
            4444            4636     88.8692E-03     91.9222E-03
            4426            4636     88.8692E-03     91.9222E-03
            4443            4636     88.8692E-03     91.9222E-03
            4425            4636     88.8692E-03     91.9222E-03
            4445            4637     80.4035E-03     83.3400E-03
            4426            4637     80.4035E-03     83.3400E-03
            4444            4637     80.4035E-03     83.3400E-03
            4427            4637     80.4035E-03     83.3400E-03
            4428            4638     72.0868E-03     74.9173E-03
            4445            4638     72.0868E-03     74.9173E-03
            4427            4638     72.0868E-03     74.9173E-03
            4446            4638     72.0868E-03     74.9173E-03
            4428            4639     63.8666E-03     66.6338E-03
            4446            4639     63.8666E-03     66.6338E-03
            4447            4639     63.8666E-03     66.6338E-03
            4429            4639     63.8666E-03     66.6338E-03
            4447            4640     55.7164E-03     58.4418E-03
            4448            4640     55.7164E-03     58.4418E-03
            4429            4640     55.7164E-03     58.4418E-03
            4430            4640     55.7164E-03     58.4418E-03
            4430            4641     47.6132E-03     50.3368E-03
            4448            4641     47.6132E-03     50.3368E-03
            4449            4641     47.6132E-03     50.3368E-03
            4431            4641     47.6132E-03     50.3368E-03
            4431            4642     39.5619E-03     42.2888E-03
            4450            4642     39.5619E-03     42.2888E-03
            4432            4642     39.5619E-03     42.2888E-03
            4449            4642     39.5619E-03     42.2888E-03
            4451            4643     31.5574E-03     34.3330E-03
            4433            4643     31.5574E-03     34.3330E-03
            4450            4643     31.5574E-03     34.3330E-03
            4432            4643     31.5574E-03     34.3330E-03
            4433            4644     23.6669E-03     26.4726E-03
            4452            4644     23.6669E-03     26.4726E-03
            4451            4644     23.6669E-03     26.4726E-03
            4434            4644     23.6669E-03     26.4726E-03
            4453            4645     16.0869E-03     18.7217E-03
            4435            4645     16.0869E-03     18.7217E-03
            4452            4645     16.0869E-03     18.7217E-03
            4434            4645     16.0869E-03     18.7217E-03
            4453            4646     9.64736E-03     11.4382E-03
            4454            4646     9.64736E-03     11.4382E-03
            4436            4646     9.64736E-03     11.4382E-03
            4435            4646     9.64736E-03     11.4382E-03
            4456            4647     141.115E-03     143.068E-03
            4438            4647     141.115E-03     143.068E-03
            4437            4647     141.115E-03     143.068E-03
            4455            4647     141.115E-03     143.068E-03
            4456            4648     133.355E-03     135.808E-03
            4439            4648     133.355E-03     135.808E-03
            4457            4648     133.355E-03     135.808E-03
            4438            4648     133.355E-03     135.808E-03
            4439            4649     124.914E-03     127.885E-03
            4457            4649     124.914E-03     127.885E-03
            4440            4649     124.914E-03     127.885E-03
            4458            4649     124.914E-03     127.885E-03
            4458            4650     116.185E-03     119.287E-03
            4440            4650     116.185E-03     119.287E-03
            4441            4650     116.185E-03     119.287E-03
            4459            4650     116.185E-03     119.287E-03
            4459            4651     107.357E-03     110.378E-03
            4441            4651     107.357E-03     110.378E-03
            4442            4651     107.357E-03     110.378E-03
            4460            4651     107.357E-03     110.378E-03
            4460            4652     98.5770E-03     101.490E-03
            4442            4652     98.5770E-03     101.490E-03
            4461            4652     98.5770E-03     101.490E-03
            4443            4652     98.5770E-03     101.490E-03
            4443            4653     90.0132E-03     92.7420E-03
            4462            4653     90.0132E-03     92.7420E-03
            4444            4653     90.0132E-03     92.7420E-03
            4461            4653     90.0132E-03     92.7420E-03
            4444            4654     81.5560E-03     84.1281E-03
            4445            4654     81.5560E-03     84.1281E-03
            4462            4654     81.5560E-03     84.1281E-03
            4463            4654     81.5560E-03     84.1281E-03
            4445            4655     73.2227E-03     75.6722E-03
            4464            4655     73.2227E-03     75.6722E-03
            4446            4655     73.2227E-03     75.6722E-03
            4463            4655     73.2227E-03     75.6722E-03
            4446            4656     64.9715E-03     67.3404E-03
            4464            4656     64.9715E-03     67.3404E-03
            4447            4656     64.9715E-03     67.3404E-03
            4465            4656     64.9715E-03     67.3404E-03
            4465            4657     56.7949E-03     59.1352E-03
            4466            4657     56.7949E-03     59.1352E-03
            4447            4657     56.7949E-03     59.1352E-03
            4448            4657     56.7949E-03     59.1352E-03
            4467            4658     48.6831E-03     51.0457E-03
            4448            4658     48.6831E-03     51.0457E-03
            4466            4658     48.6831E-03     51.0457E-03
            4449            4658     48.6831E-03     51.0457E-03
            4449            4659     40.6516E-03     43.0854E-03
            4450            4659     40.6516E-03     43.0854E-03
            4468            4659     40.6516E-03     43.0854E-03
            4467            4659     40.6516E-03     43.0854E-03
            4468            4660     32.7431E-03     35.2516E-03
            4469            4660     32.7431E-03     35.2516E-03
            4451            4660     32.7431E-03     35.2516E-03
            4450            4660     32.7431E-03     35.2516E-03
            4470            4661     25.0839E-03     27.6029E-03
            4452            4661     25.0839E-03     27.6029E-03
            4469            4661     25.0839E-03     27.6029E-03
            4451            4661     25.0839E-03     27.6029E-03
            4453            4662     17.9948E-03     20.2340E-03
            4470            4662     17.9948E-03     20.2340E-03
            4452            4662     17.9948E-03     20.2340E-03
            4471            4662     17.9948E-03     20.2340E-03
            4453            4663     12.4897E-03     13.7854E-03
            4454            4663     12.4897E-03     13.7854E-03
            4471            4663     12.4897E-03     13.7854E-03
            4472            4663     12.4897E-03     13.7854E-03
            4456            4664     136.480E-03     138.190E-03
            4473            4664     136.480E-03     138.190E-03
            4474            4664     136.480E-03     138.190E-03
            4455            4664     136.480E-03     138.190E-03
            4474            4665     129.746E-03     132.208E-03
            4475            4665     129.746E-03     132.208E-03
            4456            4665     129.746E-03     132.208E-03
            4457            4665     129.746E-03     132.208E-03
            4457            4666     122.647E-03     125.434E-03
            4476            4666     122.647E-03     125.434E-03
            4458            4666     122.647E-03     125.434E-03
            4475            4666     122.647E-03     125.434E-03
            4459            4667     114.957E-03     117.819E-03
            4458            4667     114.957E-03     117.819E-03
            4477            4667     114.957E-03     117.819E-03
            4476            4667     114.957E-03     117.819E-03
            4478            4668     106.916E-03     109.618E-03
            4459            4668     106.916E-03     109.618E-03
            4460            4668     106.916E-03     109.618E-03
            4477            4668     106.916E-03     109.618E-03
            4461            4669     98.6662E-03     101.149E-03
            4478            4669     98.6662E-03     101.149E-03
            4479            4669     98.6662E-03     101.149E-03
            4460            4669     98.6662E-03     101.149E-03
            4480            4670     90.3503E-03     92.6404E-03
            4461            4670     90.3503E-03     92.6404E-03
            4479            4670     90.3503E-03     92.6404E-03
            4462            4670     90.3503E-03     92.6404E-03
            4462            4671     82.0830E-03     84.1946E-03
            4481            4671     82.0830E-03     84.1946E-03
            4480            4671     82.0830E-03     84.1946E-03
            4463            4671     82.0830E-03     84.1946E-03
            4463            4672     73.8556E-03     75.8465E-03
            4481            4672     73.8556E-03     75.8465E-03
            4482            4672     73.8556E-03     75.8465E-03
            4464            4672     73.8556E-03     75.8465E-03
            4483            4673     65.7059E-03     67.6213E-03
            4482            4673     65.7059E-03     67.6213E-03
            4465            4673     65.7059E-03     67.6213E-03
            4464            4673     65.7059E-03     67.6213E-03
            4466            4674     57.6244E-03     59.5270E-03
            4484            4674     57.6244E-03     59.5270E-03
            4483            4674     57.6244E-03     59.5270E-03
            4465            4674     57.6244E-03     59.5270E-03
            4466            4675     49.6302E-03     51.5797E-03
            4485            4675     49.6302E-03     51.5797E-03
            4484            4675     49.6302E-03     51.5797E-03
            4467            4675     49.6302E-03     51.5797E-03
            4467            4676     41.7369E-03     43.8228E-03
            4485            4676     41.7369E-03     43.8228E-03
            4486            4676     41.7369E-03     43.8228E-03
            4468            4676     41.7369E-03     43.8228E-03
            4487            4677     34.0505E-03     36.2818E-03
            4468            4677     34.0505E-03     36.2818E-03
            4486            4677     34.0505E-03     36.2818E-03
            4469            4677     34.0505E-03     36.2818E-03
            4469            4678     26.7344E-03     28.9883E-03
            4487            4678     26.7344E-03     28.9883E-03
            4470            4678     26.7344E-03     28.9883E-03
            4488            4678     26.7344E-03     28.9883E-03
            4489            4679     20.2335E-03     22.2524E-03
            4470            4679     20.2335E-03     22.2524E-03
            4471            4679     20.2335E-03     22.2524E-03
            4488            4679     20.2335E-03     22.2524E-03
            4490            4680     15.6035E-03     16.5113E-03
            4471            4680     15.6035E-03     16.5113E-03
            4489            4680     15.6035E-03     16.5113E-03
            4472            4680     15.6035E-03     16.5113E-03
            4473            4681     131.400E-03     132.919E-03
            4491            4681     131.400E-03     132.919E-03
            4492            4681     131.400E-03     132.919E-03
            4474            4681     131.400E-03     132.919E-03
            4492            4682     125.691E-03     128.029E-03
            4475            4682     125.691E-03     128.029E-03
            4474            4682     125.691E-03     128.029E-03
            4493            4682     125.691E-03     128.029E-03
            4476            4683     119.559E-03     122.128E-03
            4493            4683     119.559E-03     122.128E-03
            4475            4683     119.559E-03     122.128E-03
            4494            4683     119.559E-03     122.128E-03
            4477            4684     112.850E-03     115.224E-03
            4476            4684     112.850E-03     115.224E-03
            4494            4684     112.850E-03     115.224E-03
            4495            4684     112.850E-03     115.224E-03
            4478            4685     105.482E-03     107.644E-03
            4477            4685     105.482E-03     107.644E-03
            4496            4685     105.482E-03     107.644E-03
            4495            4685     105.482E-03     107.644E-03
            4497            4686     97.7844E-03     99.6943E-03
            4478            4686     97.7844E-03     99.6943E-03
            4496            4686     97.7844E-03     99.6943E-03
            4479            4686     97.7844E-03     99.6943E-03
            4479            4687     89.8881E-03     91.5895E-03
            4498            4687     89.8881E-03     91.5895E-03
            4497            4687     89.8881E-03     91.5895E-03
            4480            4687     89.8881E-03     91.5895E-03
            4480            4688     81.9129E-03     83.4753E-03
            4498            4688     81.9129E-03     83.4753E-03
            4499            4688     81.9129E-03     83.4753E-03
            4481            4688     81.9129E-03     83.4753E-03
            4499            4689     73.9568E-03     75.4117E-03
            4482            4689     73.9568E-03     75.4117E-03
            4500            4689     73.9568E-03     75.4117E-03
            4481            4689     73.9568E-03     75.4117E-03
            4483            4690     66.0367E-03     67.4434E-03
            4500            4690     66.0367E-03     67.4434E-03
            4482            4690     66.0367E-03     67.4434E-03
            4501            4690     66.0367E-03     67.4434E-03
            4484            4691     58.1967E-03     59.5995E-03
            4483            4691     58.1967E-03     59.5995E-03
            4501            4691     58.1967E-03     59.5995E-03
            4502            4691     58.1967E-03     59.5995E-03
            4485            4692     50.4520E-03     51.9285E-03
            4484            4692     50.4520E-03     51.9285E-03
            4503            4692     50.4520E-03     51.9285E-03
            4502            4692     50.4520E-03     51.9285E-03
            4503            4693     42.8510E-03     44.4752E-03
            4504            4693     42.8510E-03     44.4752E-03
            4486            4693     42.8510E-03     44.4752E-03
            4485            4693     42.8510E-03     44.4752E-03
            4504            4694     35.4607E-03     37.3847E-03
            4487            4694     35.4607E-03     37.3847E-03
            4505            4694     35.4607E-03     37.3847E-03
            4486            4694     35.4607E-03     37.3847E-03
            4505            4695     28.6001E-03     30.7133E-03
            4488            4695     28.6001E-03     30.7133E-03
            4506            4695     28.6001E-03     30.7133E-03
            4487            4695     28.6001E-03     30.7133E-03
            4506            4696     22.7293E-03     24.5364E-03
            4489            4696     22.7293E-03     24.5364E-03
            4488            4696     22.7293E-03     24.5364E-03
            4507            4696     22.7293E-03     24.5364E-03
            4489            4697     18.7384E-03     19.7712E-03
            4490            4697     18.7384E-03     19.7712E-03
            4507            4697     18.7384E-03     19.7712E-03
            4508            4697     18.7384E-03     19.7712E-03
            4509            4698     125.677E-03     127.267E-03
            4491            4698     125.677E-03     127.267E-03
            4510            4698     125.677E-03     127.267E-03
            4492            4698     125.677E-03     127.267E-03
            4510            4699     120.995E-03     122.992E-03
            4493            4699     120.995E-03     122.992E-03
            4492            4699     120.995E-03     122.992E-03
            4511            4699     120.995E-03     122.992E-03
            4493            4700     115.876E-03     117.728E-03
            4511            4700     115.876E-03     117.728E-03
            4494            4700     115.876E-03     117.728E-03
            4512            4700     115.876E-03     117.728E-03
            4494            4701     109.807E-03     111.445E-03
            4513            4701     109.807E-03     111.445E-03
            4512            4701     109.807E-03     111.445E-03
            4495            4701     109.807E-03     111.445E-03
            4514            4702     103.161E-03     104.494E-03
            4495            4702     103.161E-03     104.494E-03
            4496            4702     103.161E-03     104.494E-03
            4513            4702     103.161E-03     104.494E-03
            4515            4703     96.0234E-03     97.1575E-03
            4497            4703     96.0234E-03     97.1575E-03
            4514            4703     96.0234E-03     97.1575E-03
            4496            4703     96.0234E-03     97.1575E-03
            4516            4704     88.6252E-03     89.6372E-03
            4498            4704     88.6252E-03     89.6372E-03
            4497            4704     88.6252E-03     89.6372E-03
            4515            4704     88.6252E-03     89.6372E-03
            4499            4705     81.1085E-03     82.0287E-03
            4517            4705     81.1085E-03     82.0287E-03
            4516            4705     81.1085E-03     82.0287E-03
            4498            4705     81.1085E-03     82.0287E-03
            4517            4706     73.5440E-03     74.4276E-03
            4499            4706     73.5440E-03     74.4276E-03
            4500            4706     73.5440E-03     74.4276E-03
            4518            4706     73.5440E-03     74.4276E-03
            4500            4707     66.0172E-03     66.8776E-03
            4519            4707     66.0172E-03     66.8776E-03
            4501            4707     66.0172E-03     66.8776E-03
            4518            4707     66.0172E-03     66.8776E-03
            4501            4708     58.5574E-03     59.4345E-03
            4502            4708     58.5574E-03     59.4345E-03
            4520            4708     58.5574E-03     59.4345E-03
            4519            4708     58.5574E-03     59.4345E-03
            4521            4709     51.2157E-03     52.1540E-03
            4503            4709     51.2157E-03     52.1540E-03
            4520            4709     51.2157E-03     52.1540E-03
            4502            4709     51.2157E-03     52.1540E-03
            4521            4710     44.0459E-03     45.1403E-03
            4504            4710     44.0459E-03     45.1403E-03
            4503            4710     44.0459E-03     45.1403E-03
            4522            4710     44.0459E-03     45.1403E-03
            4523            4711     37.1294E-03     38.5325E-03
            4504            4711     37.1294E-03     38.5325E-03
            4522            4711     37.1294E-03     38.5325E-03
            4505            4711     37.1294E-03     38.5325E-03
            4506            4712     30.6677E-03     32.6710E-03
            4523            4712     30.6677E-03     32.6710E-03
            4524            4712     30.6677E-03     32.6710E-03
            4505            4712     30.6677E-03     32.6710E-03
            4525            4713     25.4440E-03     27.5138E-03
            4524            4713     25.4440E-03     27.5138E-03
            4506            4713     25.4440E-03     27.5138E-03
            4507            4713     25.4440E-03     27.5138E-03
            4507            4714     22.1166E-03     23.0902E-03
            4508            4714     22.1166E-03     23.0902E-03
            4525            4714     22.1166E-03     23.0902E-03
            4526            4714     22.1166E-03     23.0902E-03
            4527            4715     119.366E-03     119.856E-03
            4509            4715     119.366E-03     119.856E-03
            4510            4715     119.366E-03     119.856E-03
            4528            4715     119.366E-03     119.856E-03
            4528            4716     115.769E-03     116.594E-03
            4510            4716     115.769E-03     116.594E-03
            4511            4716     115.769E-03     116.594E-03
            4529            4716     115.769E-03     116.594E-03
            4530            4717     111.296E-03     111.932E-03
            4529            4717     111.296E-03     111.932E-03
            4512            4717     111.296E-03     111.932E-03
            4511            4717     111.296E-03     111.932E-03
            4512            4718     105.998E-03     106.352E-03
            4513            4718     105.998E-03     106.352E-03
            4531            4718     105.998E-03     106.352E-03
            4530            4718     105.998E-03     106.352E-03
            4532            4719     99.9753E-03     100.210E-03
            4513            4719     99.9753E-03     100.210E-03
            4531            4719     99.9753E-03     100.210E-03
            4514            4719     99.9753E-03     100.210E-03
            4514            4720     93.4862E-03     93.7021E-03
            4533            4720     93.4862E-03     93.7021E-03
            4532            4720     93.4862E-03     93.7021E-03
            4515            4720     93.4862E-03     93.7021E-03
            4533            4721     86.7145E-03     86.9401E-03
            4516            4721     86.7145E-03     86.9401E-03
            4515            4721     86.7145E-03     86.9401E-03
            4534            4721     86.7145E-03     86.9401E-03
            4534            4722     79.7684E-03     80.0425E-03
            4535            4722     79.7684E-03     80.0425E-03
            4516            4722     79.7684E-03     80.0425E-03
            4517            4722     79.7684E-03     80.0425E-03
            4535            4723     72.7678E-03     73.0723E-03
            4518            4723     72.7678E-03     73.0723E-03
            4536            4723     72.7678E-03     73.0723E-03
            4517            4723     72.7678E-03     73.0723E-03
            4536            4724     65.7624E-03     66.1069E-03
            4537            4724     65.7624E-03     66.1069E-03
            4518            4724     65.7624E-03     66.1069E-03
            4519            4724     65.7624E-03     66.1069E-03
            4537            4725     58.8346E-03     59.2051E-03
            4520            4725     58.8346E-03     59.2051E-03
            4519            4725     58.8346E-03     59.2051E-03
            4538            4725     58.8346E-03     59.2051E-03
            4521            4726     52.0353E-03     52.4458E-03
            4520            4726     52.0353E-03     52.4458E-03
            4539            4726     52.0353E-03     52.4458E-03
            4538            4726     52.0353E-03     52.4458E-03
            4521            4727     45.4419E-03     45.9483E-03
            4540            4727     45.4419E-03     45.9483E-03
            4539            4727     45.4419E-03     45.9483E-03
            4522            4727     45.4419E-03     45.9483E-03
            4541            4728     39.1625E-03     39.8913E-03
            4522            4728     39.1625E-03     39.8913E-03
            4540            4728     39.1625E-03     39.8913E-03
            4523            4728     39.1625E-03     39.8913E-03
            4524            4729     33.2875E-03     34.6507E-03
            4542            4729     33.2875E-03     34.6507E-03
            4523            4729     33.2875E-03     34.6507E-03
            4541            4729     33.2875E-03     34.6507E-03
            4542            4730     28.2503E-03     30.8246E-03
            4543            4730     28.2503E-03     30.8246E-03
            4525            4730     28.2503E-03     30.8246E-03
            4524            4730     28.2503E-03     30.8246E-03
            4526            4731     25.5904E-03     27.7935E-03
            4543            4731     25.5904E-03     27.7935E-03
            4525            4731     25.5904E-03     27.7935E-03
            4544            4731     25.5904E-03     27.7935E-03
            4528            4732     112.260E-03     110.354E-03
            4527            4732     112.260E-03     110.354E-03
            4545            4732     112.260E-03     110.354E-03
            4546            4732     112.260E-03     110.354E-03
            4528            4733     109.812E-03     108.265E-03
            4547            4733     109.812E-03     108.265E-03
            4529            4733     109.812E-03     108.265E-03
            4546            4733     109.812E-03     108.265E-03
            4547            4734     106.052E-03     104.496E-03
            4529            4734     106.052E-03     104.496E-03
            4530            4734     106.052E-03     104.496E-03
            4548            4734     106.052E-03     104.496E-03
            4549            4735     101.418E-03     100.098E-03
            4548            4735     101.418E-03     100.098E-03
            4531            4735     101.418E-03     100.098E-03
            4530            4735     101.418E-03     100.098E-03
            4532            4736     96.1201E-03     95.0834E-03
            4549            4736     96.1201E-03     95.0834E-03
            4531            4736     96.1201E-03     95.0834E-03
            4550            4736     96.1201E-03     95.0834E-03
            4550            4737     90.4050E-03     89.6462E-03
            4533            4737     90.4050E-03     89.6462E-03
            4551            4737     90.4050E-03     89.6462E-03
            4532            4737     90.4050E-03     89.6462E-03
            4533            4738     84.3796E-03     83.8646E-03
            4552            4738     84.3796E-03     83.8646E-03
            4534            4738     84.3796E-03     83.8646E-03
            4551            4738     84.3796E-03     83.8646E-03
            4552            4739     78.1716E-03     77.8412E-03
            4535            4739     78.1716E-03     77.8412E-03
            4553            4739     78.1716E-03     77.8412E-03
            4534            4739     78.1716E-03     77.8412E-03
            4536            4740     71.8490E-03     71.6685E-03
            4553            4740     71.8490E-03     71.6685E-03
            4554            4740     71.8490E-03     71.6685E-03
            4535            4740     71.8490E-03     71.6685E-03
            4555            4741     65.5134E-03     65.4202E-03
            4536            4741     65.5134E-03     65.4202E-03
            4554            4741     65.5134E-03     65.4202E-03
            4537            4741     65.5134E-03     65.4202E-03
            4555            4742     59.2196E-03     59.1864E-03
            4537            4742     59.2196E-03     59.1864E-03
            4556            4742     59.2196E-03     59.1864E-03
            4538            4742     59.2196E-03     59.1864E-03
            4539            4743     53.0808E-03     53.0546E-03
            4557            4743     53.0808E-03     53.0546E-03
            4556            4743     53.0808E-03     53.0546E-03
            4538            4743     53.0808E-03     53.0546E-03
            4558            4744     47.1698E-03     47.1459E-03
            4539            4744     47.1698E-03     47.1459E-03
            4557            4744     47.1698E-03     47.1459E-03
            4540            4744     47.1698E-03     47.1459E-03
            4540            4745     41.6518E-03     41.6530E-03
            4559            4745     41.6518E-03     41.6530E-03
            4558            4745     41.6518E-03     41.6530E-03
            4541            4745     41.6518E-03     41.6530E-03
            4560            4746     36.6178E-03     36.8458E-03
            4542            4746     36.6178E-03     36.8458E-03
            4541            4746     36.6178E-03     36.8458E-03
            4559            4746     36.6178E-03     36.8458E-03
            4561            4747     32.1466E-03     33.4924E-03
            4560            4747     32.1466E-03     33.4924E-03
            4542            4747     32.1466E-03     33.4924E-03
            4543            4747     32.1466E-03     33.4924E-03
            4561            4748     28.7320E-03     32.3568E-03
            4544            4748     28.7320E-03     32.3568E-03
            4562            4748     28.7320E-03     32.3568E-03
            4543            4748     28.7320E-03     32.3568E-03
            4564            4749     107.975E-03     109.943E-03
            4546            4749     107.975E-03     109.943E-03
            4545            4749     107.975E-03     109.943E-03
            4563            4749     107.975E-03     109.943E-03
            4547            4750     98.4861E-03     98.4600E-03
            4565            4750     98.4861E-03     98.4600E-03
            4546            4750     98.4861E-03     98.4600E-03
            4564            4750     98.4861E-03     98.4600E-03
            4547            4751     91.8322E-03     91.6713E-03
            4548            4751     91.8322E-03     91.6713E-03
            4565            4751     91.8322E-03     91.6713E-03
            4566            4751     91.8322E-03     91.6713E-03
            4567            4752     85.5424E-03     85.7005E-03
            4549            4752     85.5424E-03     85.7005E-03
            4566            4752     85.5424E-03     85.7005E-03
            4548            4752     85.5424E-03     85.7005E-03
            4567            4753     79.7409E-03     80.1645E-03
            4549            4753     79.7409E-03     80.1645E-03
            4568            4753     79.7409E-03     80.1645E-03
            4550            4753     79.7409E-03     80.1645E-03
            4550            4754     74.0099E-03     74.7984E-03
            4569            4754     74.0099E-03     74.7984E-03
            4568            4754     74.0099E-03     74.7984E-03
            4551            4754     74.0099E-03     74.7984E-03
            4552            4755     68.4148E-03     69.4402E-03
            4569            4755     68.4148E-03     69.4402E-03
            4570            4755     68.4148E-03     69.4402E-03
            4551            4755     68.4148E-03     69.4402E-03
            4552            4756     62.8218E-03     64.0878E-03
            4570            4756     62.8218E-03     64.0878E-03
            4571            4756     62.8218E-03     64.0878E-03
            4553            4756     62.8218E-03     64.0878E-03
            4553            4757     57.2829E-03     58.6915E-03
            4572            4757     57.2829E-03     58.6915E-03
            4554            4757     57.2829E-03     58.6915E-03
            4571            4757     57.2829E-03     58.6915E-03
            4572            4758     51.7583E-03     53.2833E-03
            4573            4758     51.7583E-03     53.2833E-03
            4554            4758     51.7583E-03     53.2833E-03
            4555            4758     51.7583E-03     53.2833E-03
            4573            4759     46.3047E-03     47.8740E-03
            4556            4759     46.3047E-03     47.8740E-03
            4555            4759     46.3047E-03     47.8740E-03
            4574            4759     46.3047E-03     47.8740E-03
            4557            4760     40.9327E-03     42.5034E-03
            4575            4760     40.9327E-03     42.5034E-03
            4574            4760     40.9327E-03     42.5034E-03
            4556            4760     40.9327E-03     42.5034E-03
            4575            4761     35.7184E-03     37.2207E-03
            4576            4761     35.7184E-03     37.2207E-03
            4558            4761     35.7184E-03     37.2207E-03
            4557            4761     35.7184E-03     37.2207E-03
            4558            4762     30.7197E-03     32.1169E-03
            4576            4762     30.7197E-03     32.1169E-03
            4577            4762     30.7197E-03     32.1169E-03
            4559            4762     30.7197E-03     32.1169E-03
            4560            4763     26.0341E-03     27.2695E-03
            4559            4763     26.0341E-03     27.2695E-03
            4577            4763     26.0341E-03     27.2695E-03
            4578            4763     26.0341E-03     27.2695E-03
            4579            4764     21.7445E-03     23.0460E-03
            4561            4764     21.7445E-03     23.0460E-03
            4578            4764     21.7445E-03     23.0460E-03
            4560            4764     21.7445E-03     23.0460E-03
            4579            4765     17.3728E-03     20.0677E-03
            4562            4765     17.3728E-03     20.0677E-03
            4580            4765     17.3728E-03     20.0677E-03
            4561            4765     17.3728E-03     20.0677E-03
            4582            4766     110.156E-03     112.336E-03
            4564            4766     110.156E-03     112.336E-03
            4563            4766     110.156E-03     112.336E-03
            4581            4766     110.156E-03     112.336E-03
            4582            4767     92.9581E-03     95.8015E-03
            4565            4767     92.9581E-03     95.8015E-03
            4564            4767     92.9581E-03     95.8015E-03
            4583            4767     92.9581E-03     95.8015E-03
            4565            4768     81.6665E-03     84.2877E-03
            4566            4768     81.6665E-03     84.2877E-03
            4584            4768     81.6665E-03     84.2877E-03
            4583            4768     81.6665E-03     84.2877E-03
            4566            4769     73.4255E-03     75.9752E-03
            4585            4769     73.4255E-03     75.9752E-03
            4567            4769     73.4255E-03     75.9752E-03
            4584            4769     73.4255E-03     75.9752E-03
            4585            4770     66.3368E-03     68.9730E-03
            4568            4770     66.3368E-03     68.9730E-03
            4567            4770     66.3368E-03     68.9730E-03
            4586            4770     66.3368E-03     68.9730E-03
            4587            4771     60.1703E-03     62.9142E-03
            4568            4771     60.1703E-03     62.9142E-03
            4586            4771     60.1703E-03     62.9142E-03
            4569            4771     60.1703E-03     62.9142E-03
            4570            4772     54.4347E-03     57.3076E-03
            4569            4772     54.4347E-03     57.3076E-03
            4587            4772     54.4347E-03     57.3076E-03
            4588            4772     54.4347E-03     57.3076E-03
            4571            4773     49.0386E-03     52.0208E-03
            4588            4773     49.0386E-03     52.0208E-03
            4570            4773     49.0386E-03     52.0208E-03
            4589            4773     49.0386E-03     52.0208E-03
            4590            4774     43.8066E-03     46.8752E-03
            4589            4774     43.8066E-03     46.8752E-03
            4571            4774     43.8066E-03     46.8752E-03
            4572            4774     43.8066E-03     46.8752E-03
            4573            4775     38.7002E-03     41.8242E-03
            4590            4775     38.7002E-03     41.8242E-03
            4572            4775     38.7002E-03     41.8242E-03
            4591            4775     38.7002E-03     41.8242E-03
            4592            4776     33.6537E-03     36.7955E-03
            4591            4776     33.6537E-03     36.7955E-03
            4574            4776     33.6537E-03     36.7955E-03
            4573            4776     33.6537E-03     36.7955E-03
            4575            4777     28.6545E-03     31.7749E-03
            4574            4777     28.6545E-03     31.7749E-03
            4592            4777     28.6545E-03     31.7749E-03
            4593            4777     28.6545E-03     31.7749E-03
            4575            4778     23.6844E-03     26.7321E-03
            4594            4778     23.6844E-03     26.7321E-03
            4593            4778     23.6844E-03     26.7321E-03
            4576            4778     23.6844E-03     26.7321E-03
            4594            4779     18.7459E-03     21.6609E-03
            4595            4779     18.7459E-03     21.6609E-03
            4576            4779     18.7459E-03     21.6609E-03
            4577            4779     18.7459E-03     21.6609E-03
            4577            4780     13.8461E-03     16.5530E-03
            4595            4780     13.8461E-03     16.5530E-03
            4578            4780     13.8461E-03     16.5530E-03
            4596            4780     13.8461E-03     16.5530E-03
            4579            4781     9.04346E-03     11.3844E-03
            4578            4781     9.04346E-03     11.3844E-03
            4597            4781     9.04346E-03     11.3844E-03
            4596            4781     9.04346E-03     11.3844E-03
            4598            4782     4.37385E-03     6.38457E-03
            4580            4782     4.37385E-03     6.38457E-03
            4579            4782     4.37385E-03     6.38457E-03
            4597            4782     4.37385E-03     6.38457E-03
            4600            4783     109.586E-03     109.978E-03
            4581            4783     109.586E-03     109.978E-03
            4599            4783     109.586E-03     109.978E-03
            4582            4783     109.586E-03     109.978E-03
            4583            4784     96.5276E-03     98.1171E-03
            4600            4784     96.5276E-03     98.1171E-03
            4601            4784     96.5276E-03     98.1171E-03
            4582            4784     96.5276E-03     98.1171E-03
            4584            4785     84.4054E-03     86.8278E-03
            4602            4785     84.4054E-03     86.8278E-03
            4601            4785     84.4054E-03     86.8278E-03
            4583            4785     84.4054E-03     86.8278E-03
            4602            4786     75.6316E-03     78.2116E-03
            4603            4786     75.6316E-03     78.2116E-03
            4584            4786     75.6316E-03     78.2116E-03
            4585            4786     75.6316E-03     78.2116E-03
            4585            4787     68.3505E-03     70.9620E-03
            4586            4787     68.3505E-03     70.9620E-03
            4603            4787     68.3505E-03     70.9620E-03
            4604            4787     68.3505E-03     70.9620E-03
            4604            4788     61.9198E-03     64.6024E-03
            4587            4788     61.9198E-03     64.6024E-03
            4586            4788     61.9198E-03     64.6024E-03
            4605            4788     61.9198E-03     64.6024E-03
            4588            4789     56.0697E-03     58.7739E-03
            4605            4789     56.0697E-03     58.7739E-03
            4606            4789     56.0697E-03     58.7739E-03
            4587            4789     56.0697E-03     58.7739E-03
            4589            4790     50.5141E-03     53.2584E-03
            4607            4790     50.5141E-03     53.2584E-03
            4588            4790     50.5141E-03     53.2584E-03
            4606            4790     50.5141E-03     53.2584E-03
            4589            4791     45.1743E-03     47.9329E-03
            4590            4791     45.1743E-03     47.9329E-03
            4607            4791     45.1743E-03     47.9329E-03
            4608            4791     45.1743E-03     47.9329E-03
            4608            4792     39.9372E-03     42.7034E-03
            4609            4792     39.9372E-03     42.7034E-03
            4591            4792     39.9372E-03     42.7034E-03
            4590            4792     39.9372E-03     42.7034E-03
            4610            4793     34.7789E-03     37.5292E-03
            4592            4793     34.7789E-03     37.5292E-03
            4591            4793     34.7789E-03     37.5292E-03
            4609            4793     34.7789E-03     37.5292E-03
            4611            4794     29.6610E-03     32.3686E-03
            4610            4794     29.6610E-03     32.3686E-03
            4592            4794     29.6610E-03     32.3686E-03
            4593            4794     29.6610E-03     32.3686E-03
            4611            4795     24.5811E-03     27.2107E-03
            4612            4795     24.5811E-03     27.2107E-03
            4594            4795     24.5811E-03     27.2107E-03
            4593            4795     24.5811E-03     27.2107E-03
            4594            4796     19.5376E-03     22.0414E-03
            4612            4796     19.5376E-03     22.0414E-03
            4613            4796     19.5376E-03     22.0414E-03
            4595            4796     19.5376E-03     22.0414E-03
            4614            4797     14.5551E-03     16.8541E-03
            4613            4797     14.5551E-03     16.8541E-03
            4596            4797     14.5551E-03     16.8541E-03
            4595            4797     14.5551E-03     16.8541E-03
            4615            4798     9.67036E-03     11.7163E-03
            4597            4798     9.67036E-03     11.7163E-03
            4614            4798     9.67036E-03     11.7163E-03
            4596            4798     9.67036E-03     11.7163E-03
            4615            4799     5.16800E-03     6.84497E-03
            4597            4799     5.16800E-03     6.84497E-03
            4598            4799     5.16800E-03     6.84497E-03
            4616            4799     5.16800E-03     6.84497E-03
            4617            4800     105.005E-03     106.887E-03
            4599            4800     105.005E-03     106.887E-03
            4600            4800     105.005E-03     106.887E-03
            4618            4800     105.005E-03     106.887E-03
            4619            4801     95.8556E-03     97.4506E-03
            4618            4801     95.8556E-03     97.4506E-03
            4600            4801     95.8556E-03     97.4506E-03
            4601            4801     95.8556E-03     97.4506E-03
            4601            4802     86.1225E-03     88.0908E-03
            4620            4802     86.1225E-03     88.0908E-03
            4602            4802     86.1225E-03     88.0908E-03
            4619            4802     86.1225E-03     88.0908E-03
            4602            4803     77.3241E-03     79.7379E-03
            4620            4803     77.3241E-03     79.7379E-03
            4621            4803     77.3241E-03     79.7379E-03
            4603            4803     77.3241E-03     79.7379E-03
            4622            4804     70.1000E-03     72.6072E-03
            4604            4804     70.1000E-03     72.6072E-03
            4621            4804     70.1000E-03     72.6072E-03
            4603            4804     70.1000E-03     72.6072E-03
            4604            4805     63.6183E-03     66.1466E-03
            4623            4805     63.6183E-03     66.1466E-03
            4622            4805     63.6183E-03     66.1466E-03
            4605            4805     63.6183E-03     66.1466E-03
            4605            4806     57.6590E-03     60.1903E-03
            4624            4806     57.6590E-03     60.1903E-03
            4606            4806     57.6590E-03     60.1903E-03
            4623            4806     57.6590E-03     60.1903E-03
            4606            4807     52.0207E-03     54.5195E-03
            4607            4807     52.0207E-03     54.5195E-03
            4625            4807     52.0207E-03     54.5195E-03
            4624            4807     52.0207E-03     54.5195E-03
            4607            4808     46.5651E-03     49.0422E-03
            4608            4808     46.5651E-03     49.0422E-03
            4625            4808     46.5651E-03     49.0422E-03
            4626            4808     46.5651E-03     49.0422E-03
            4608            4809     41.2371E-03     43.6782E-03
            4627            4809     41.2371E-03     43.6782E-03
            4626            4809     41.2371E-03     43.6782E-03
            4609            4809     41.2371E-03     43.6782E-03
            4628            4810     35.9795E-03     38.3836E-03
            4610            4810     35.9795E-03     38.3836E-03
            4609            4810     35.9795E-03     38.3836E-03
            4627            4810     35.9795E-03     38.3836E-03
            4629            4811     30.7845E-03     33.1342E-03
            4628            4811     30.7845E-03     33.1342E-03
            4610            4811     30.7845E-03     33.1342E-03
            4611            4811     30.7845E-03     33.1342E-03
            4630            4812     25.6413E-03     27.9110E-03
            4629            4812     25.6413E-03     27.9110E-03
            4612            4812     25.6413E-03     27.9110E-03
            4611            4812     25.6413E-03     27.9110E-03
            4630            4813     20.5724E-03     22.7182E-03
            4612            4813     20.5724E-03     22.7182E-03
            4631            4813     20.5724E-03     22.7182E-03
            4613            4813     20.5724E-03     22.7182E-03
            4614            4814     15.6199E-03     17.5805E-03
            4631            4814     15.6199E-03     17.5805E-03
            4632            4814     15.6199E-03     17.5805E-03
            4613            4814     15.6199E-03     17.5805E-03
            4633            4815     10.9161E-03     12.6115E-03
            4615            4815     10.9161E-03     12.6115E-03
            4614            4815     10.9161E-03     12.6115E-03
            4632            4815     10.9161E-03     12.6115E-03
            4634            4816     7.15707E-03     8.02649E-03
            4633            4816     7.15707E-03     8.02649E-03
            4615            4816     7.15707E-03     8.02649E-03
            4616            4816     7.15707E-03     8.02649E-03
            4635            4817     100.926E-03     102.106E-03
            4618            4817     100.926E-03     102.106E-03
            4617            4817     100.926E-03     102.106E-03
            4636            4817     100.926E-03     102.106E-03
            4618            4818     93.1918E-03     95.0367E-03
            4637            4818     93.1918E-03     95.0367E-03
            4636            4818     93.1918E-03     95.0367E-03
            4619            4818     93.1918E-03     95.0367E-03
            4619            4819     85.5969E-03     87.5814E-03
            4637            4819     85.5969E-03     87.5814E-03
            4620            4819     85.5969E-03     87.5814E-03
            4638            4819     85.5969E-03     87.5814E-03
            4621            4820     78.1576E-03     80.3171E-03
            4639            4820     78.1576E-03     80.3171E-03
            4620            4820     78.1576E-03     80.3171E-03
            4638            4820     78.1576E-03     80.3171E-03
            4639            4821     71.2111E-03     73.5559E-03
            4621            4821     71.2111E-03     73.5559E-03
            4622            4821     71.2111E-03     73.5559E-03
            4640            4821     71.2111E-03     73.5559E-03
            4640            4822     64.9531E-03     67.2889E-03
            4623            4822     64.9531E-03     67.2889E-03
            4622            4822     64.9531E-03     67.2889E-03
            4641            4822     64.9531E-03     67.2889E-03
            4642            4823     59.0223E-03     61.3225E-03
            4623            4823     59.0223E-03     61.3225E-03
            4624            4823     59.0223E-03     61.3225E-03
            4641            4823     59.0223E-03     61.3225E-03
            4625            4824     53.3627E-03     55.6061E-03
            4624            4824     53.3627E-03     55.6061E-03
            4643            4824     53.3627E-03     55.6061E-03
            4642            4824     53.3627E-03     55.6061E-03
            4644            4825     47.8592E-03     50.0401E-03
            4625            4825     47.8592E-03     50.0401E-03
            4643            4825     47.8592E-03     50.0401E-03
            4626            4825     47.8592E-03     50.0401E-03
            4644            4826     42.4649E-03     44.5959E-03
            4627            4826     42.4649E-03     44.5959E-03
            4626            4826     42.4649E-03     44.5959E-03
            4645            4826     42.4649E-03     44.5959E-03
            4645            4827     37.1541E-03     39.2348E-03
            4627            4827     37.1541E-03     39.2348E-03
            4646            4827     37.1541E-03     39.2348E-03
            4628            4827     37.1541E-03     39.2348E-03
            4646            4828     31.9121E-03     33.9428E-03
            4629            4828     31.9121E-03     33.9428E-03
            4647            4828     31.9121E-03     33.9428E-03
            4628            4828     31.9121E-03     33.9428E-03
            4647            4829     26.7557E-03     28.7189E-03
            4629            4829     26.7557E-03     28.7189E-03
            4630            4829     26.7557E-03     28.7189E-03
            4648            4829     26.7557E-03     28.7189E-03
            4649            4830     21.7162E-03     23.5659E-03
            4630            4830     21.7162E-03     23.5659E-03
            4648            4830     21.7162E-03     23.5659E-03
            4631            4830     21.7162E-03     23.5659E-03
            4632            4831     16.8772E-03     18.5565E-03
            4649            4831     16.8772E-03     18.5565E-03
            4631            4831     16.8772E-03     18.5565E-03
            4650            4831     16.8772E-03     18.5565E-03
            4650            4832     12.5078E-03     13.7795E-03
            4632            4832     12.5078E-03     13.7795E-03
            4651            4832     12.5078E-03     13.7795E-03
            4633            4832     12.5078E-03     13.7795E-03
            4651            4833     9.23682E-03     9.67712E-03
            4633            4833     9.23682E-03     9.67712E-03
            4652            4833     9.23682E-03     9.67712E-03
            4634            4833     9.23682E-03     9.67712E-03
            4654            4834     96.3487E-03     97.6744E-03
            4635            4834     96.3487E-03     97.6744E-03
            4636            4834     96.3487E-03     97.6744E-03
            4653            4834     96.3487E-03     97.6744E-03
            4654            4835     90.2426E-03     91.7709E-03
            4637            4835     90.2426E-03     91.7709E-03
            4636            4835     90.2426E-03     91.7709E-03
            4655            4835     90.2426E-03     91.7709E-03
            4656            4836     83.9419E-03     85.8812E-03
            4655            4836     83.9419E-03     85.8812E-03
            4637            4836     83.9419E-03     85.8812E-03
            4638            4836     83.9419E-03     85.8812E-03
            4638            4837     77.7435E-03     79.8270E-03
            4639            4837     77.7435E-03     79.8270E-03
            4657            4837     77.7435E-03     79.8270E-03
            4656            4837     77.7435E-03     79.8270E-03
            4658            4838     71.6559E-03     73.7622E-03
            4639            4838     71.6559E-03     73.7622E-03
            4640            4838     71.6559E-03     73.7622E-03
            4657            4838     71.6559E-03     73.7622E-03
            4659            4839     65.7066E-03     67.8188E-03
            4641            4839     65.7066E-03     67.8188E-03
            4640            4839     65.7066E-03     67.8188E-03
            4658            4839     65.7066E-03     67.8188E-03
            4660            4840     60.0017E-03     62.0232E-03
            4641            4840     60.0017E-03     62.0232E-03
            4642            4840     60.0017E-03     62.0232E-03
            4659            4840     60.0017E-03     62.0232E-03
            4642            4841     54.4002E-03     56.3423E-03
            4660            4841     54.4002E-03     56.3423E-03
            4661            4841     54.4002E-03     56.3423E-03
            4643            4841     54.4002E-03     56.3423E-03
            4661            4842     48.9223E-03     50.7859E-03
            4662            4842     48.9223E-03     50.7859E-03
            4643            4842     48.9223E-03     50.7859E-03
            4644            4842     48.9223E-03     50.7859E-03
            4644            4843     43.5220E-03     45.3243E-03
            4645            4843     43.5220E-03     45.3243E-03
            4663            4843     43.5220E-03     45.3243E-03
            4662            4843     43.5220E-03     45.3243E-03
            4663            4844     38.2011E-03     39.9631E-03
            4664            4844     38.2011E-03     39.9631E-03
            4645            4844     38.2011E-03     39.9631E-03
            4646            4844     38.2011E-03     39.9631E-03
            4665            4845     32.9658E-03     34.6948E-03
            4647            4845     32.9658E-03     34.6948E-03
            4646            4845     32.9658E-03     34.6948E-03
            4664            4845     32.9658E-03     34.6948E-03
            4648            4846     27.8385E-03     29.5249E-03
            4666            4846     27.8385E-03     29.5249E-03
            4647            4846     27.8385E-03     29.5249E-03
            4665            4846     27.8385E-03     29.5249E-03
            4648            4847     22.8814E-03     24.4956E-03
            4667            4847     22.8814E-03     24.4956E-03
            4649            4847     22.8814E-03     24.4956E-03
            4666            4847     22.8814E-03     24.4956E-03
            4667            4848     18.2323E-03     19.6370E-03
            4650            4848     18.2323E-03     19.6370E-03
            4649            4848     18.2323E-03     19.6370E-03
            4668            4848     18.2323E-03     19.6370E-03
            4668            4849     14.1528E-03     15.1694E-03
            4669            4849     14.1528E-03     15.1694E-03
            4650            4849     14.1528E-03     15.1694E-03
            4651            4849     14.1528E-03     15.1694E-03
            4669            4850     11.3005E-03     11.5156E-03
            4651            4850     11.3005E-03     11.5156E-03
            4652            4850     11.3005E-03     11.5156E-03
            4670            4850     11.3005E-03     11.5156E-03
            4654            4851     91.9305E-03     92.9589E-03
            4653            4851     91.9305E-03     92.9589E-03
            4672            4851     91.9305E-03     92.9589E-03
            4671            4851     91.9305E-03     92.9589E-03
            4673            4852     86.7411E-03     88.3012E-03
            4672            4852     86.7411E-03     88.3012E-03
            4655            4852     86.7411E-03     88.3012E-03
            4654            4852     86.7411E-03     88.3012E-03
            4656            4853     81.7607E-03     83.5320E-03
            4673            4853     81.7607E-03     83.5320E-03
            4655            4853     81.7607E-03     83.5320E-03
            4674            4853     81.7607E-03     83.5320E-03
            4675            4854     76.5913E-03     78.5154E-03
            4656            4854     76.5913E-03     78.5154E-03
            4674            4854     76.5913E-03     78.5154E-03
            4657            4854     76.5913E-03     78.5154E-03
            4658            4855     71.2937E-03     73.2027E-03
            4676            4855     71.2937E-03     73.2027E-03
            4675            4855     71.2937E-03     73.2027E-03
            4657            4855     71.2937E-03     73.2027E-03
            4659            4856     65.9130E-03     67.7065E-03
            4658            4856     65.9130E-03     67.7065E-03
            4677            4856     65.9130E-03     67.7065E-03
            4676            4856     65.9130E-03     67.7065E-03
            4659            4857     60.4603E-03     62.1600E-03
            4677            4857     60.4603E-03     62.1600E-03
            4678            4857     60.4603E-03     62.1600E-03
            4660            4857     60.4603E-03     62.1600E-03
            4678            4858     55.0514E-03     56.6332E-03
            4661            4858     55.0514E-03     56.6332E-03
            4679            4858     55.0514E-03     56.6332E-03
            4660            4858     55.0514E-03     56.6332E-03
            4679            4859     49.6565E-03     51.1585E-03
            4661            4859     49.6565E-03     51.1585E-03
            4662            4859     49.6565E-03     51.1585E-03
            4680            4859     49.6565E-03     51.1585E-03
            4662            4860     44.3273E-03     45.7714E-03
            4681            4860     44.3273E-03     45.7714E-03
            4680            4860     44.3273E-03     45.7714E-03
            4663            4860     44.3273E-03     45.7714E-03
            4682            4861     39.0603E-03     40.4778E-03
            4681            4861     39.0603E-03     40.4778E-03
            4663            4861     39.0603E-03     40.4778E-03
            4664            4861     39.0603E-03     40.4778E-03
            4665            4862     33.8852E-03     35.3063E-03
            4683            4862     33.8852E-03     35.3063E-03
            4682            4862     33.8852E-03     35.3063E-03
            4664            4862     33.8852E-03     35.3063E-03
            4665            4863     28.8470E-03     30.2767E-03
            4683            4863     28.8470E-03     30.2767E-03
            4666            4863     28.8470E-03     30.2767E-03
            4684            4863     28.8470E-03     30.2767E-03
            4684            4864     24.0267E-03     25.4121E-03
            4685            4864     24.0267E-03     25.4121E-03
            4666            4864     24.0267E-03     25.4121E-03
            4667            4864     24.0267E-03     25.4121E-03
            4686            4865     19.5826E-03     20.8302E-03
            4668            4865     19.5826E-03     20.8302E-03
            4667            4865     19.5826E-03     20.8302E-03
            4685            4865     19.5826E-03     20.8302E-03
            4686            4866     15.8411E-03     16.6608E-03
            4669            4866     15.8411E-03     16.6608E-03
            4668            4866     15.8411E-03     16.6608E-03
            4687            4866     15.8411E-03     16.6608E-03
            4669            4867     13.3027E-03     13.4185E-03
            4687            4867     13.3027E-03     13.4185E-03
            4670            4867     13.3027E-03     13.4185E-03
            4688            4867     13.3027E-03     13.4185E-03
            4689            4868     87.1220E-03     88.1177E-03
            4690            4868     87.1220E-03     88.1177E-03
            4671            4868     87.1220E-03     88.1177E-03
            4672            4868     87.1220E-03     88.1177E-03
            4672            4869     83.0786E-03     84.4617E-03
            4690            4869     83.0786E-03     84.4617E-03
            4673            4869     83.0786E-03     84.4617E-03
            4691            4869     83.0786E-03     84.4617E-03
            4674            4870     79.0789E-03     80.7825E-03
            4673            4870     79.0789E-03     80.7825E-03
            4692            4870     79.0789E-03     80.7825E-03
            4691            4870     79.0789E-03     80.7825E-03
            4675            4871     74.9130E-03     76.6095E-03
            4693            4871     74.9130E-03     76.6095E-03
            4692            4871     74.9130E-03     76.6095E-03
            4674            4871     74.9130E-03     76.6095E-03
            4676            4872     70.3688E-03     71.9469E-03
            4693            4872     70.3688E-03     71.9469E-03
            4675            4872     70.3688E-03     71.9469E-03
            4694            4872     70.3688E-03     71.9469E-03
            4694            4873     65.4926E-03     66.9261E-03
            4677            4873     65.4926E-03     66.9261E-03
            4676            4873     65.4926E-03     66.9261E-03
            4695            4873     65.4926E-03     66.9261E-03
            4696            4874     60.4226E-03     61.6978E-03
            4678            4874     60.4226E-03     61.6978E-03
            4677            4874     60.4226E-03     61.6978E-03
            4695            4874     60.4226E-03     61.6978E-03
            4678            4875     55.2285E-03     56.3994E-03
            4696            4875     55.2285E-03     56.3994E-03
            4679            4875     55.2285E-03     56.3994E-03
            4697            4875     55.2285E-03     56.3994E-03
            4697            4876     50.0252E-03     51.1085E-03
            4679            4876     50.0252E-03     51.1085E-03
            4698            4876     50.0252E-03     51.1085E-03
            4680            4876     50.0252E-03     51.1085E-03
            4680            4877     44.8293E-03     45.8718E-03
            4681            4877     44.8293E-03     45.8718E-03
            4699            4877     44.8293E-03     45.8718E-03
            4698            4877     44.8293E-03     45.8718E-03
            4700            4878     39.6999E-03     40.7375E-03
            4681            4878     39.6999E-03     40.7375E-03
            4699            4878     39.6999E-03     40.7375E-03
            4682            4878     39.6999E-03     40.7375E-03
            4682            4879     34.6600E-03     35.7346E-03
            4683            4879     34.6600E-03     35.7346E-03
            4701            4879     34.6600E-03     35.7346E-03
            4700            4879     34.6600E-03     35.7346E-03
            4702            4880     29.7669E-03     30.9225E-03
            4684            4880     29.7669E-03     30.9225E-03
            4701            4880     29.7669E-03     30.9225E-03
            4683            4880     29.7669E-03     30.9225E-03
            4684            4881     25.1354E-03     26.3451E-03
            4703            4881     25.1354E-03     26.3451E-03
            4702            4881     25.1354E-03     26.3451E-03
            4685            4881     25.1354E-03     26.3451E-03
            4704            4882     20.9442E-03     22.0528E-03
            4686            4882     20.9442E-03     22.0528E-03
            4685            4882     20.9442E-03     22.0528E-03
            4703            4882     20.9442E-03     22.0528E-03
            4687            4883     17.5092E-03     18.3111E-03
            4704            4883     17.5092E-03     18.3111E-03
            4686            4883     17.5092E-03     18.3111E-03
            4705            4883     17.5092E-03     18.3111E-03
            4706            4884     15.3153E-03     15.3787E-03
            4705            4884     15.3153E-03     15.3787E-03
            4688            4884     15.3153E-03     15.3787E-03
            4687            4884     15.3153E-03     15.3787E-03
            4708            4885     82.1565E-03     82.9420E-03
            4690            4885     82.1565E-03     82.9420E-03
            4707            4885     82.1565E-03     82.9420E-03
            4689            4885     82.1565E-03     82.9420E-03
            4690            4886     79.0117E-03     80.3876E-03
            4709            4886     79.0117E-03     80.3876E-03
            4691            4886     79.0117E-03     80.3876E-03
            4708            4886     79.0117E-03     80.3876E-03
            4710            4887     76.1130E-03     77.5800E-03
            4692            4887     76.1130E-03     77.5800E-03
            4691            4887     76.1130E-03     77.5800E-03
            4709            4887     76.1130E-03     77.5800E-03
            4711            4888     72.8141E-03     74.1497E-03
            4692            4888     72.8141E-03     74.1497E-03
            4693            4888     72.8141E-03     74.1497E-03
            4710            4888     72.8141E-03     74.1497E-03
            4712            4889     68.9300E-03     70.0482E-03
            4693            4889     68.9300E-03     70.0482E-03
            4694            4889     68.9300E-03     70.0482E-03
            4711            4889     68.9300E-03     70.0482E-03
            4713            4890     64.5444E-03     65.4676E-03
            4712            4890     64.5444E-03     65.4676E-03
            4695            4890     64.5444E-03     65.4676E-03
            4694            4890     64.5444E-03     65.4676E-03
            4696            4891     59.8329E-03     60.6195E-03
            4714            4891     59.8329E-03     60.6195E-03
            4713            4891     59.8329E-03     60.6195E-03
            4695            4891     59.8329E-03     60.6195E-03
            4696            4892     54.9550E-03     55.6345E-03
            4715            4892     54.9550E-03     55.6345E-03
            4714            4892     54.9550E-03     55.6345E-03
            4697            4892     54.9550E-03     55.6345E-03
            4698            4893     49.9911E-03     50.6161E-03
            4697            4893     49.9911E-03     50.6161E-03
            4715            4893     49.9911E-03     50.6161E-03
            4716            4893     49.9911E-03     50.6161E-03
            4698            4894     45.0364E-03     45.6328E-03
            4716            4894     45.0364E-03     45.6328E-03
            4717            4894     45.0364E-03     45.6328E-03
            4699            4894     45.0364E-03     45.6328E-03
            4700            4895     40.1213E-03     40.7373E-03
            4699            4895     40.1213E-03     40.7373E-03
            4717            4895     40.1213E-03     40.7373E-03
            4718            4895     40.1213E-03     40.7373E-03
            4718            4896     35.3102E-03     35.9938E-03
            4701            4896     35.3102E-03     35.9938E-03
            4700            4896     35.3102E-03     35.9938E-03
            4719            4896     35.3102E-03     35.9938E-03
            4720            4897     30.6466E-03     31.4624E-03
            4701            4897     30.6466E-03     31.4624E-03
            4702            4897     30.6466E-03     31.4624E-03
            4719            4897     30.6466E-03     31.4624E-03
            4702            4898     26.2340E-03     27.2656E-03
            4721            4898     26.2340E-03     27.2656E-03
            4720            4898     26.2340E-03     27.2656E-03
            4703            4898     26.2340E-03     27.2656E-03
            4703            4899     22.3314E-03     23.4336E-03
            4722            4899     22.3314E-03     23.4336E-03
            4721            4899     22.3314E-03     23.4336E-03
            4704            4899     22.3314E-03     23.4336E-03
            4723            4900     19.2218E-03     20.0220E-03
            4704            4900     19.2218E-03     20.0220E-03
            4705            4900     19.2218E-03     20.0220E-03
            4722            4900     19.2218E-03     20.0220E-03
            4723            4901     17.2855E-03     17.5670E-03
            4724            4901     17.2855E-03     17.5670E-03
            4705            4901     17.2855E-03     17.5670E-03
            4706            4901     17.2855E-03     17.5670E-03
            4726            4902     76.7344E-03     77.5010E-03
            4708            4902     76.7344E-03     77.5010E-03
            4707            4902     76.7344E-03     77.5010E-03
            4725            4902     76.7344E-03     77.5010E-03
            4708            4903     74.6793E-03     75.8040E-03
            4709            4903     74.6793E-03     75.8040E-03
            4726            4903     74.6793E-03     75.8040E-03
            4727            4903     74.6793E-03     75.8040E-03
            4728            4904     72.9027E-03     73.8868E-03
            4709            4904     72.9027E-03     73.8868E-03
            4727            4904     72.9027E-03     73.8868E-03
            4710            4904     72.9027E-03     73.8868E-03
            4728            4905     70.3739E-03     71.0546E-03
            4710            4905     70.3739E-03     71.0546E-03
            4711            4905     70.3739E-03     71.0546E-03
            4729            4905     70.3739E-03     71.0546E-03
            4711            4906     66.9983E-03     67.4483E-03
            4729            4906     66.9983E-03     67.4483E-03
            4730            4906     66.9983E-03     67.4483E-03
            4712            4906     66.9983E-03     67.4483E-03
            4731            4907     63.0599E-03     63.3520E-03
            4730            4907     63.0599E-03     63.3520E-03
            4713            4907     63.0599E-03     63.3520E-03
            4712            4907     63.0599E-03     63.3520E-03
            4713            4908     58.7487E-03     58.9476E-03
            4732            4908     58.7487E-03     58.9476E-03
            4714            4908     58.7487E-03     58.9476E-03
            4731            4908     58.7487E-03     58.9476E-03
            4714            4909     54.2257E-03     54.3787E-03
            4733            4909     54.2257E-03     54.3787E-03
            4715            4909     54.2257E-03     54.3787E-03
            4732            4909     54.2257E-03     54.3787E-03
            4716            4910     49.6108E-03     49.7399E-03
            4715            4910     49.6108E-03     49.7399E-03
            4734            4910     49.6108E-03     49.7399E-03
            4733            4910     49.6108E-03     49.7399E-03
            4734            4911     44.9715E-03     45.1101E-03
            4716            4911     44.9715E-03     45.1101E-03
            4717            4911     44.9715E-03     45.1101E-03
            4735            4911     44.9715E-03     45.1101E-03
            4736            4912     40.3856E-03     40.5531E-03
            4718            4912     40.3856E-03     40.5531E-03
            4735            4912     40.3856E-03     40.5531E-03
            4717            4912     40.3856E-03     40.5531E-03
            4719            4913     35.8884E-03     36.1413E-03
            4718            4913     35.8884E-03     36.1413E-03
            4737            4913     35.8884E-03     36.1413E-03
            4736            4913     35.8884E-03     36.1413E-03
            4719            4914     31.5604E-03     31.9680E-03
            4738            4914     31.5604E-03     31.9680E-03
            4720            4914     31.5604E-03     31.9680E-03
            4737            4914     31.5604E-03     31.9680E-03
            4721            4915     27.4558E-03     28.1584E-03
            4739            4915     27.4558E-03     28.1584E-03
            4738            4915     27.4558E-03     28.1584E-03
            4720            4915     27.4558E-03     28.1584E-03
            4721            4916     23.7608E-03     24.9369E-03
            4722            4916     23.7608E-03     24.9369E-03
            4740            4916     23.7608E-03     24.9369E-03
            4739            4916     23.7608E-03     24.9369E-03
            4740            4917     21.0077E-03     22.1489E-03
            4741            4917     21.0077E-03     22.1489E-03
            4723            4917     21.0077E-03     22.1489E-03
            4722            4917     21.0077E-03     22.1489E-03
            4741            4918     19.3857E-03     19.7322E-03
            4723            4918     19.3857E-03     19.7322E-03
            4742            4918     19.3857E-03     19.7322E-03
            4724            4918     19.3857E-03     19.7322E-03
            4725            4919     70.7872E-03     70.9817E-03
            4726            4919     70.7872E-03     70.9817E-03
            4743            4919     70.7872E-03     70.9817E-03
            4744            4919     70.7872E-03     70.9817E-03
            4745            4920     70.3259E-03     70.5967E-03
            4727            4920     70.3259E-03     70.5967E-03
            4744            4920     70.3259E-03     70.5967E-03
            4726            4920     70.3259E-03     70.5967E-03
            4745            4921     69.5626E-03     69.4660E-03
            4727            4921     69.5626E-03     69.4660E-03
            4746            4921     69.5626E-03     69.4660E-03
            4728            4921     69.5626E-03     69.4660E-03
            4746            4922     67.4877E-03     67.1667E-03
            4728            4922     67.4877E-03     67.1667E-03
            4729            4922     67.4877E-03     67.1667E-03
            4747            4922     67.4877E-03     67.1667E-03
            4747            4923     64.5732E-03     64.1382E-03
            4748            4923     64.5732E-03     64.1382E-03
            4729            4923     64.5732E-03     64.1382E-03
            4730            4923     64.5732E-03     64.1382E-03
            4748            4924     61.0720E-03     60.6251E-03
            4730            4924     61.0720E-03     60.6251E-03
            4749            4924     61.0720E-03     60.6251E-03
            4731            4924     61.0720E-03     60.6251E-03
            4750            4925     57.2186E-03     56.7898E-03
            4749            4925     57.2186E-03     56.7898E-03
            4732            4925     57.2186E-03     56.7898E-03
            4731            4925     57.2186E-03     56.7898E-03
            4732            4926     53.1446E-03     52.7534E-03
            4733            4926     53.1446E-03     52.7534E-03
            4750            4926     53.1446E-03     52.7534E-03
            4751            4926     53.1446E-03     52.7534E-03
            4751            4927     48.9606E-03     48.6147E-03
            4752            4927     48.9606E-03     48.6147E-03
            4734            4927     48.9606E-03     48.6147E-03
            4733            4927     48.9606E-03     48.6147E-03
            4753            4928     44.7507E-03     44.4455E-03
            4752            4928     44.7507E-03     44.4455E-03
            4735            4928     44.7507E-03     44.4455E-03
            4734            4928     44.7507E-03     44.4455E-03
            4753            4929     40.5756E-03     40.3240E-03
            4754            4929     40.5756E-03     40.3240E-03
            4735            4929     40.5756E-03     40.3240E-03
            4736            4929     40.5756E-03     40.3240E-03
            4737            4930     36.5075E-03     36.3210E-03
            4755            4930     36.5075E-03     36.3210E-03
            4754            4930     36.5075E-03     36.3210E-03
            4736            4930     36.5075E-03     36.3210E-03
            4738            4931     32.5942E-03     32.5489E-03
            4755            4931     32.5942E-03     32.5489E-03
            4737            4931     32.5942E-03     32.5489E-03
            4756            4931     32.5942E-03     32.5489E-03
            4739            4932     28.9308E-03     29.1385E-03
            4756            4932     28.9308E-03     29.1385E-03
            4738            4932     28.9308E-03     29.1385E-03
            4757            4932     28.9308E-03     29.1385E-03
            4757            4933     25.5415E-03     26.3604E-03
            4739            4933     25.5415E-03     26.3604E-03
            4740            4933     25.5415E-03     26.3604E-03
            4758            4933     25.5415E-03     26.3604E-03
            4741            4934     22.7345E-03     24.5256E-03
            4740            4934     22.7345E-03     24.5256E-03
            4758            4934     22.7345E-03     24.5256E-03
            4759            4934     22.7345E-03     24.5256E-03
            4741            4935     21.5179E-03     22.9516E-03
            4742            4935     21.5179E-03     22.9516E-03
            4760            4935     21.5179E-03     22.9516E-03
            4759            4935     21.5179E-03     22.9516E-03
            4743            4936     65.0294E-03     63.0872E-03
            4762            4936     65.0294E-03     63.0872E-03
            4744            4936     65.0294E-03     63.0872E-03
            4761            4936     65.0294E-03     63.0872E-03
            4745            4937     66.3382E-03     64.4956E-03
            4763            4937     66.3382E-03     64.4956E-03
            4762            4937     66.3382E-03     64.4956E-03
            4744            4937     66.3382E-03     64.4956E-03
            4745            4938     65.8666E-03     64.0532E-03
            4763            4938     65.8666E-03     64.0532E-03
            4764            4938     65.8666E-03     64.0532E-03
            4746            4938     65.8666E-03     64.0532E-03
            4746            4939     64.1425E-03     62.5033E-03
            4747            4939     64.1425E-03     62.5033E-03
            4765            4939     64.1425E-03     62.5033E-03
            4764            4939     64.1425E-03     62.5033E-03
            4747            4940     61.6694E-03     60.2550E-03
            4765            4940     61.6694E-03     60.2550E-03
            4766            4940     61.6694E-03     60.2550E-03
            4748            4940     61.6694E-03     60.2550E-03
            4748            4941     58.7089E-03     57.4976E-03
            4766            4941     58.7089E-03     57.4976E-03
            4749            4941     58.7089E-03     57.4976E-03
            4767            4941     58.7089E-03     57.4976E-03
            4749            4942     55.4027E-03     54.3754E-03
            4767            4942     55.4027E-03     54.3754E-03
            4768            4942     55.4027E-03     54.3754E-03
            4750            4942     55.4027E-03     54.3754E-03
            4769            4943     51.8833E-03     51.0062E-03
            4750            4943     51.8833E-03     51.0062E-03
            4751            4943     51.8833E-03     51.0062E-03
            4768            4943     51.8833E-03     51.0062E-03
            4770            4944     48.2319E-03     47.4735E-03
            4752            4944     48.2319E-03     47.4735E-03
            4769            4944     48.2319E-03     47.4735E-03
            4751            4944     48.2319E-03     47.4735E-03
            4753            4945     44.5346E-03     43.8677E-03
            4771            4945     44.5346E-03     43.8677E-03
            4770            4945     44.5346E-03     43.8677E-03
            4752            4945     44.5346E-03     43.8677E-03
            4772            4946     40.8577E-03     40.2590E-03
            4771            4946     40.8577E-03     40.2590E-03
            4753            4946     40.8577E-03     40.2590E-03
            4754            4946     40.8577E-03     40.2590E-03
            4755            4947     37.2818E-03     36.7345E-03
            4773            4947     37.2818E-03     36.7345E-03
            4754            4947     37.2818E-03     36.7345E-03
            4772            4947     37.2818E-03     36.7345E-03
            4774            4948     33.8698E-03     33.3876E-03
            4773            4948     33.8698E-03     33.3876E-03
            4756            4948     33.8698E-03     33.3876E-03
            4755            4948     33.8698E-03     33.3876E-03
            4757            4949     30.7208E-03     30.3598E-03
            4774            4949     30.7208E-03     30.3598E-03
            4756            4949     30.7208E-03     30.3598E-03
            4775            4949     30.7208E-03     30.3598E-03
            4757            4950     27.8687E-03     27.8248E-03
            4776            4950     27.8687E-03     27.8248E-03
            4758            4950     27.8687E-03     27.8248E-03
            4775            4950     27.8687E-03     27.8248E-03
            4759            4951     25.2847E-03     26.2950E-03
            4777            4951     25.2847E-03     26.2950E-03
            4758            4951     25.2847E-03     26.2950E-03
            4776            4951     25.2847E-03     26.2950E-03
            4759            4952     23.2901E-03     26.1259E-03
            4777            4952     23.2901E-03     26.1259E-03
            4760            4952     23.2901E-03     26.1259E-03
            4778            4952     23.2901E-03     26.1259E-03
            4762            4953     61.9233E-03     63.1396E-03
            4780            4953     61.9233E-03     63.1396E-03
            4761            4953     61.9233E-03     63.1396E-03
            4779            4953     61.9233E-03     63.1396E-03
            4763            4954     56.3437E-03     56.3347E-03
            4780            4954     56.3437E-03     56.3347E-03
            4762            4954     56.3437E-03     56.3347E-03
            4781            4954     56.3437E-03     56.3347E-03
            4763            4955     52.7231E-03     52.6038E-03
            4764            4955     52.7231E-03     52.6038E-03
            4781            4955     52.7231E-03     52.6038E-03
            4782            4955     52.7231E-03     52.6038E-03
            4782            4956     49.3507E-03     49.4342E-03
            4783            4956     49.3507E-03     49.4342E-03
            4764            4956     49.3507E-03     49.4342E-03
            4765            4956     49.3507E-03     49.4342E-03
            4784            4957     46.3102E-03     46.5584E-03
            4766            4957     46.3102E-03     46.5584E-03
            4783            4957     46.3102E-03     46.5584E-03
            4765            4957     46.3102E-03     46.5584E-03
            4785            4958     43.3080E-03     43.7803E-03
            4784            4958     43.3080E-03     43.7803E-03
            4767            4958     43.3080E-03     43.7803E-03
            4766            4958     43.3080E-03     43.7803E-03
            4785            4959     40.3852E-03     41.0080E-03
            4786            4959     40.3852E-03     41.0080E-03
            4767            4959     40.3852E-03     41.0080E-03
            4768            4959     40.3852E-03     41.0080E-03
            4768            4960     37.4472E-03     38.2134E-03
            4787            4960     37.4472E-03     38.2134E-03
            4786            4960     37.4472E-03     38.2134E-03
            4769            4960     37.4472E-03     38.2134E-03
            4788            4961     34.5290E-03     35.3863E-03
            4770            4961     34.5290E-03     35.3863E-03
            4787            4961     34.5290E-03     35.3863E-03
            4769            4961     34.5290E-03     35.3863E-03
            4788            4962     31.6166E-03     32.5427E-03
            4770            4962     31.6166E-03     32.5427E-03
            4771            4962     31.6166E-03     32.5427E-03
            4789            4962     31.6166E-03     32.5427E-03
            4789            4963     28.7457E-03     29.7000E-03
            4771            4963     28.7457E-03     29.7000E-03
            4772            4963     28.7457E-03     29.7000E-03
            4790            4963     28.7457E-03     29.7000E-03
            4772            4964     25.9462E-03     26.9056E-03
            4791            4964     25.9462E-03     26.9056E-03
            4773            4964     25.9462E-03     26.9056E-03
            4790            4964     25.9462E-03     26.9056E-03
            4792            4965     23.2647E-03     24.1836E-03
            4791            4965     23.2647E-03     24.1836E-03
            4773            4965     23.2647E-03     24.1836E-03
            4774            4965     23.2647E-03     24.1836E-03
            4775            4966     20.7615E-03     21.6460E-03
            4792            4966     20.7615E-03     21.6460E-03
            4793            4966     20.7615E-03     21.6460E-03
            4774            4966     20.7615E-03     21.6460E-03
            4776            4967     18.4993E-03     19.3140E-03
            4775            4967     18.4993E-03     19.3140E-03
            4793            4967     18.4993E-03     19.3140E-03
            4794            4967     18.4993E-03     19.3140E-03
            4794            4968     16.5690E-03     17.5535E-03
            4776            4968     16.5690E-03     17.5535E-03
            4777            4968     16.5690E-03     17.5535E-03
            4795            4968     16.5690E-03     17.5535E-03
            4796            4969     14.5378E-03     16.8274E-03
            4777            4969     14.5378E-03     16.8274E-03
            4778            4969     14.5378E-03     16.8274E-03
            4795            4969     14.5378E-03     16.8274E-03
            4779            4970     62.6315E-03     64.7515E-03
            4798            4970     62.6315E-03     64.7515E-03
            4780            4970     62.6315E-03     64.7515E-03
            4797            4970     62.6315E-03     64.7515E-03
            4798            4971     49.7080E-03     52.2700E-03
            4799            4971     49.7080E-03     52.2700E-03
            4780            4971     49.7080E-03     52.2700E-03
            4781            4971     49.7080E-03     52.2700E-03
            4781            4972     42.0348E-03     44.4205E-03
            4782            4972     42.0348E-03     44.4205E-03
            4799            4972     42.0348E-03     44.4205E-03
            4800            4972     42.0348E-03     44.4205E-03
            4801            4973     36.9586E-03     39.2577E-03
            4782            4973     36.9586E-03     39.2577E-03
            4783            4973     36.9586E-03     39.2577E-03
            4800            4973     36.9586E-03     39.2577E-03
            4783            4974     32.9177E-03     35.2359E-03
            4802            4974     32.9177E-03     35.2359E-03
            4784            4974     32.9177E-03     35.2359E-03
            4801            4974     32.9177E-03     35.2359E-03
            4803            4975     29.6560E-03     32.0077E-03
            4784            4975     29.6560E-03     32.0077E-03
            4802            4975     29.6560E-03     32.0077E-03
            4785            4975     29.6560E-03     32.0077E-03
            4804            4976     26.7655E-03     29.1598E-03
            4785            4976     26.7655E-03     29.1598E-03
            4786            4976     26.7655E-03     29.1598E-03
            4803            4976     26.7655E-03     29.1598E-03
            4805            4977     24.1467E-03     26.5739E-03
            4786            4977     24.1467E-03     26.5739E-03
            4804            4977     24.1467E-03     26.5739E-03
            4787            4977     24.1467E-03     26.5739E-03
            4788            4978     21.6615E-03     24.1041E-03
            4806            4978     21.6615E-03     24.1041E-03
            4805            4978     21.6615E-03     24.1041E-03
            4787            4978     21.6615E-03     24.1041E-03
            4806            4979     19.2764E-03     21.7172E-03
            4788            4979     19.2764E-03     21.7172E-03
            4807            4979     19.2764E-03     21.7172E-03
            4789            4979     19.2764E-03     21.7172E-03
            4790            4980     16.9508E-03     19.3643E-03
            4808            4980     16.9508E-03     19.3643E-03
            4807            4980     16.9508E-03     19.3643E-03
            4789            4980     16.9508E-03     19.3643E-03
            4790            4981     14.6889E-03     17.0448E-03
            4791            4981     14.6889E-03     17.0448E-03
            4808            4981     14.6889E-03     17.0448E-03
            4809            4981     14.6889E-03     17.0448E-03
            4792            4982     12.4942E-03     14.7567E-03
            4810            4982     12.4942E-03     14.7567E-03
            4809            4982     12.4942E-03     14.7567E-03
            4791            4982     12.4942E-03     14.7567E-03
            4810            4983     10.4109E-03     12.5261E-03
            4792            4983     10.4109E-03     12.5261E-03
            4811            4983     10.4109E-03     12.5261E-03
            4793            4983     10.4109E-03     12.5261E-03
            4793            4984     8.49825E-03     10.3992E-03
            4811            4984     8.49825E-03     10.3992E-03
            4812            4984     8.49825E-03     10.3992E-03
            4794            4984     8.49825E-03     10.3992E-03
            4795            4985     6.89137E-03     8.51850E-03
            4794            4985     6.89137E-03     8.51850E-03
            4812            4985     6.89137E-03     8.51850E-03
            4813            4985     6.89137E-03     8.51850E-03
            4813            4986     5.93245E-03     6.97951E-03
            4796            4986     5.93245E-03     6.97951E-03
            4795            4986     5.93245E-03     6.97951E-03
            4814            4986     5.93245E-03     6.97951E-03
            4797            4987     60.7363E-03     60.8901E-03
            4798            4987     60.7363E-03     60.8901E-03
            4816            4987     60.7363E-03     60.8901E-03
            4815            4987     60.7363E-03     60.8901E-03
            4816            4988     51.2373E-03     52.3250E-03
            4799            4988     51.2373E-03     52.3250E-03
            4798            4988     51.2373E-03     52.3250E-03
            4817            4988     51.2373E-03     52.3250E-03
            4817            4989     43.1542E-03     44.9446E-03
            4799            4989     43.1542E-03     44.9446E-03
            4818            4989     43.1542E-03     44.9446E-03
            4800            4989     43.1542E-03     44.9446E-03
            4819            4990     37.8976E-03     39.8627E-03
            4818            4990     37.8976E-03     39.8627E-03
            4801            4990     37.8976E-03     39.8627E-03
            4800            4990     37.8976E-03     39.8627E-03
            4801            4991     33.9109E-03     35.9146E-03
            4802            4991     33.9109E-03     35.9146E-03
            4819            4991     33.9109E-03     35.9146E-03
            4820            4991     33.9109E-03     35.9146E-03
            4820            4992     30.6106E-03     32.6581E-03
            4821            4992     30.6106E-03     32.6581E-03
            4802            4992     30.6106E-03     32.6581E-03
            4803            4992     30.6106E-03     32.6581E-03
            4804            4993     27.7646E-03     29.8086E-03
            4821            4993     27.7646E-03     29.8086E-03
            4822            4993     27.7646E-03     29.8086E-03
            4803            4993     27.7646E-03     29.8086E-03
            4822            4994     25.1377E-03     27.1818E-03
            4804            4994     25.1377E-03     27.1818E-03
            4805            4994     25.1377E-03     27.1818E-03
            4823            4994     25.1377E-03     27.1818E-03
            4806            4995     22.6700E-03     24.6951E-03
            4823            4995     22.6700E-03     24.6951E-03
            4805            4995     22.6700E-03     24.6951E-03
            4824            4995     22.6700E-03     24.6951E-03
            4807            4996     20.2842E-03     22.2811E-03
            4825            4996     20.2842E-03     22.2811E-03
            4824            4996     20.2842E-03     22.2811E-03
            4806            4996     20.2842E-03     22.2811E-03
            4825            4997     17.9758E-03     19.9234E-03
            4808            4997     17.9758E-03     19.9234E-03
            4826            4997     17.9758E-03     19.9234E-03
            4807            4997     17.9758E-03     19.9234E-03
            4827            4998     15.7357E-03     17.6075E-03
            4808            4998     15.7357E-03     17.6075E-03
            4809            4998     15.7357E-03     17.6075E-03
            4826            4998     15.7357E-03     17.6075E-03
            4810            4999     13.5930E-03     15.3462E-03
            4827            4999     13.5930E-03     15.3462E-03
            4809            4999     13.5930E-03     15.3462E-03
            4828            4999     13.5930E-03     15.3462E-03
            4828            5000     11.5908E-03     13.1599E-03
            4829            5000     11.5908E-03     13.1599E-03
            4810            5000     11.5908E-03     13.1599E-03
            4811            5000     11.5908E-03     13.1599E-03
            4811            5001     9.80736E-03     11.1185E-03
            4829            5001     9.80736E-03     11.1185E-03
            4830            5001     9.80736E-03     11.1185E-03
            4812            5001     9.80736E-03     11.1185E-03
            4813            5002     8.42765E-03     9.27641E-03
            4812            5002     8.42765E-03     9.27641E-03
            4830            5002     8.42765E-03     9.27641E-03
            4831            5002     8.42765E-03     9.27641E-03
            4831            5003     7.72440E-03     7.73284E-03
            4813            5003     7.72440E-03     7.73284E-03
            4814            5003     7.72440E-03     7.73284E-03
            4832            5003     7.72440E-03     7.73284E-03
            4833            5004     55.8410E-03     56.9218E-03
            4816            5004     55.8410E-03     56.9218E-03
            4834            5004     55.8410E-03     56.9218E-03
            4815            5004     55.8410E-03     56.9218E-03
            4835            5005     49.5480E-03     50.4256E-03
            4816            5005     49.5480E-03     50.4256E-03
            4834            5005     49.5480E-03     50.4256E-03
            4817            5005     49.5480E-03     50.4256E-03
            4817            5006     43.5121E-03     44.7256E-03
            4835            5006     43.5121E-03     44.7256E-03
            4818            5006     43.5121E-03     44.7256E-03
            4836            5006     43.5121E-03     44.7256E-03
            4818            5007     38.4948E-03     40.0841E-03
            4836            5007     38.4948E-03     40.0841E-03
            4837            5007     38.4948E-03     40.0841E-03
            4819            5007     38.4948E-03     40.0841E-03
            4819            5008     34.7501E-03     36.4404E-03
            4837            5008     34.7501E-03     36.4404E-03
            4838            5008     34.7501E-03     36.4404E-03
            4820            5008     34.7501E-03     36.4404E-03
            4838            5009     31.5802E-03     33.2847E-03
            4839            5009     31.5802E-03     33.2847E-03
            4820            5009     31.5802E-03     33.2847E-03
            4821            5009     31.5802E-03     33.2847E-03
            4840            5010     28.7657E-03     30.4666E-03
            4839            5010     28.7657E-03     30.4666E-03
            4821            5010     28.7657E-03     30.4666E-03
            4822            5010     28.7657E-03     30.4666E-03
            4841            5011     26.1693E-03     27.8317E-03
            4840            5011     26.1693E-03     27.8317E-03
            4823            5011     26.1693E-03     27.8317E-03
            4822            5011     26.1693E-03     27.8317E-03
            4841            5012     23.6891E-03     25.3179E-03
            4842            5012     23.6891E-03     25.3179E-03
            4824            5012     23.6891E-03     25.3179E-03
            4823            5012     23.6891E-03     25.3179E-03
            4843            5013     21.3052E-03     22.8856E-03
            4825            5013     21.3052E-03     22.8856E-03
            4824            5013     21.3052E-03     22.8856E-03
            4842            5013     21.3052E-03     22.8856E-03
            4825            5014     18.9944E-03     20.5166E-03
            4844            5014     18.9944E-03     20.5166E-03
            4826            5014     18.9944E-03     20.5166E-03
            4843            5014     18.9944E-03     20.5166E-03
            4827            5015     16.7743E-03     18.2111E-03
            4845            5015     16.7743E-03     18.2111E-03
            4844            5015     16.7743E-03     18.2111E-03
            4826            5015     16.7743E-03     18.2111E-03
            4827            5016     14.6735E-03     15.9774E-03
            4845            5016     14.6735E-03     15.9774E-03
            4846            5016     14.6735E-03     15.9774E-03
            4828            5016     14.6735E-03     15.9774E-03
            4829            5017     12.7450E-03     13.8440E-03
            4846            5017     12.7450E-03     13.8440E-03
            4828            5017     12.7450E-03     13.8440E-03
            4847            5017     12.7450E-03     13.8440E-03
            4847            5018     11.0921E-03     11.8574E-03
            4848            5018     11.0921E-03     11.8574E-03
            4829            5018     11.0921E-03     11.8574E-03
            4830            5018     11.0921E-03     11.8574E-03
            4831            5019     9.87238E-03     10.0690E-03
            4849            5019     9.87238E-03     10.0690E-03
            4848            5019     9.87238E-03     10.0690E-03
            4830            5019     9.87238E-03     10.0690E-03
            4850            5020     9.12099E-03     8.72570E-03
            4832            5020     9.12099E-03     8.72570E-03
            4831            5020     9.12099E-03     8.72570E-03
            4849            5020     9.12099E-03     8.72570E-03
            4834            5021     51.4619E-03     52.0208E-03
            4852            5021     51.4619E-03     52.0208E-03
            4833            5021     51.4619E-03     52.0208E-03
            4851            5021     51.4619E-03     52.0208E-03
            4834            5022     46.4242E-03     47.4197E-03
            4835            5022     46.4242E-03     47.4197E-03
            4852            5022     46.4242E-03     47.4197E-03
            4853            5022     46.4242E-03     47.4197E-03
            4836            5023     42.2309E-03     43.3550E-03
            4835            5023     42.2309E-03     43.3550E-03
            4854            5023     42.2309E-03     43.3550E-03
            4853            5023     42.2309E-03     43.3550E-03
            4836            5024     38.4974E-03     39.7565E-03
            4855            5024     38.4974E-03     39.7565E-03
            4837            5024     38.4974E-03     39.7565E-03
            4854            5024     38.4974E-03     39.7565E-03
            4837            5025     35.1876E-03     36.5724E-03
            4838            5025     35.1876E-03     36.5724E-03
            4855            5025     35.1876E-03     36.5724E-03
            4856            5025     35.1876E-03     36.5724E-03
            4838            5026     32.3301E-03     33.7024E-03
            4857            5026     32.3301E-03     33.7024E-03
            4839            5026     32.3301E-03     33.7024E-03
            4856            5026     32.3301E-03     33.7024E-03
            4840            5027     29.6482E-03     30.9815E-03
            4857            5027     29.6482E-03     30.9815E-03
            4839            5027     29.6482E-03     30.9815E-03
            4858            5027     29.6482E-03     30.9815E-03
            4840            5028     27.1017E-03     28.3882E-03
            4841            5028     27.1017E-03     28.3882E-03
            4858            5028     27.1017E-03     28.3882E-03
            4859            5028     27.1017E-03     28.3882E-03
            4841            5029     24.6422E-03     25.8751E-03
            4842            5029     24.6422E-03     25.8751E-03
            4860            5029     24.6422E-03     25.8751E-03
            4859            5029     24.6422E-03     25.8751E-03
            4842            5030     22.2574E-03     23.4414E-03
            4861            5030     22.2574E-03     23.4414E-03
            4843            5030     22.2574E-03     23.4414E-03
            4860            5030     22.2574E-03     23.4414E-03
            4862            5031     19.9543E-03     21.0812E-03
            4844            5031     19.9543E-03     21.0812E-03
            4861            5031     19.9543E-03     21.0812E-03
            4843            5031     19.9543E-03     21.0812E-03
            4862            5032     17.7532E-03     18.8013E-03
            4863            5032     17.7532E-03     18.8013E-03
            4844            5032     17.7532E-03     18.8013E-03
            4845            5032     17.7532E-03     18.8013E-03
            4845            5033     15.6894E-03     16.6149E-03
            4846            5033     15.6894E-03     16.6149E-03
            4863            5033     15.6894E-03     16.6149E-03
            4864            5033     15.6894E-03     16.6149E-03
            4865            5034     13.8316E-03     14.5526E-03
            4846            5034     13.8316E-03     14.5526E-03
            4847            5034     13.8316E-03     14.5526E-03
            4864            5034     13.8316E-03     14.5526E-03
            4866            5035     12.2714E-03     12.6388E-03
            4847            5035     12.2714E-03     12.6388E-03
            4865            5035     12.2714E-03     12.6388E-03
            4848            5035     12.2714E-03     12.6388E-03
            4849            5036     11.0766E-03     11.0216E-03
            4866            5036     11.0766E-03     11.0216E-03
            4867            5036     11.0766E-03     11.0216E-03
            4848            5036     11.0766E-03     11.0216E-03
            4867            5037     10.3786E-03     9.85298E-03
            4868            5037     10.3786E-03     9.85298E-03
            4849            5037     10.3786E-03     9.85298E-03
            4850            5037     10.3786E-03     9.85298E-03
            4869            5038     46.8144E-03     47.4278E-03
            4870            5038     46.8144E-03     47.4278E-03
            4851            5038     46.8144E-03     47.4278E-03
            4852            5038     46.8144E-03     47.4278E-03
            4852            5039     43.1754E-03     43.9286E-03
            4870            5039     43.1754E-03     43.9286E-03
            4871            5039     43.1754E-03     43.9286E-03
            4853            5039     43.1754E-03     43.9286E-03
            4853            5040     40.2210E-03     41.2559E-03
            4871            5040     40.2210E-03     41.2559E-03
            4872            5040     40.2210E-03     41.2559E-03
            4854            5040     40.2210E-03     41.2559E-03
            4873            5041     37.6808E-03     38.7797E-03
            4854            5041     37.6808E-03     38.7797E-03
            4872            5041     37.6808E-03     38.7797E-03
            4855            5041     37.6808E-03     38.7797E-03
            4874            5042     35.2193E-03     36.2838E-03
            4856            5042     35.2193E-03     36.2838E-03
            4855            5042     35.2193E-03     36.2838E-03
            4873            5042     35.2193E-03     36.2838E-03
            4875            5043     32.7335E-03     33.7630E-03
            4874            5043     32.7335E-03     33.7630E-03
            4857            5043     32.7335E-03     33.7630E-03
            4856            5043     32.7335E-03     33.7630E-03
            4857            5044     30.2916E-03     31.2432E-03
            4875            5044     30.2916E-03     31.2432E-03
            4876            5044     30.2916E-03     31.2432E-03
            4858            5044     30.2916E-03     31.2432E-03
            4858            5045     27.8405E-03     28.7309E-03
            4876            5045     27.8405E-03     28.7309E-03
            4877            5045     27.8405E-03     28.7309E-03
            4859            5045     27.8405E-03     28.7309E-03
            4877            5046     25.4348E-03     26.2715E-03
            4859            5046     25.4348E-03     26.2715E-03
            4878            5046     25.4348E-03     26.2715E-03
            4860            5046     25.4348E-03     26.2715E-03
            4878            5047     23.0786E-03     23.8703E-03
            4879            5047     23.0786E-03     23.8703E-03
            4860            5047     23.0786E-03     23.8703E-03
            4861            5047     23.0786E-03     23.8703E-03
            4879            5048     20.8023E-03     21.5524E-03
            4862            5048     20.8023E-03     21.5524E-03
            4861            5048     20.8023E-03     21.5524E-03
            4880            5048     20.8023E-03     21.5524E-03
            4880            5049     18.6306E-03     19.3329E-03
            4881            5049     18.6306E-03     19.3329E-03
            4862            5049     18.6306E-03     19.3329E-03
            4863            5049     18.6306E-03     19.3329E-03
            4882            5050     16.6161E-03     17.2311E-03
            4863            5050     16.6161E-03     17.2311E-03
            4881            5050     16.6161E-03     17.2311E-03
            4864            5050     16.6161E-03     17.2311E-03
            4883            5051     14.8165E-03     15.2631E-03
            4882            5051     14.8165E-03     15.2631E-03
            4865            5051     14.8165E-03     15.2631E-03
            4864            5051     14.8165E-03     15.2631E-03
            4865            5052     13.3121E-03     13.5038E-03
            4884            5052     13.3121E-03     13.5038E-03
            4883            5052     13.3121E-03     13.5038E-03
            4866            5052     13.3121E-03     13.5038E-03
            4885            5053     12.2050E-03     12.0044E-03
            4866            5053     12.2050E-03     12.0044E-03
            4867            5053     12.2050E-03     12.0044E-03
            4884            5053     12.2050E-03     12.0044E-03
            4885            5054     11.5394E-03     10.9447E-03
            4886            5054     11.5394E-03     10.9447E-03
            4867            5054     11.5394E-03     10.9447E-03
            4868            5054     11.5394E-03     10.9447E-03
            4888            5055     42.2945E-03     42.6622E-03
            4870            5055     42.2945E-03     42.6622E-03
            4887            5055     42.2945E-03     42.6622E-03
            4869            5055     42.2945E-03     42.6622E-03
            4889            5056     39.5820E-03     40.3401E-03
            4888            5056     39.5820E-03     40.3401E-03
            4871            5056     39.5820E-03     40.3401E-03
            4870            5056     39.5820E-03     40.3401E-03
            4872            5057     37.9676E-03     38.8230E-03
            4890            5057     37.9676E-03     38.8230E-03
            4889            5057     37.9676E-03     38.8230E-03
            4871            5057     37.9676E-03     38.8230E-03
            4873            5058     36.4782E-03     37.3437E-03
            4890            5058     36.4782E-03     37.3437E-03
            4872            5058     36.4782E-03     37.3437E-03
            4891            5058     36.4782E-03     37.3437E-03
            4892            5059     34.7937E-03     35.5520E-03
            4874            5059     34.7937E-03     35.5520E-03
            4891            5059     34.7937E-03     35.5520E-03
            4873            5059     34.7937E-03     35.5520E-03
            4874            5060     32.8168E-03     33.4392E-03
            4892            5060     32.8168E-03     33.4392E-03
            4893            5060     32.8168E-03     33.4392E-03
            4875            5060     32.8168E-03     33.4392E-03
            4894            5061     30.6036E-03     31.1479E-03
            4875            5061     30.6036E-03     31.1479E-03
            4876            5061     30.6036E-03     31.1479E-03
            4893            5061     30.6036E-03     31.1479E-03
            4876            5062     28.3216E-03     28.7915E-03
            4895            5062     28.3216E-03     28.7915E-03
            4894            5062     28.3216E-03     28.7915E-03
            4877            5062     28.3216E-03     28.7915E-03
            4877            5063     26.0014E-03     26.4280E-03
            4896            5063     26.0014E-03     26.4280E-03
            4878            5063     26.0014E-03     26.4280E-03
            4895            5063     26.0014E-03     26.4280E-03
            4897            5064     23.7208E-03     24.1174E-03
            4896            5064     23.7208E-03     24.1174E-03
            4879            5064     23.7208E-03     24.1174E-03
            4878            5064     23.7208E-03     24.1174E-03
            4879            5065     21.5044E-03     21.8867E-03
            4880            5065     21.5044E-03     21.8867E-03
            4897            5065     21.5044E-03     21.8867E-03
            4898            5065     21.5044E-03     21.8867E-03
            4898            5066     19.3962E-03     19.7703E-03
            4899            5066     19.3962E-03     19.7703E-03
            4880            5066     19.3962E-03     19.7703E-03
            4881            5066     19.3962E-03     19.7703E-03
            4881            5067     17.4366E-03     17.8000E-03
            4882            5067     17.4366E-03     17.8000E-03
            4899            5067     17.4366E-03     17.8000E-03
            4900            5067     17.4366E-03     17.8000E-03
            4882            5068     15.7050E-03     15.9950E-03
            4901            5068     15.7050E-03     15.9950E-03
            4900            5068     15.7050E-03     15.9950E-03
            4883            5068     15.7050E-03     15.9950E-03
            4902            5069     14.2737E-03     14.3743E-03
            4883            5069     14.2737E-03     14.3743E-03
            4901            5069     14.2737E-03     14.3743E-03
            4884            5069     14.2737E-03     14.3743E-03
            4902            5070     13.2343E-03     13.0492E-03
            4903            5070     13.2343E-03     13.0492E-03
            4885            5070     13.2343E-03     13.0492E-03
            4884            5070     13.2343E-03     13.0492E-03
            4904            5071     12.6505E-03     12.0562E-03
            4903            5071     12.6505E-03     12.0562E-03
            4886            5071     12.6505E-03     12.0562E-03
            4885            5071     12.6505E-03     12.0562E-03
            4887            5072     37.5081E-03     37.7956E-03
            4888            5072     37.5081E-03     37.7956E-03
            4905            5072     37.5081E-03     37.7956E-03
            4906            5072     37.5081E-03     37.7956E-03
            4889            5073     35.9463E-03     36.5237E-03
            4907            5073     35.9463E-03     36.5237E-03
            4906            5073     35.9463E-03     36.5237E-03
            4888            5073     35.9463E-03     36.5237E-03
            4908            5074     35.5138E-03     36.2164E-03
            4907            5074     35.5138E-03     36.2164E-03
            4890            5074     35.5138E-03     36.2164E-03
            4889            5074     35.5138E-03     36.2164E-03
            4891            5075     35.1226E-03     35.6334E-03
            4908            5075     35.1226E-03     35.6334E-03
            4890            5075     35.1226E-03     35.6334E-03
            4909            5075     35.1226E-03     35.6334E-03
            4909            5076     34.1025E-03     34.4097E-03
            4892            5076     34.1025E-03     34.4097E-03
            4891            5076     34.1025E-03     34.4097E-03
            4910            5076     34.1025E-03     34.4097E-03
            4910            5077     32.5083E-03     32.6843E-03
            4911            5077     32.5083E-03     32.6843E-03
            4892            5077     32.5083E-03     32.6843E-03
            4893            5077     32.5083E-03     32.6843E-03
            4894            5078     30.5941E-03     30.6692E-03
            4911            5078     30.5941E-03     30.6692E-03
            4893            5078     30.5941E-03     30.6692E-03
            4912            5078     30.5941E-03     30.6692E-03
            4912            5079     28.4816E-03     28.5110E-03
            4895            5079     28.4816E-03     28.5110E-03
            4894            5079     28.4816E-03     28.5110E-03
            4913            5079     28.4816E-03     28.5110E-03
            4913            5080     26.3206E-03     26.3201E-03
            4914            5080     26.3206E-03     26.3201E-03
            4896            5080     26.3206E-03     26.3201E-03
            4895            5080     26.3206E-03     26.3201E-03
            4897            5081     24.1589E-03     24.1544E-03
            4914            5081     24.1589E-03     24.1544E-03
            4915            5081     24.1589E-03     24.1544E-03
            4896            5081     24.1589E-03     24.1544E-03
            4897            5082     22.0590E-03     22.0706E-03
            4915            5082     22.0590E-03     22.0706E-03
            4916            5082     22.0590E-03     22.0706E-03
            4898            5082     22.0590E-03     22.0706E-03
            4917            5083     20.0555E-03     20.1066E-03
            4898            5083     20.0555E-03     20.1066E-03
            4899            5083     20.0555E-03     20.1066E-03
            4916            5083     20.0555E-03     20.1066E-03
            4900            5084     18.1877E-03     18.3062E-03
            4899            5084     18.1877E-03     18.3062E-03
            4918            5084     18.1877E-03     18.3062E-03
            4917            5084     18.1877E-03     18.3062E-03
            4901            5085     16.5169E-03     16.7233E-03
            4919            5085     16.5169E-03     16.7233E-03
            4918            5085     16.5169E-03     16.7233E-03
            4900            5085     16.5169E-03     16.7233E-03
            4919            5086     15.1761E-03     15.3230E-03
            4920            5086     15.1761E-03     15.3230E-03
            4901            5086     15.1761E-03     15.3230E-03
            4902            5086     15.1761E-03     15.3230E-03
            4920            5087     14.2120E-03     14.1028E-03
            4903            5087     14.2120E-03     14.1028E-03
            4921            5087     14.2120E-03     14.1028E-03
            4902            5087     14.2120E-03     14.1028E-03
            4922            5088     13.6798E-03     13.2870E-03
            4921            5088     13.6798E-03     13.2870E-03
            4904            5088     13.6798E-03     13.2870E-03
            4903            5088     13.6798E-03     13.2870E-03
            4905            5089     32.5377E-03     32.5823E-03
            4923            5089     32.5377E-03     32.5823E-03
            4906            5089     32.5377E-03     32.5823E-03
            4924            5089     32.5377E-03     32.5823E-03
            4906            5090     32.1027E-03     32.5811E-03
            4924            5090     32.1027E-03     32.5811E-03
            4907            5090     32.1027E-03     32.5811E-03
            4925            5090     32.1027E-03     32.5811E-03
            4925            5091     33.2471E-03     33.4917E-03
            4907            5091     33.2471E-03     33.4917E-03
            4908            5091     33.2471E-03     33.4917E-03
            4926            5091     33.2471E-03     33.4917E-03
            4908            5092     33.6995E-03     33.6270E-03
            4909            5092     33.6995E-03     33.6270E-03
            4926            5092     33.6995E-03     33.6270E-03
            4927            5092     33.6995E-03     33.6270E-03
            4928            5093     33.1059E-03     32.8401E-03
            4927            5093     33.1059E-03     32.8401E-03
            4910            5093     33.1059E-03     32.8401E-03
            4909            5093     33.1059E-03     32.8401E-03
            4910            5094     31.8652E-03     31.4879E-03
            4929            5094     31.8652E-03     31.4879E-03
            4928            5094     31.8652E-03     31.4879E-03
            4911            5094     31.8652E-03     31.4879E-03
            4912            5095     30.2057E-03     29.7851E-03
            4930            5095     30.2057E-03     29.7851E-03
            4929            5095     30.2057E-03     29.7851E-03
            4911            5095     30.2057E-03     29.7851E-03
            4930            5096     28.3445E-03     27.9043E-03
            4912            5096     28.3445E-03     27.9043E-03
            4913            5096     28.3445E-03     27.9043E-03
            4931            5096     28.3445E-03     27.9043E-03
            4932            5097     26.3826E-03     25.9527E-03
            4914            5097     26.3826E-03     25.9527E-03
            4913            5097     26.3826E-03     25.9527E-03
            4931            5097     26.3826E-03     25.9527E-03
            4914            5098     24.4167E-03     24.0103E-03
            4933            5098     24.4167E-03     24.0103E-03
            4915            5098     24.4167E-03     24.0103E-03
            4932            5098     24.4167E-03     24.0103E-03
            4915            5099     22.4907E-03     22.1292E-03
            4934            5099     22.4907E-03     22.1292E-03
            4916            5099     22.4907E-03     22.1292E-03
            4933            5099     22.4907E-03     22.1292E-03
            4917            5100     20.6458E-03     20.3666E-03
            4934            5100     20.6458E-03     20.3666E-03
            4935            5100     20.6458E-03     20.3666E-03
            4916            5100     20.6458E-03     20.3666E-03
            4918            5101     18.9237E-03     18.7703E-03
            4935            5101     18.9237E-03     18.7703E-03
            4917            5101     18.9237E-03     18.7703E-03
            4936            5101     18.9237E-03     18.7703E-03
            4937            5102     17.3446E-03     17.4056E-03
            4936            5102     17.3446E-03     17.4056E-03
            4918            5102     17.3446E-03     17.4056E-03
            4919            5102     17.3446E-03     17.4056E-03
            4919            5103     16.0057E-03     16.3480E-03
            4937            5103     16.0057E-03     16.3480E-03
            4938            5103     16.0057E-03     16.3480E-03
            4920            5103     16.0057E-03     16.3480E-03
            4921            5104     15.1674E-03     15.3880E-03
            4938            5104     15.1674E-03     15.3880E-03
            4939            5104     15.1674E-03     15.3880E-03
            4920            5104     15.1674E-03     15.3880E-03
            4922            5105     14.7353E-03     14.4529E-03
            4940            5105     14.7353E-03     14.4529E-03
            4921            5105     14.7353E-03     14.4529E-03
            4939            5105     14.7353E-03     14.4529E-03
            4924            5106     27.1523E-03     27.0376E-03
            4941            5106     27.1523E-03     27.0376E-03
            4923            5106     27.1523E-03     27.0376E-03
            4942            5106     27.1523E-03     27.0376E-03
            4925            5107     28.7624E-03     28.5379E-03
            4942            5107     28.7624E-03     28.5379E-03
            4943            5107     28.7624E-03     28.5379E-03
            4924            5107     28.7624E-03     28.5379E-03
            4925            5108     31.2849E-03     30.5900E-03
            4944            5108     31.2849E-03     30.5900E-03
            4943            5108     31.2849E-03     30.5900E-03
            4926            5108     31.2849E-03     30.5900E-03
            4927            5109     32.0537E-03     31.1424E-03
            4926            5109     32.0537E-03     31.1424E-03
            4944            5109     32.0537E-03     31.1424E-03
            4945            5109     32.0537E-03     31.1424E-03
            4946            5110     31.7756E-03     30.8030E-03
            4928            5110     31.7756E-03     30.8030E-03
            4945            5110     31.7756E-03     30.8030E-03
            4927            5110     31.7756E-03     30.8030E-03
            4929            5111     30.8367E-03     29.8604E-03
            4928            5111     30.8367E-03     29.8604E-03
            4947            5111     30.8367E-03     29.8604E-03
            4946            5111     30.8367E-03     29.8604E-03
            4947            5112     29.4980E-03     28.5526E-03
            4930            5112     29.4980E-03     28.5526E-03
            4929            5112     29.4980E-03     28.5526E-03
            4948            5112     29.4980E-03     28.5526E-03
            4949            5113     27.9330E-03     27.0348E-03
            4948            5113     27.9330E-03     27.0348E-03
            4931            5113     27.9330E-03     27.0348E-03
            4930            5113     27.9330E-03     27.0348E-03
            4949            5114     26.2594E-03     25.4113E-03
            4950            5114     26.2594E-03     25.4113E-03
            4931            5114     26.2594E-03     25.4113E-03
            4932            5114     26.2594E-03     25.4113E-03
            4933            5115     24.5486E-03     23.7617E-03
            4932            5115     24.5486E-03     23.7617E-03
            4951            5115     24.5486E-03     23.7617E-03
            4950            5115     24.5486E-03     23.7617E-03
            4951            5116     22.8613E-03     22.1471E-03
            4934            5116     22.8613E-03     22.1471E-03
            4933            5116     22.8613E-03     22.1471E-03
            4952            5116     22.8613E-03     22.1471E-03
            4953            5117     21.2355E-03     20.6190E-03
            4934            5117     21.2355E-03     20.6190E-03
            4935            5117     21.2355E-03     20.6190E-03
            4952            5117     21.2355E-03     20.6190E-03
            4953            5118     19.6995E-03     19.2450E-03
            4954            5118     19.6995E-03     19.2450E-03
            4935            5118     19.6995E-03     19.2450E-03
            4936            5118     19.6995E-03     19.2450E-03
            4937            5119     18.2912E-03     18.0790E-03
            4955            5119     18.2912E-03     18.0790E-03
            4954            5119     18.2912E-03     18.0790E-03
            4936            5119     18.2912E-03     18.0790E-03
            4955            5120     16.9839E-03     17.2569E-03
            4937            5120     16.9839E-03     17.2569E-03
            4938            5120     16.9839E-03     17.2569E-03
            4956            5120     16.9839E-03     17.2569E-03
            4956            5121     15.9458E-03     16.8499E-03
            4957            5121     15.9458E-03     16.8499E-03
            4939            5121     15.9458E-03     16.8499E-03
            4938            5121     15.9458E-03     16.8499E-03
            4957            5122     15.7248E-03     16.3049E-03
            4958            5122     15.7248E-03     16.3049E-03
            4940            5122     15.7248E-03     16.3049E-03
            4939            5122     15.7248E-03     16.3049E-03
            4941            5123     22.6733E-03     21.1186E-03
            4960            5123     22.6733E-03     21.1186E-03
            4959            5123     22.6733E-03     21.1186E-03
            4942            5123     22.6733E-03     21.1186E-03
            4961            5124     26.5843E-03     24.5305E-03
            4943            5124     26.5843E-03     24.5305E-03
            4942            5124     26.5843E-03     24.5305E-03
            4960            5124     26.5843E-03     24.5305E-03
            4944            5125     29.1496E-03     27.0922E-03
            4943            5125     29.1496E-03     27.0922E-03
            4962            5125     29.1496E-03     27.0922E-03
            4961            5125     29.1496E-03     27.0922E-03
            4963            5126     30.0237E-03     28.1441E-03
            4944            5126     30.0237E-03     28.1441E-03
            4962            5126     30.0237E-03     28.1441E-03
            4945            5126     30.0237E-03     28.1441E-03
            4963            5127     30.0666E-03     28.3457E-03
            4964            5127     30.0666E-03     28.3457E-03
            4946            5127     30.0666E-03     28.3457E-03
            4945            5127     30.0666E-03     28.3457E-03
            4964            5128     29.4974E-03     27.9343E-03
            4947            5128     29.4974E-03     27.9343E-03
            4946            5128     29.4974E-03     27.9343E-03
            4965            5128     29.4974E-03     27.9343E-03
            4947            5129     28.5685E-03     27.1375E-03
            4965            5129     28.5685E-03     27.1375E-03
            4948            5129     28.5685E-03     27.1375E-03
            4966            5129     28.5685E-03     27.1375E-03
            4966            5130     27.3900E-03     26.0715E-03
            4948            5130     27.3900E-03     26.0715E-03
            4967            5130     27.3900E-03     26.0715E-03
            4949            5130     27.3900E-03     26.0715E-03
            4967            5131     26.0679E-03     24.8556E-03
            4968            5131     26.0679E-03     24.8556E-03
            4950            5131     26.0679E-03     24.8556E-03
            4949            5131     26.0679E-03     24.8556E-03
            4968            5132     24.6760E-03     23.5569E-03
            4950            5132     24.6760E-03     23.5569E-03
            4969            5132     24.6760E-03     23.5569E-03
            4951            5132     24.6760E-03     23.5569E-03
            4970            5133     23.2660E-03     22.2487E-03
            4952            5133     23.2660E-03     22.2487E-03
            4969            5133     23.2660E-03     22.2487E-03
            4951            5133     23.2660E-03     22.2487E-03
            4971            5134     21.8951E-03     20.9826E-03
            4970            5134     21.8951E-03     20.9826E-03
            4953            5134     21.8951E-03     20.9826E-03
            4952            5134     21.8951E-03     20.9826E-03
            4971            5135     20.5879E-03     19.8180E-03
            4953            5135     20.5879E-03     19.8180E-03
            4972            5135     20.5879E-03     19.8180E-03
            4954            5135     20.5879E-03     19.8180E-03
            4954            5136     19.3901E-03     18.8225E-03
            4973            5136     19.3901E-03     18.8225E-03
            4955            5136     19.3901E-03     18.8225E-03
            4972            5136     19.3901E-03     18.8225E-03
            4956            5137     18.2846E-03     18.0627E-03
            4974            5137     18.2846E-03     18.0627E-03
            4955            5137     18.2846E-03     18.0627E-03
            4973            5137     18.2846E-03     18.0627E-03
            4957            5138     17.1977E-03     17.8178E-03
            4974            5138     17.1977E-03     17.8178E-03
            4956            5138     17.1977E-03     17.8178E-03
            4975            5138     17.1977E-03     17.8178E-03
            4958            5139     16.3253E-03     18.1646E-03
            4975            5139     16.3253E-03     18.1646E-03
            4957            5139     16.3253E-03     18.1646E-03
            4976            5139     16.3253E-03     18.1646E-03
            4978            5140     19.8184E-03     20.6470E-03
            4977            5140     19.8184E-03     20.6470E-03
            4960            5140     19.8184E-03     20.6470E-03
            4959            5140     19.8184E-03     20.6470E-03
            4960            5141     18.8920E-03     18.9015E-03
            4978            5141     18.8920E-03     18.9015E-03
            4979            5141     18.8920E-03     18.9015E-03
            4961            5141     18.8920E-03     18.9015E-03
            4962            5142     19.4294E-03     19.4204E-03
            4961            5142     19.4294E-03     19.4204E-03
            4979            5142     19.4294E-03     19.4204E-03
            4980            5142     19.4294E-03     19.4204E-03
            4963            5143     19.8372E-03     19.9129E-03
            4980            5143     19.8372E-03     19.9129E-03
            4981            5143     19.8372E-03     19.9129E-03
            4962            5143     19.8372E-03     19.9129E-03
            4963            5144     19.8202E-03     19.9799E-03
            4964            5144     19.8202E-03     19.9799E-03
            4982            5144     19.8202E-03     19.9799E-03
            4981            5144     19.8202E-03     19.9799E-03
            4983            5145     19.5228E-03     19.7489E-03
            4964            5145     19.5228E-03     19.7489E-03
            4982            5145     19.5228E-03     19.7489E-03
            4965            5145     19.5228E-03     19.7489E-03
            4984            5146     19.0073E-03     19.2727E-03
            4966            5146     19.0073E-03     19.2727E-03
            4965            5146     19.0073E-03     19.2727E-03
            4983            5146     19.0073E-03     19.2727E-03
            4984            5147     18.3856E-03     18.6655E-03
            4967            5147     18.3856E-03     18.6655E-03
            4985            5147     18.3856E-03     18.6655E-03
            4966            5147     18.3856E-03     18.6655E-03
            4986            5148     17.6880E-03     17.9607E-03
            4968            5148     17.6880E-03     17.9607E-03
            4967            5148     17.6880E-03     17.9607E-03
            4985            5148     17.6880E-03     17.9607E-03
            4969            5149     16.9689E-03     17.2206E-03
            4986            5149     16.9689E-03     17.2206E-03
            4987            5149     16.9689E-03     17.2206E-03
            4968            5149     16.9689E-03     17.2206E-03
            4988            5150     16.2492E-03     16.4672E-03
            4987            5150     16.2492E-03     16.4672E-03
            4969            5150     16.2492E-03     16.4672E-03
            4970            5150     16.2492E-03     16.4672E-03
            4971            5151     15.5617E-03     15.7425E-03
            4988            5151     15.5617E-03     15.7425E-03
            4989            5151     15.5617E-03     15.7425E-03
            4970            5151     15.5617E-03     15.7425E-03
            4989            5152     14.9199E-03     15.0568E-03
            4971            5152     14.9199E-03     15.0568E-03
            4990            5152     14.9199E-03     15.0568E-03
            4972            5152     14.9199E-03     15.0568E-03
            4991            5153     14.3632E-03     14.4702E-03
            4973            5153     14.3632E-03     14.4702E-03
            4972            5153     14.3632E-03     14.4702E-03
            4990            5153     14.3632E-03     14.4702E-03
            4974            5154     13.8530E-03     13.9184E-03
            4991            5154     13.8530E-03     13.9184E-03
            4973            5154     13.8530E-03     13.9184E-03
            4992            5154     13.8530E-03     13.9184E-03
            4975            5155     13.3850E-03     13.7079E-03
            4992            5155     13.3850E-03     13.7079E-03
            4974            5155     13.3850E-03     13.7079E-03
            4993            5155     13.3850E-03     13.7079E-03
            4975            5156     12.4294E-03     13.9773E-03
            4976            5156     12.4294E-03     13.9773E-03
            4994            5156     12.4294E-03     13.9773E-03
            4993            5156     12.4294E-03     13.9773E-03
            4996            5157     18.0563E-03     20.0419E-03
            4977            5157     18.0563E-03     20.0419E-03
            4995            5157     18.0563E-03     20.0419E-03
            4978            5157     18.0563E-03     20.0419E-03
            4997            5158     12.7576E-03     14.9906E-03
            4978            5158     12.7576E-03     14.9906E-03
            4996            5158     12.7576E-03     14.9906E-03
            4979            5158     12.7576E-03     14.9906E-03
            4997            5159     11.5173E-03     13.6571E-03
            4998            5159     11.5173E-03     13.6571E-03
            4979            5159     11.5173E-03     13.6571E-03
            4980            5159     11.5173E-03     13.6571E-03
            4998            5160     11.3749E-03     13.2771E-03
            4999            5160     11.3749E-03     13.2771E-03
            4980            5160     11.3749E-03     13.2771E-03
            4981            5160     11.3749E-03     13.2771E-03
            5000            5161     11.0042E-03     12.8195E-03
            4981            5161     11.0042E-03     12.8195E-03
            4982            5161     11.0042E-03     12.8195E-03
            4999            5161     11.0042E-03     12.8195E-03
            4983            5162     10.6686E-03     12.4101E-03
            5001            5162     10.6686E-03     12.4101E-03
            5000            5162     10.6686E-03     12.4101E-03
            4982            5162     10.6686E-03     12.4101E-03
            5002            5163     10.3255E-03     11.9816E-03
            4983            5163     10.3255E-03     11.9816E-03
            5001            5163     10.3255E-03     11.9816E-03
            4984            5163     10.3255E-03     11.9816E-03
            4984            5164     10.0116E-03     11.5812E-03
            5003            5164     10.0116E-03     11.5812E-03
            5002            5164     10.0116E-03     11.5812E-03
            4985            5164     10.0116E-03     11.5812E-03
            5004            5165     9.74091E-03     11.1952E-03
            4985            5165     9.74091E-03     11.1952E-03
            5003            5165     9.74091E-03     11.1952E-03
            4986            5165     9.74091E-03     11.1952E-03
            4986            5166     9.50383E-03     10.8434E-03
            4987            5166     9.50383E-03     10.8434E-03
            5005            5166     9.50383E-03     10.8434E-03
            5004            5166     9.50383E-03     10.8434E-03
            4988            5167     9.30985E-03     10.5109E-03
            4987            5167     9.30985E-03     10.5109E-03
            5006            5167     9.30985E-03     10.5109E-03
            5005            5167     9.30985E-03     10.5109E-03
            4988            5168     9.15310E-03     10.2147E-03
            5006            5168     9.15310E-03     10.2147E-03
            4989            5168     9.15310E-03     10.2147E-03
            5007            5168     9.15310E-03     10.2147E-03
            4989            5169     9.03479E-03     9.93751E-03
            5008            5169     9.03479E-03     9.93751E-03
            4990            5169     9.03479E-03     9.93751E-03
            5007            5169     9.03479E-03     9.93751E-03
            4991            5170     8.96832E-03     9.70661E-03
            5008            5170     8.96832E-03     9.70661E-03
            5009            5170     8.96832E-03     9.70661E-03
            4990            5170     8.96832E-03     9.70661E-03
            5010            5171     8.94111E-03     9.46629E-03
            5009            5171     8.94111E-03     9.46629E-03
            4991            5171     8.94111E-03     9.46629E-03
            4992            5171     8.94111E-03     9.46629E-03
            4992            5172     8.89153E-03     9.30931E-03
            5011            5172     8.89153E-03     9.30931E-03
            4993            5172     8.89153E-03     9.30931E-03
            5010            5172     8.89153E-03     9.30931E-03
            4994            5173     8.86611E-03     9.33494E-03
            4993            5173     8.86611E-03     9.33494E-03
            5012            5173     8.86611E-03     9.33494E-03
            5011            5173     8.86611E-03     9.33494E-03
            4995            5174     14.3596E-03     14.2656E-03
            5013            5174     14.3596E-03     14.2656E-03
            4996            5174     14.3596E-03     14.2656E-03
            5014            5174     14.3596E-03     14.2656E-03
            5015            5175     12.9503E-03     13.7634E-03
            4996            5175     12.9503E-03     13.7634E-03
            4997            5175     12.9503E-03     13.7634E-03
            5014            5175     12.9503E-03     13.7634E-03
            4997            5176     12.8742E-03     13.6108E-03
            5015            5176     12.8742E-03     13.6108E-03
            5016            5176     12.8742E-03     13.6108E-03
            4998            5176     12.8742E-03     13.6108E-03
            4999            5177     12.4358E-03     13.1270E-03
            4998            5177     12.4358E-03     13.1270E-03
            5016            5177     12.4358E-03     13.1270E-03
            5017            5177     12.4358E-03     13.1270E-03
            5017            5178     11.9231E-03     12.5867E-03
            4999            5178     11.9231E-03     12.5867E-03
            5018            5178     11.9231E-03     12.5867E-03
            5000            5178     11.9231E-03     12.5867E-03
            5000            5179     11.4530E-03     12.0917E-03
            5018            5179     11.4530E-03     12.0917E-03
            5001            5179     11.4530E-03     12.0917E-03
            5019            5179     11.4530E-03     12.0917E-03
            5020            5180     11.0629E-03     11.6731E-03
            5001            5180     11.0629E-03     11.6731E-03
            5019            5180     11.0629E-03     11.6731E-03
            5002            5180     11.0629E-03     11.6731E-03
            5003            5181     10.7247E-03     11.2959E-03
            5021            5181     10.7247E-03     11.2959E-03
            5002            5181     10.7247E-03     11.2959E-03
            5020            5181     10.7247E-03     11.2959E-03
            5004            5182     10.4282E-03     10.9629E-03
            5003            5182     10.4282E-03     10.9629E-03
            5022            5182     10.4282E-03     10.9629E-03
            5021            5182     10.4282E-03     10.9629E-03
            5022            5183     10.1675E-03     10.6543E-03
            5005            5183     10.1675E-03     10.6543E-03
            5004            5183     10.1675E-03     10.6543E-03
            5023            5183     10.1675E-03     10.6543E-03
            5005            5184     9.93893E-03     10.3795E-03
            5023            5184     9.93893E-03     10.3795E-03
            5006            5184     9.93893E-03     10.3795E-03
            5024            5184     9.93893E-03     10.3795E-03
            5006            5185     9.74308E-03     10.1284E-03
            5025            5185     9.74308E-03     10.1284E-03
            5007            5185     9.74308E-03     10.1284E-03
            5024            5185     9.74308E-03     10.1284E-03
            5007            5186     9.58840E-03     9.91553E-03
            5025            5186     9.58840E-03     9.91553E-03
            5008            5186     9.58840E-03     9.91553E-03
            5026            5186     9.58840E-03     9.91553E-03
            5027            5187     9.46184E-03     9.73683E-03
            5008            5187     9.46184E-03     9.73683E-03
            5026            5187     9.46184E-03     9.73683E-03
            5009            5187     9.46184E-03     9.73683E-03
            5010            5188     9.38412E-03     9.64448E-03
            5009            5188     9.38412E-03     9.64448E-03
            5028            5188     9.38412E-03     9.64448E-03
            5027            5188     9.38412E-03     9.64448E-03
            5011            5189     9.51679E-03     9.46133E-03
            5028            5189     9.51679E-03     9.46133E-03
            5010            5189     9.51679E-03     9.46133E-03
            5029            5189     9.51679E-03     9.46133E-03
            5030            5190     9.86543E-03     8.95392E-03
            5029            5190     9.86543E-03     8.95392E-03
            5011            5190     9.86543E-03     8.95392E-03
            5012            5190     9.86543E-03     8.95392E-03
            5013            5191     9.45027E-03     9.45222E-03
            5032            5191     9.45027E-03     9.45222E-03
            5031            5191     9.45027E-03     9.45222E-03
            5014            5191     9.45027E-03     9.45222E-03
            5014            5192     11.7461E-03     11.5154E-03
            5032            5192     11.7461E-03     11.5154E-03
            5033            5192     11.7461E-03     11.5154E-03
            5015            5192     11.7461E-03     11.5154E-03
            5015            5193     13.5426E-03     12.9375E-03
            5016            5193     13.5426E-03     12.9375E-03
            5034            5193     13.5426E-03     12.9375E-03
            5033            5193     13.5426E-03     12.9375E-03
            5016            5194     13.1117E-03     12.5968E-03
            5035            5194     13.1117E-03     12.5968E-03
            5034            5194     13.1117E-03     12.5968E-03
            5017            5194     13.1117E-03     12.5968E-03
            5017            5195     12.6441E-03     12.1763E-03
            5035            5195     12.6441E-03     12.1763E-03
            5018            5195     12.6441E-03     12.1763E-03
            5036            5195     12.6441E-03     12.1763E-03
            5036            5196     12.1759E-03     11.7300E-03
            5019            5196     12.1759E-03     11.7300E-03
            5037            5196     12.1759E-03     11.7300E-03
            5018            5196     12.1759E-03     11.7300E-03
            5037            5197     11.7864E-03     11.3670E-03
            5038            5197     11.7864E-03     11.3670E-03
            5020            5197     11.7864E-03     11.3670E-03
            5019            5197     11.7864E-03     11.3670E-03
            5039            5198     11.4496E-03     11.0604E-03
            5038            5198     11.4496E-03     11.0604E-03
            5020            5198     11.4496E-03     11.0604E-03
            5021            5198     11.4496E-03     11.0604E-03
            5021            5199     11.1444E-03     10.7863E-03
            5040            5199     11.1444E-03     10.7863E-03
            5039            5199     11.1444E-03     10.7863E-03
            5022            5199     11.1444E-03     10.7863E-03
            5022            5200     10.8682E-03     10.5428E-03
            5041            5200     10.8682E-03     10.5428E-03
            5040            5200     10.8682E-03     10.5428E-03
            5023            5200     10.8682E-03     10.5428E-03
            5023            5201     10.6153E-03     10.3252E-03
            5041            5201     10.6153E-03     10.3252E-03
            5042            5201     10.6153E-03     10.3252E-03
            5024            5201     10.6153E-03     10.3252E-03
            5025            5202     10.3900E-03     10.1343E-03
            5042            5202     10.3900E-03     10.1343E-03
            5024            5202     10.3900E-03     10.1343E-03
            5043            5202     10.3900E-03     10.1343E-03
            5025            5203     10.1943E-03     9.97849E-03
            5044            5203     10.1943E-03     9.97849E-03
            5026            5203     10.1943E-03     9.97849E-03
            5043            5203     10.1943E-03     9.97849E-03
            5045            5204     10.0277E-03     9.85886E-03
            5027            5204     10.0277E-03     9.85886E-03
            5026            5204     10.0277E-03     9.85886E-03
            5044            5204     10.0277E-03     9.85886E-03
            5027            5205     9.89233E-03     9.82182E-03
            5028            5205     9.89233E-03     9.82182E-03
            5046            5205     9.89233E-03     9.82182E-03
            5045            5205     9.89233E-03     9.82182E-03
            5028            5206     9.93735E-03     9.74140E-03
            5046            5206     9.93735E-03     9.74140E-03
            5047            5206     9.93735E-03     9.74140E-03
            5029            5206     9.93735E-03     9.74140E-03
            5048            5207     10.2368E-03     9.35992E-03
            5047            5207     10.2368E-03     9.35992E-03
            5029            5207     10.2368E-03     9.35992E-03
            5030            5207     10.2368E-03     9.35992E-03
            5049            5208     7.40065E-03     7.52783E-03
            5031            5208     7.40065E-03     7.52783E-03
            5050            5208     7.40065E-03     7.52783E-03
            5032            5208     7.40065E-03     7.52783E-03
            5050            5209     10.5579E-03     8.69577E-03
            5051            5209     10.5579E-03     8.69577E-03
            5032            5209     10.5579E-03     8.69577E-03
            5033            5209     10.5579E-03     8.69577E-03
            5034            5210     12.7700E-03     10.9485E-03
            5051            5210     12.7700E-03     10.9485E-03
            5052            5210     12.7700E-03     10.9485E-03
            5033            5210     12.7700E-03     10.9485E-03
            5052            5211     13.2914E-03     11.5590E-03
            5034            5211     13.2914E-03     11.5590E-03
            5053            5211     13.2914E-03     11.5590E-03
            5035            5211     13.2914E-03     11.5590E-03
            5053            5212     13.1115E-03     11.5136E-03
            5035            5212     13.1115E-03     11.5136E-03
            5036            5212     13.1115E-03     11.5136E-03
            5054            5212     13.1115E-03     11.5136E-03
            5037            5213     12.8310E-03     11.3228E-03
            5054            5213     12.8310E-03     11.3228E-03
            5055            5213     12.8310E-03     11.3228E-03
            5036            5213     12.8310E-03     11.3228E-03
            5055            5214     12.5086E-03     11.1053E-03
            5037            5214     12.5086E-03     11.1053E-03
            5056            5214     12.5086E-03     11.1053E-03
            5038            5214     12.5086E-03     11.1053E-03
            5039            5215     12.1945E-03     10.8923E-03
            5038            5215     12.1945E-03     10.8923E-03
            5057            5215     12.1945E-03     10.8923E-03
            5056            5215     12.1945E-03     10.8923E-03
            5057            5216     11.8945E-03     10.6944E-03
            5058            5216     11.8945E-03     10.6944E-03
            5040            5216     11.8945E-03     10.6944E-03
            5039            5216     11.8945E-03     10.6944E-03
            5040            5217     11.6056E-03     10.5187E-03
            5059            5217     11.6056E-03     10.5187E-03
            5041            5217     11.6056E-03     10.5187E-03
            5058            5217     11.6056E-03     10.5187E-03
            5059            5218     11.3352E-03     10.3619E-03
            5060            5218     11.3352E-03     10.3619E-03
            5041            5218     11.3352E-03     10.3619E-03
            5042            5218     11.3352E-03     10.3619E-03
            5060            5219     11.0834E-03     10.2362E-03
            5042            5219     11.0834E-03     10.2362E-03
            5061            5219     11.0834E-03     10.2362E-03
            5043            5219     11.0834E-03     10.2362E-03
            5043            5220     10.8495E-03     10.1299E-03
            5061            5220     10.8495E-03     10.1299E-03
            5062            5220     10.8495E-03     10.1299E-03
            5044            5220     10.8495E-03     10.1299E-03
            5044            5221     10.6495E-03     10.0711E-03
            5045            5221     10.6495E-03     10.0711E-03
            5063            5221     10.6495E-03     10.0711E-03
            5062            5221     10.6495E-03     10.0711E-03
            5045            5222     10.4647E-03     10.0083E-03
            5063            5222     10.4647E-03     10.0083E-03
            5064            5222     10.4647E-03     10.0083E-03
            5046            5222     10.4647E-03     10.0083E-03
            5047            5223     10.2212E-03     10.0800E-03
            5065            5223     10.2212E-03     10.0800E-03
            5064            5223     10.2212E-03     10.0800E-03
            5046            5223     10.2212E-03     10.0800E-03
            5066            5224     9.99292E-03     10.3904E-03
            5065            5224     9.99292E-03     10.3904E-03
            5047            5224     9.99292E-03     10.3904E-03
            5048            5224     9.99292E-03     10.3904E-03
            5175            5310     176.998E-03     180.342E-03
            5194            5310     176.998E-03     180.342E-03
            5176            5310     176.998E-03     180.342E-03
            5193            5310     176.998E-03     180.342E-03
            5194            5311     158.489E-03     163.319E-03
            5176            5311     158.489E-03     163.319E-03
            5177            5311     158.489E-03     163.319E-03
            5195            5311     158.489E-03     163.319E-03
            5177            5312     146.014E-03     150.974E-03
            5196            5312     146.014E-03     150.974E-03
            5178            5312     146.014E-03     150.974E-03
            5195            5312     146.014E-03     150.974E-03
            5197            5313     135.953E-03     140.947E-03
            5179            5313     135.953E-03     140.947E-03
            5196            5313     135.953E-03     140.947E-03
            5178            5313     135.953E-03     140.947E-03
            5198            5314     126.051E-03     131.209E-03
            5180            5314     126.051E-03     131.209E-03
            5197            5314     126.051E-03     131.209E-03
            5179            5314     126.051E-03     131.209E-03
            5181            5315     116.419E-03     121.645E-03
            5199            5315     116.419E-03     121.645E-03
            5180            5315     116.419E-03     121.645E-03
            5198            5315     116.419E-03     121.645E-03
            5182            5316     106.698E-03     111.956E-03
            5199            5316     106.698E-03     111.956E-03
            5181            5316     106.698E-03     111.956E-03
            5200            5316     106.698E-03     111.956E-03
            5182            5317     96.9422E-03     102.222E-03
            5183            5317     96.9422E-03     102.222E-03
            5200            5317     96.9422E-03     102.222E-03
            5201            5317     96.9422E-03     102.222E-03
            5201            5318     87.1158E-03     92.3946E-03
            5183            5318     87.1158E-03     92.3946E-03
            5184            5318     87.1158E-03     92.3946E-03
            5202            5318     87.1158E-03     92.3946E-03
            5203            5319     77.2450E-03     82.5348E-03
            5202            5319     77.2450E-03     82.5348E-03
            5184            5319     77.2450E-03     82.5348E-03
            5185            5319     77.2450E-03     82.5348E-03
            5185            5320     67.3339E-03     72.6293E-03
            5204            5320     67.3339E-03     72.6293E-03
            5203            5320     67.3339E-03     72.6293E-03
            5186            5320     67.3339E-03     72.6293E-03
            5204            5321     57.4056E-03     62.7140E-03
            5187            5321     57.4056E-03     62.7140E-03
            5205            5321     57.4056E-03     62.7140E-03
            5186            5321     57.4056E-03     62.7140E-03
            5187            5322     47.4643E-03     52.7719E-03
            5188            5322     47.4643E-03     52.7719E-03
            5205            5322     47.4643E-03     52.7719E-03
            5206            5322     47.4643E-03     52.7719E-03
            5189            5323     37.5475E-03     42.8381E-03
            5188            5323     37.5475E-03     42.8381E-03
            5206            5323     37.5475E-03     42.8381E-03
            5207            5323     37.5475E-03     42.8381E-03
            5189            5324     27.7378E-03     32.7980E-03
            5208            5324     27.7378E-03     32.7980E-03
            5190            5324     27.7378E-03     32.7980E-03
            5207            5324     27.7378E-03     32.7980E-03
            5191            5325     18.1187E-03     22.6874E-03
            5208            5325     18.1187E-03     22.6874E-03
            5190            5325     18.1187E-03     22.6874E-03
            5209            5325     18.1187E-03     22.6874E-03
            5192            5326     8.81519E-03     13.0049E-03
            5210            5326     8.81519E-03     13.0049E-03
            5209            5326     8.81519E-03     13.0049E-03
            5191            5326     8.81519E-03     13.0049E-03
            5194            5327     177.810E-03     179.039E-03
            5193            5327     177.810E-03     179.039E-03
            5211            5327     177.810E-03     179.039E-03
            5212            5327     177.810E-03     179.039E-03
            5194            5328     163.983E-03     167.748E-03
            5195            5328     163.983E-03     167.748E-03
            5213            5328     163.983E-03     167.748E-03
            5212            5328     163.983E-03     167.748E-03
            5196            5329     150.253E-03     154.681E-03
            5213            5329     150.253E-03     154.681E-03
            5214            5329     150.253E-03     154.681E-03
            5195            5329     150.253E-03     154.681E-03
            5196            5330     139.319E-03     143.515E-03
            5197            5330     139.319E-03     143.515E-03
            5214            5330     139.319E-03     143.515E-03
            5215            5330     139.319E-03     143.515E-03
            5198            5331     128.864E-03     132.888E-03
            5216            5331     128.864E-03     132.888E-03
            5215            5331     128.864E-03     132.888E-03
            5197            5331     128.864E-03     132.888E-03
            5199            5332     118.678E-03     122.622E-03
            5216            5332     118.678E-03     122.622E-03
            5217            5332     118.678E-03     122.622E-03
            5198            5332     118.678E-03     122.622E-03
            5217            5333     108.567E-03     112.479E-03
            5218            5333     108.567E-03     112.479E-03
            5200            5333     108.567E-03     112.479E-03
            5199            5333     108.567E-03     112.479E-03
            5200            5334     98.4894E-03     102.395E-03
            5219            5334     98.4894E-03     102.395E-03
            5218            5334     98.4894E-03     102.395E-03
            5201            5334     98.4894E-03     102.395E-03
            5201            5335     88.4377E-03     92.3479E-03
            5202            5335     88.4377E-03     92.3479E-03
            5219            5335     88.4377E-03     92.3479E-03
            5220            5335     88.4377E-03     92.3479E-03
            5203            5336     78.4045E-03     82.3098E-03
            5220            5336     78.4045E-03     82.3098E-03
            5221            5336     78.4045E-03     82.3098E-03
            5202            5336     78.4045E-03     82.3098E-03
            5221            5337     68.3885E-03     72.2883E-03
            5203            5337     68.3885E-03     72.2883E-03
            5204            5337     68.3885E-03     72.2883E-03
            5222            5337     68.3885E-03     72.2883E-03
            5204            5338     58.3949E-03     62.2741E-03
            5205            5338     58.3949E-03     62.2741E-03
            5222            5338     58.3949E-03     62.2741E-03
            5223            5338     58.3949E-03     62.2741E-03
            5205            5339     48.4197E-03     52.2683E-03
            5206            5339     48.4197E-03     52.2683E-03
            5223            5339     48.4197E-03     52.2683E-03
            5224            5339     48.4197E-03     52.2683E-03
            5224            5340     38.4637E-03     42.3083E-03
            5225            5340     38.4637E-03     42.3083E-03
            5206            5340     38.4637E-03     42.3083E-03
            5207            5340     38.4637E-03     42.3083E-03
            5207            5341     28.5636E-03     32.4296E-03
            5226            5341     28.5636E-03     32.4296E-03
            5208            5341     28.5636E-03     32.4296E-03
            5225            5341     28.5636E-03     32.4296E-03
            5209            5342     18.8591E-03     22.5203E-03
            5227            5342     18.8591E-03     22.5203E-03
            5226            5342     18.8591E-03     22.5203E-03
            5208            5342     18.8591E-03     22.5203E-03
            5227            5343     9.69072E-03     13.4535E-03
            5209            5343     9.69072E-03     13.4535E-03
            5210            5343     9.69072E-03     13.4535E-03
            5228            5343     9.69072E-03     13.4535E-03
            5211            5344     172.362E-03     176.308E-03
            5212            5344     172.362E-03     176.308E-03
            5229            5344     172.362E-03     176.308E-03
            5230            5344     172.362E-03     176.308E-03
            5230            5345     163.924E-03     166.961E-03
            5213            5345     163.924E-03     166.961E-03
            5212            5345     163.924E-03     166.961E-03
            5231            5345     163.924E-03     166.961E-03
            5231            5346     152.538E-03     155.612E-03
            5214            5346     152.538E-03     155.612E-03
            5213            5346     152.538E-03     155.612E-03
            5232            5346     152.538E-03     155.612E-03
            5215            5347     140.977E-03     144.077E-03
            5233            5347     140.977E-03     144.077E-03
            5232            5347     140.977E-03     144.077E-03
            5214            5347     140.977E-03     144.077E-03
            5234            5348     130.541E-03     133.287E-03
            5215            5348     130.541E-03     133.287E-03
            5216            5348     130.541E-03     133.287E-03
            5233            5348     130.541E-03     133.287E-03
            5234            5349     120.123E-03     122.748E-03
            5235            5349     120.123E-03     122.748E-03
            5217            5349     120.123E-03     122.748E-03
            5216            5349     120.123E-03     122.748E-03
            5235            5350     109.914E-03     112.473E-03
            5236            5350     109.914E-03     112.473E-03
            5218            5350     109.914E-03     112.473E-03
            5217            5350     109.914E-03     112.473E-03
            5218            5351     99.7629E-03     102.309E-03
            5237            5351     99.7629E-03     102.309E-03
            5236            5351     99.7629E-03     102.309E-03
            5219            5351     99.7629E-03     102.309E-03
            5220            5352     89.6917E-03     92.2258E-03
            5219            5352     89.6917E-03     92.2258E-03
            5237            5352     89.6917E-03     92.2258E-03
            5238            5352     89.6917E-03     92.2258E-03
            5238            5353     79.6675E-03     82.1985E-03
            5239            5353     79.6675E-03     82.1985E-03
            5220            5353     79.6675E-03     82.1985E-03
            5221            5353     79.6675E-03     82.1985E-03
            5239            5354     69.7027E-03     72.2075E-03
            5240            5354     69.7027E-03     72.2075E-03
            5221            5354     69.7027E-03     72.2075E-03
            5222            5354     69.7027E-03     72.2075E-03
            5240            5355     59.7815E-03     62.2545E-03
            5241            5355     59.7815E-03     62.2545E-03
            5223            5355     59.7815E-03     62.2545E-03
            5222            5355     59.7815E-03     62.2545E-03
            5241            5356     49.9332E-03     52.3654E-03
            5224            5356     49.9332E-03     52.3654E-03
            5223            5356     49.9332E-03     52.3654E-03
            5242            5356     49.9332E-03     52.3654E-03
            5225            5357     40.1527E-03     42.5643E-03
            5224            5357     40.1527E-03     42.5643E-03
            5242            5357     40.1527E-03     42.5643E-03
            5243            5357     40.1527E-03     42.5643E-03
            5244            5358     30.4415E-03     33.1017E-03
            5225            5358     30.4415E-03     33.1017E-03
            5243            5358     30.4415E-03     33.1017E-03
            5226            5358     30.4415E-03     33.1017E-03
            5226            5359     21.1744E-03     24.2429E-03
            5245            5359     21.1744E-03     24.2429E-03
            5227            5359     21.1744E-03     24.2429E-03
            5244            5359     21.1744E-03     24.2429E-03
            5246            5360     13.7805E-03     15.6388E-03
            5245            5360     13.7805E-03     15.6388E-03
            5227            5360     13.7805E-03     15.6388E-03
            5228            5360     13.7805E-03     15.6388E-03
            5248            5361     167.016E-03     168.062E-03
            5230            5361     167.016E-03     168.062E-03
            5247            5361     167.016E-03     168.062E-03
            5229            5361     167.016E-03     168.062E-03
            5248            5362     159.907E-03     162.121E-03
            5249            5362     159.907E-03     162.121E-03
            5230            5362     159.907E-03     162.121E-03
            5231            5362     159.907E-03     162.121E-03
            5232            5363     150.777E-03     152.496E-03
            5250            5363     150.777E-03     152.496E-03
            5231            5363     150.777E-03     152.496E-03
            5249            5363     150.777E-03     152.496E-03
            5250            5364     140.829E-03     142.214E-03
            5232            5364     140.829E-03     142.214E-03
            5251            5364     140.829E-03     142.214E-03
            5233            5364     140.829E-03     142.214E-03
            5251            5365     130.605E-03     131.916E-03
            5233            5365     130.605E-03     131.916E-03
            5252            5365     130.605E-03     131.916E-03
            5234            5365     130.605E-03     131.916E-03
            5252            5366     120.608E-03     121.817E-03
            5253            5366     120.608E-03     121.817E-03
            5235            5366     120.608E-03     121.817E-03
            5234            5366     120.608E-03     121.817E-03
            5254            5367     110.601E-03     111.803E-03
            5235            5367     110.601E-03     111.803E-03
            5253            5367     110.601E-03     111.803E-03
            5236            5367     110.601E-03     111.803E-03
            5255            5368     100.695E-03     101.875E-03
            5236            5368     100.695E-03     101.875E-03
            5254            5368     100.695E-03     101.875E-03
            5237            5368     100.695E-03     101.875E-03
            5256            5369     90.8148E-03     92.0021E-03
            5255            5369     90.8148E-03     92.0021E-03
            5238            5369     90.8148E-03     92.0021E-03
            5237            5369     90.8148E-03     92.0021E-03
            5239            5370     80.9958E-03     82.1666E-03
            5257            5370     80.9958E-03     82.1666E-03
            5238            5370     80.9958E-03     82.1666E-03
            5256            5370     80.9958E-03     82.1666E-03
            5239            5371     71.2199E-03     72.3801E-03
            5257            5371     71.2199E-03     72.3801E-03
            5240            5371     71.2199E-03     72.3801E-03
            5258            5371     71.2199E-03     72.3801E-03
            5240            5372     61.5297E-03     62.6518E-03
            5258            5372     61.5297E-03     62.6518E-03
            5241            5372     61.5297E-03     62.6518E-03
            5259            5372     61.5297E-03     62.6518E-03
            5242            5373     51.9365E-03     53.0284E-03
            5260            5373     51.9365E-03     53.0284E-03
            5241            5373     51.9365E-03     53.0284E-03
            5259            5373     51.9365E-03     53.0284E-03
            5261            5374     42.5184E-03     43.6038E-03
            5242            5374     42.5184E-03     43.6038E-03
            5243            5374     42.5184E-03     43.6038E-03
            5260            5374     42.5184E-03     43.6038E-03
            5244            5375     33.3274E-03     34.6290E-03
            5261            5375     33.3274E-03     34.6290E-03
            5243            5375     33.3274E-03     34.6290E-03
            5262            5375     33.3274E-03     34.6290E-03
            5262            5376     24.6765E-03     26.8564E-03
            5245            5376     24.6765E-03     26.8564E-03
            5244            5376     24.6765E-03     26.8564E-03
            5263            5376     24.6765E-03     26.8564E-03
            5263            5377     18.5064E-03     20.5182E-03
            5245            5377     18.5064E-03     20.5182E-03
            5264            5377     18.5064E-03     20.5182E-03
            5246            5377     18.5064E-03     20.5182E-03
            5266            5378     158.740E-03     157.834E-03
            5248            5378     158.740E-03     157.834E-03
            5265            5378     158.740E-03     157.834E-03
            5247            5378     158.740E-03     157.834E-03
            5266            5379     153.570E-03     153.067E-03
            5248            5379     153.570E-03     153.067E-03
            5267            5379     153.570E-03     153.067E-03
            5249            5379     153.570E-03     153.067E-03
            5267            5380     146.457E-03     146.028E-03
            5250            5380     146.457E-03     146.028E-03
            5268            5380     146.457E-03     146.028E-03
            5249            5380     146.457E-03     146.028E-03
            5268            5381     138.351E-03     137.920E-03
            5250            5381     138.351E-03     137.920E-03
            5251            5381     138.351E-03     137.920E-03
            5269            5381     138.351E-03     137.920E-03
            5252            5382     129.368E-03     129.069E-03
            5269            5382     129.368E-03     129.069E-03
            5251            5382     129.368E-03     129.069E-03
            5270            5382     129.368E-03     129.069E-03
            5270            5383     120.140E-03     119.954E-03
            5253            5383     120.140E-03     119.954E-03
            5252            5383     120.140E-03     119.954E-03
            5271            5383     120.140E-03     119.954E-03
            5253            5384     110.808E-03     110.629E-03
            5271            5384     110.808E-03     110.629E-03
            5254            5384     110.808E-03     110.629E-03
            5272            5384     110.808E-03     110.629E-03
            5272            5385     101.371E-03     101.229E-03
            5254            5385     101.371E-03     101.229E-03
            5273            5385     101.371E-03     101.229E-03
            5255            5385     101.371E-03     101.229E-03
            5273            5386     91.9186E-03     91.7671E-03
            5274            5386     91.9186E-03     91.7671E-03
            5256            5386     91.9186E-03     91.7671E-03
            5255            5386     91.9186E-03     91.7671E-03
            5275            5387     82.4394E-03     82.2993E-03
            5257            5387     82.4394E-03     82.2993E-03
            5274            5387     82.4394E-03     82.2993E-03
            5256            5387     82.4394E-03     82.2993E-03
            5276            5388     72.9976E-03     72.8576E-03
            5257            5388     72.9976E-03     72.8576E-03
            5275            5388     72.9976E-03     72.8576E-03
            5258            5388     72.9976E-03     72.8576E-03
            5277            5389     63.6298E-03     63.5031E-03
            5276            5389     63.6298E-03     63.5031E-03
            5259            5389     63.6298E-03     63.5031E-03
            5258            5389     63.6298E-03     63.5031E-03
            5260            5390     54.4107E-03     54.2944E-03
            5259            5390     54.4107E-03     54.2944E-03
            5277            5390     54.4107E-03     54.2944E-03
            5278            5390     54.4107E-03     54.2944E-03
            5260            5391     45.4711E-03     45.3860E-03
            5261            5391     45.4711E-03     45.3860E-03
            5278            5391     45.4711E-03     45.3860E-03
            5279            5391     45.4711E-03     45.3860E-03
            5262            5392     36.9872E-03     36.9875E-03
            5261            5392     36.9872E-03     36.9875E-03
            5280            5392     36.9872E-03     36.9875E-03
            5279            5392     36.9872E-03     36.9875E-03
            5280            5393     29.2865E-03     29.8392E-03
            5263            5393     29.2865E-03     29.8392E-03
            5262            5393     29.2865E-03     29.8392E-03
            5281            5393     29.2865E-03     29.8392E-03
            5281            5394     23.1240E-03     25.6956E-03
            5282            5394     23.1240E-03     25.6956E-03
            5263            5394     23.1240E-03     25.6956E-03
            5264            5394     23.1240E-03     25.6956E-03
            5757            5777     620.936E-18     746.814E-18
            5739            5777     620.936E-18     746.814E-18
            5758            5777     620.936E-18     746.814E-18
            5740            5777     620.936E-18     746.814E-18
            5740            5778     761.606E-18     993.731E-18
            5758            5778     761.606E-18     993.731E-18
            5759            5778     761.606E-18     993.731E-18
            5741            5778     761.606E-18     993.731E-18
            5759            5779     602.286E-18     875.470E-18
            5741            5779     602.286E-18     875.470E-18
            5760            5779     602.286E-18     875.470E-18
            5742            5779     602.286E-18     875.470E-18
            5761            5780     903.341E-18     892.460E-18
            5760            5780     903.341E-18     892.460E-18
            5743            5780     903.341E-18     892.460E-18
            5742            5780     903.341E-18     892.460E-18
            5761            5781     1.31859E-15     1.16429E-15
            5762            5781     1.31859E-15     1.16429E-15
            5743            5781     1.31859E-15     1.16429E-15
            5744            5781     1.31859E-15     1.16429E-15
            5745            5782     1.17162E-15     1.05761E-15
            5744            5782     1.17162E-15     1.05761E-15
            5763            5782     1.17162E-15     1.05761E-15
            5762            5782     1.17162E-15     1.05761E-15
            5763            5783     787.732E-18     795.375E-18
            5746            5783     787.732E-18     795.375E-18
            5764            5783     787.732E-18     795.375E-18
            5745            5783     787.732E-18     795.375E-18
            5746            5784     765.623E-18     796.614E-18
            5764            5784     765.623E-18     796.614E-18
            5747            5784     765.623E-18     796.614E-18
            5765            5784     765.623E-18     796.614E-18
            5748            5785     682.445E-18     729.230E-18
            5747            5785     682.445E-18     729.230E-18
            5765            5785     682.445E-18     729.230E-18
            5766            5785     682.445E-18     729.230E-18
            5749            5786     673.413E-18     575.585E-18
            5766            5786     673.413E-18     575.585E-18
            5767            5786     673.413E-18     575.585E-18
            5748            5786     673.413E-18     575.585E-18
            5768            5787     546.183E-18     400.454E-18
            5749            5787     546.183E-18     400.454E-18
            5750            5787     546.183E-18     400.454E-18
            5767            5787     546.183E-18     400.454E-18
            5751            5788     389.990E-18     442.458E-18
            5768            5788     389.990E-18     442.458E-18
            5769            5788     389.990E-18     442.458E-18
            5750            5788     389.990E-18     442.458E-18
            5770            5789     657.950E-18     539.460E-18
            5751            5789     657.950E-18     539.460E-18
            5752            5789     657.950E-18     539.460E-18
            5769            5789     657.950E-18     539.460E-18
            5753            5790     655.064E-18     447.658E-18
            5771            5790     655.064E-18     447.658E-18
            5770            5790     655.064E-18     447.658E-18
            5752            5790     655.064E-18     447.658E-18
            5771            5791     500.064E-18     372.197E-18
            5753            5791     500.064E-18     372.197E-18
            5772            5791     500.064E-18     372.197E-18
            5754            5791     500.064E-18     372.197E-18
            5772            5792     608.251E-18     435.892E-18
            5755            5792     608.251E-18     435.892E-18
            5754            5792     608.251E-18     435.892E-18
            5773            5792     608.251E-18     435.892E-18
            5755            5793     469.242E-18     396.616E-18
            5773            5793     469.242E-18     396.616E-18
            5774            5793     469.242E-18     396.616E-18
            5756            5793     469.242E-18     396.616E-18
            5775            5794     776.990E-18     725.537E-18
            5758            5794     776.990E-18     725.537E-18
            5776            5794     776.990E-18     725.537E-18
            5757            5794     776.990E-18     725.537E-18
            5776            5795     993.022E-18     925.273E-18
            5759            5795     993.022E-18     925.273E-18
            5777            5795     993.022E-18     925.273E-18
            5758            5795     993.022E-18     925.273E-18
            5778            5796     728.950E-18     817.989E-18
            5759            5796     728.950E-18     817.989E-18
            5760            5796     728.950E-18     817.989E-18
            5777            5796     728.950E-18     817.989E-18
            5779            5797     758.478E-18     911.767E-18
            5761            5797     758.478E-18     911.767E-18
            5778            5797     758.478E-18     911.767E-18
            5760            5797     758.478E-18     911.767E-18
            5762            5798     887.472E-18     1.15375E-15
            5779            5798     887.472E-18     1.15375E-15
            5780            5798     887.472E-18     1.15375E-15
            5761            5798     887.472E-18     1.15375E-15
            5763            5799     972.967E-18     1.08154E-15
            5780            5799     972.967E-18     1.08154E-15
            5781            5799     972.967E-18     1.08154E-15
            5762            5799     972.967E-18     1.08154E-15
            5782            5800     796.655E-18     803.324E-18
            5781            5800     796.655E-18     803.324E-18
            5764            5800     796.655E-18     803.324E-18
            5763            5800     796.655E-18     803.324E-18
            5782            5801     419.529E-18     512.092E-18
            5783            5801     419.529E-18     512.092E-18
            5764            5801     419.529E-18     512.092E-18
            5765            5801     419.529E-18     512.092E-18
            5766            5802     410.335E-18     463.085E-18
            5784            5802     410.335E-18     463.085E-18
            5783            5802     410.335E-18     463.085E-18
            5765            5802     410.335E-18     463.085E-18
            5767            5803     600.647E-18     564.107E-18
            5784            5803     600.647E-18     564.107E-18
            5785            5803     600.647E-18     564.107E-18
            5766            5803     600.647E-18     564.107E-18
            5768            5804     530.320E-18     558.347E-18
            5767            5804     530.320E-18     558.347E-18
            5786            5804     530.320E-18     558.347E-18
            5785            5804     530.320E-18     558.347E-18
            5787            5805     521.056E-18     545.277E-18
            5769            5805     521.056E-18     545.277E-18
            5768            5805     521.056E-18     545.277E-18
            5786            5805     521.056E-18     545.277E-18
            5788            5806     745.935E-18     657.599E-18
            5769            5806     745.935E-18     657.599E-18
            5770            5806     745.935E-18     657.599E-18
            5787            5806     745.935E-18     657.599E-18
            5788            5807     639.439E-18     620.529E-18
            5771            5807     639.439E-18     620.529E-18
            5789            5807     639.439E-18     620.529E-18
            5770            5807     639.439E-18     620.529E-18
            5772            5808     631.008E-18     617.355E-18
            5771            5808     631.008E-18     617.355E-18
            5789            5808     631.008E-18     617.355E-18
            5790            5808     631.008E-18     617.355E-18
            5773            5809     795.995E-18     763.354E-18
            5772            5809     795.995E-18     763.354E-18
            5791            5809     795.995E-18     763.354E-18
            5790            5809     795.995E-18     763.354E-18
            5791            5810     633.373E-18     648.027E-18
            5773            5810     633.373E-18     648.027E-18
            5792            5810     633.373E-18     648.027E-18
            5774            5810     633.373E-18     648.027E-18
            5794            5811     756.057E-18     656.793E-18
            5775            5811     756.057E-18     656.793E-18
            5793            5811     756.057E-18     656.793E-18
            5776            5811     756.057E-18     656.793E-18
            5776            5812     1.01770E-15     853.861E-18
            5794            5812     1.01770E-15     853.861E-18
            5795            5812     1.01770E-15     853.861E-18
            5777            5812     1.01770E-15     853.861E-18
            5777            5813     912.953E-18     659.842E-18
            5795            5813     912.953E-18     659.842E-18
            5796            5813     912.953E-18     659.842E-18
            5778            5813     912.953E-18     659.842E-18
            5779            5814     826.963E-18     803.432E-18
            5778            5814     826.963E-18     803.432E-18
            5797            5814     826.963E-18     803.432E-18
            5796            5814     826.963E-18     803.432E-18
            5780            5815     857.987E-18     976.346E-18
            5797            5815     857.987E-18     976.346E-18
            5798            5815     857.987E-18     976.346E-18
            5779            5815     857.987E-18     976.346E-18
            5780            5816     867.031E-18     732.089E-18
            5781            5816     867.031E-18     732.089E-18
            5799            5816     867.031E-18     732.089E-18
            5798            5816     867.031E-18     732.089E-18
            5781            5817     774.727E-18     653.174E-18
            5799            5817     774.727E-18     653.174E-18
            5800            5817     774.727E-18     653.174E-18
            5782            5817     774.727E-18     653.174E-18
            5800            5818     569.886E-18     569.926E-18
            5801            5818     569.886E-18     569.926E-18
            5783            5818     569.886E-18     569.926E-18
            5782            5818     569.886E-18     569.926E-18
            5802            5819     486.219E-18     423.564E-18
            5801            5819     486.219E-18     423.564E-18
            5783            5819     486.219E-18     423.564E-18
            5784            5819     486.219E-18     423.564E-18
            5784            5820     603.384E-18     575.224E-18
            5785            5820     603.384E-18     575.224E-18
            5802            5820     603.384E-18     575.224E-18
            5803            5820     603.384E-18     575.224E-18
            5804            5821     511.599E-18     611.118E-18
            5785            5821     511.599E-18     611.118E-18
            5803            5821     511.599E-18     611.118E-18
            5786            5821     511.599E-18     611.118E-18
            5787            5822     537.989E-18     503.254E-18
            5804            5822     537.989E-18     503.254E-18
            5805            5822     537.989E-18     503.254E-18
            5786            5822     537.989E-18     503.254E-18
            5806            5823     709.718E-18     596.295E-18
            5787            5823     709.718E-18     596.295E-18
            5788            5823     709.718E-18     596.295E-18
            5805            5823     709.718E-18     596.295E-18
            5788            5824     618.618E-18     471.751E-18
            5806            5824     618.618E-18     471.751E-18
            5807            5824     618.618E-18     471.751E-18
            5789            5824     618.618E-18     471.751E-18
            5807            5825     779.799E-18     678.937E-18
            5789            5825     779.799E-18     678.937E-18
            5808            5825     779.799E-18     678.937E-18
            5790            5825     779.799E-18     678.937E-18
            5809            5826     735.615E-18     832.399E-18
            5808            5826     735.615E-18     832.399E-18
            5790            5826     735.615E-18     832.399E-18
            5791            5826     735.615E-18     832.399E-18
            5810            5827     496.813E-18     619.943E-18
            5791            5827     496.813E-18     619.943E-18
            5792            5827     496.813E-18     619.943E-18
            5809            5827     496.813E-18     619.943E-18
            5794            5828     971.130E-18     773.718E-18
            5811            5828     971.130E-18     773.718E-18
            5812            5828     971.130E-18     773.718E-18
            5793            5828     971.130E-18     773.718E-18
            5795            5829     1.21238E-15     1.03616E-15
            5812            5829     1.21238E-15     1.03616E-15
            5794            5829     1.21238E-15     1.03616E-15
            5813            5829     1.21238E-15     1.03616E-15
            5813            5830     1.20969E-15     1.01723E-15
            5796            5830     1.20969E-15     1.01723E-15
            5814            5830     1.20969E-15     1.01723E-15
            5795            5830     1.20969E-15     1.01723E-15
            5796            5831     946.574E-18     963.869E-18
            5797            5831     946.574E-18     963.869E-18
            5814            5831     946.574E-18     963.869E-18
            5815            5831     946.574E-18     963.869E-18
            5797            5832     936.878E-18     1.03245E-15
            5816            5832     936.878E-18     1.03245E-15
            5815            5832     936.878E-18     1.03245E-15
            5798            5832     936.878E-18     1.03245E-15
            5799            5833     743.040E-18     862.491E-18
            5816            5833     743.040E-18     862.491E-18
            5817            5833     743.040E-18     862.491E-18
            5798            5833     743.040E-18     862.491E-18
            5800            5834     742.449E-18     849.984E-18
            5817            5834     742.449E-18     849.984E-18
            5799            5834     742.449E-18     849.984E-18
            5818            5834     742.449E-18     849.984E-18
            5819            5835     671.309E-18     646.705E-18
            5800            5835     671.309E-18     646.705E-18
            5818            5835     671.309E-18     646.705E-18
            5801            5835     671.309E-18     646.705E-18
            5801            5836     815.477E-18     624.638E-18
            5820            5836     815.477E-18     624.638E-18
            5819            5836     815.477E-18     624.638E-18
            5802            5836     815.477E-18     624.638E-18
            5802            5837     894.426E-18     726.588E-18
            5803            5837     894.426E-18     726.588E-18
            5820            5837     894.426E-18     726.588E-18
            5821            5837     894.426E-18     726.588E-18
            5803            5838     700.567E-18     733.523E-18
            5821            5838     700.567E-18     733.523E-18
            5804            5838     700.567E-18     733.523E-18
            5822            5838     700.567E-18     733.523E-18
            5822            5839     451.382E-18     562.492E-18
            5804            5839     451.382E-18     562.492E-18
            5805            5839     451.382E-18     562.492E-18
            5823            5839     451.382E-18     562.492E-18
            5823            5840     477.879E-18     491.008E-18
            5805            5840     477.879E-18     491.008E-18
            5806            5840     477.879E-18     491.008E-18
            5824            5840     477.879E-18     491.008E-18
            5807            5841     627.255E-18     542.482E-18
            5824            5841     627.255E-18     542.482E-18
            5806            5841     627.255E-18     542.482E-18
            5825            5841     627.255E-18     542.482E-18
            5807            5842     611.727E-18     516.699E-18
            5826            5842     611.727E-18     516.699E-18
            5825            5842     611.727E-18     516.699E-18
            5808            5842     611.727E-18     516.699E-18
            5827            5843     506.226E-18     452.140E-18
            5808            5843     506.226E-18     452.140E-18
            5826            5843     506.226E-18     452.140E-18
            5809            5843     506.226E-18     452.140E-18
            5828            5844     464.840E-18     524.406E-18
            5827            5844     464.840E-18     524.406E-18
            5809            5844     464.840E-18     524.406E-18
            5810            5844     464.840E-18     524.406E-18
            5812            5845     928.572E-18     891.394E-18
            5811            5845     928.572E-18     891.394E-18
            5829            5845     928.572E-18     891.394E-18
            5830            5845     928.572E-18     891.394E-18
            5813            5846     1.09195E-15     1.12313E-15
            5812            5846     1.09195E-15     1.12313E-15
            5831            5846     1.09195E-15     1.12313E-15
            5830            5846     1.09195E-15     1.12313E-15
            5814            5847     1.11813E-15     1.12159E-15
            5813            5847     1.11813E-15     1.12159E-15
            5831            5847     1.11813E-15     1.12159E-15
            5832            5847     1.11813E-15     1.12159E-15
            5815            5848     1.02469E-15     926.816E-18
            5814            5848     1.02469E-15     926.816E-18
            5833            5848     1.02469E-15     926.816E-18
            5832            5848     1.02469E-15     926.816E-18
            5833            5849     1.10896E-15     1.14836E-15
            5834            5849     1.10896E-15     1.14836E-15
            5815            5849     1.10896E-15     1.14836E-15
            5816            5849     1.10896E-15     1.14836E-15
            5835            5850     734.999E-18     1.04148E-15
            5816            5850     734.999E-18     1.04148E-15
            5834            5850     734.999E-18     1.04148E-15
            5817            5850     734.999E-18     1.04148E-15
            5835            5851     597.823E-18     792.494E-18
            5817            5851     597.823E-18     792.494E-18
            5818            5851     597.823E-18     792.494E-18
            5836            5851     597.823E-18     792.494E-18
            5819            5852     680.532E-18     617.208E-18
            5836            5852     680.532E-18     617.208E-18
            5818            5852     680.532E-18     617.208E-18
            5837            5852     680.532E-18     617.208E-18
            5820            5853     1.06292E-15     751.277E-18
            5819            5853     1.06292E-15     751.277E-18
            5838            5853     1.06292E-15     751.277E-18
            5837            5853     1.06292E-15     751.277E-18
            5820            5854     906.610E-18     700.072E-18
            5838            5854     906.610E-18     700.072E-18
            5839            5854     906.610E-18     700.072E-18
            5821            5854     906.610E-18     700.072E-18
            5839            5855     723.693E-18     758.173E-18
            5821            5855     723.693E-18     758.173E-18
            5822            5855     723.693E-18     758.173E-18
            5840            5855     723.693E-18     758.173E-18
            5823            5856     784.681E-18     890.487E-18
            5841            5856     784.681E-18     890.487E-18
            5822            5856     784.681E-18     890.487E-18
            5840            5856     784.681E-18     890.487E-18
            5824            5857     802.221E-18     737.861E-18
            5841            5857     802.221E-18     737.861E-18
            5823            5857     802.221E-18     737.861E-18
            5842            5857     802.221E-18     737.861E-18
            5843            5858     791.826E-18     688.163E-18
            5825            5858     791.826E-18     688.163E-18
            5824            5858     791.826E-18     688.163E-18
            5842            5858     791.826E-18     688.163E-18
            5844            5859     600.762E-18     506.811E-18
            5825            5859     600.762E-18     506.811E-18
            5843            5859     600.762E-18     506.811E-18
            5826            5859     600.762E-18     506.811E-18
            5844            5860     541.413E-18     407.163E-18
            5827            5860     541.413E-18     407.163E-18
            5826            5860     541.413E-18     407.163E-18
            5845            5860     541.413E-18     407.163E-18
            5846            5861     528.070E-18     515.447E-18
            5827            5861     528.070E-18     515.447E-18
            5845            5861     528.070E-18     515.447E-18
            5828            5861     528.070E-18     515.447E-18


  Minimum                            250.998E-18     310.126E-18
      At Element                            5757            5774
            Node                             194             791

  Maximum                            187.961E-03     197.365E-03
      At Element                            5193            5175
            Node                             629              22

           Total                         372.488         382.257


