********************************************************************************
Field Output Report, written Wed Feb 27 18:21:43 2019

Source 1
---------

   ODB: D:/Documents/Studium/AA_Courses/Semester_6/SVV/A15_SVV_Structures/FEMData/Job-1.odb
   Step: Jam1
   Frame: Increment      1: Step Time =    1.000

Loc 1 : Element nodal  values at shell < ALUMINIUM > < 5 section points > from source 1 : SNEG, (fraction = -1.0) ( Average criteria = 75%, Not averaged across region boundaries )
Loc 2 : Element nodal  values at shell < ALUMINIUM > < 5 section points > from source 1 : SPOS, (fraction = 1.0) ( Average criteria = 75%, Not averaged across region boundaries )

Output sorted by column "Element Label".

Field Output reported at element nodes for region: A320-1.Region_1
   Computation algorithm: EXTRAPOLATE_COMPUTE_AVERAGE
   Averaged at nodes
   Averaging regions: ODB_REGIONS

   Element Label      Node Label         S.Mises         S.Mises
                                          @Loc 1          @Loc 2
-----------------------------------------------------------------
             857              16     3.48724E-03     5.41468E-03
             857             329     3.54107E-03     4.57705E-03
             857             411     7.92983E-03     9.73837E-03
             857            1518     7.10960E-03     8.22359E-03
             858             329     3.54107E-03     4.57705E-03
             858             330     3.68613E-03     3.52147E-03
             858            1518     7.10960E-03     8.22359E-03
             858            1519     6.55528E-03     6.40158E-03
             859             330     3.68613E-03     3.52147E-03
             859             331     3.85230E-03     3.29146E-03
             859            1519     6.55528E-03     6.40158E-03
             859            1520     6.96456E-03     6.01631E-03
             860             331     3.85230E-03     3.29146E-03
             860             332     4.00025E-03     3.26591E-03
             860            1520     6.96456E-03     6.01631E-03
             860            1521     7.29805E-03     6.00695E-03
             861             332     4.00025E-03     3.26591E-03
             861             333     4.17414E-03     3.31459E-03
             861            1521     7.29805E-03     6.00695E-03
             861            1522     7.68514E-03     6.19545E-03
             862             333     4.17414E-03     3.31459E-03
             862             334     4.36895E-03     3.43117E-03
             862            1522     7.68514E-03     6.19545E-03
             862            1523     8.08283E-03     6.47365E-03
             863             334     4.36895E-03     3.43117E-03
             863             335     4.57139E-03     3.57785E-03
             863            1523     8.08283E-03     6.47365E-03
             863            1524     8.51048E-03     6.81388E-03
             864             335     4.57139E-03     3.57785E-03
             864             336     4.78694E-03     3.74618E-03
             864            1524     8.51048E-03     6.81388E-03
             864            1525     8.96068E-03     7.19434E-03
             865             336     4.78694E-03     3.74618E-03
             865             337     5.00010E-03     3.92615E-03
             865            1525     8.96068E-03     7.19434E-03
             865            1526     9.41906E-03     7.59641E-03
             866             337     5.00010E-03     3.92615E-03
             866             338     5.20870E-03     4.09650E-03
             866            1526     9.41906E-03     7.59641E-03
             866            1527     9.88142E-03     8.00260E-03
             867             338     5.20870E-03     4.09650E-03
             867             339     5.38769E-03     4.24513E-03
             867            1527     9.88142E-03     8.00260E-03
             867            1528     10.3146E-03     8.38929E-03
             868             339     5.38769E-03     4.24513E-03
             868             340     5.52245E-03     4.34151E-03
             868            1528     10.3146E-03     8.38929E-03
             868            1529     10.6820E-03     8.69641E-03
             869             340     5.52245E-03     4.34151E-03
             869             341     5.53297E-03     4.31243E-03
             869            1529     10.6820E-03     8.69641E-03
             869            1530     10.8886E-03     8.85228E-03
             870             341     5.53297E-03     4.31243E-03
             870             342     5.40011E-03     4.13102E-03
             870            1530     10.8886E-03     8.85228E-03
             870            1531     10.7039E-03     8.63299E-03
             871             342     5.40011E-03     4.13102E-03
             871             343     4.92046E-03     3.62002E-03
             871            1531     10.7039E-03     8.63299E-03
             871            1532     9.96927E-03     7.87904E-03
             872             343     4.92046E-03     3.62002E-03
             872             344     4.04340E-03     3.09371E-03
             872            1532     9.96927E-03     7.87904E-03
             872            1533     7.75231E-03     6.38191E-03
             873             344     4.04340E-03     3.09371E-03
             873             345     4.89981E-03     5.57774E-03
             873            1533     7.75231E-03     6.38191E-03
             873            1534     9.53164E-03     9.90424E-03
             874               3     6.23877E-03     8.21518E-03
             874             150     13.0229E-03     14.4218E-03
             874             345     4.89981E-03     5.57774E-03
             874            1534     9.53164E-03     9.90424E-03
             875             410     9.03343E-03     8.07690E-03
             875             411     7.92983E-03     9.73837E-03
             875            1518     7.10960E-03     8.22359E-03
             875            1535     7.68497E-03     7.24705E-03
             876            1518     7.10960E-03     8.22359E-03
             876            1519     6.55528E-03     6.40158E-03
             876            1535     7.68497E-03     7.24705E-03
             876            1536     6.19082E-03     6.06714E-03
             877            1519     6.55528E-03     6.40158E-03
             877            1520     6.96456E-03     6.01631E-03
             877            1536     6.19082E-03     6.06714E-03
             877            1537     6.26671E-03     5.71928E-03
             878            1520     6.96456E-03     6.01631E-03
             878            1521     7.29805E-03     6.00695E-03
             878            1537     6.26671E-03     5.71928E-03
             878            1538     6.66902E-03     5.85431E-03
             879            1521     7.29805E-03     6.00695E-03
             879            1522     7.68514E-03     6.19545E-03
             879            1538     6.66902E-03     5.85431E-03
             879            1539     7.06344E-03     6.16440E-03
             880            1522     7.68514E-03     6.19545E-03
             880            1523     8.08283E-03     6.47365E-03
             880            1539     7.06344E-03     6.16440E-03
             880            1540     7.51032E-03     6.55316E-03
             881            1523     8.08283E-03     6.47365E-03
             881            1524     8.51048E-03     6.81388E-03
             881            1540     7.51032E-03     6.55316E-03
             881            1541     7.98168E-03     6.98921E-03
             882            1524     8.51048E-03     6.81388E-03
             882            1525     8.96068E-03     7.19434E-03
             882            1541     7.98168E-03     6.98921E-03
             882            1542     8.47686E-03     7.45616E-03
             883            1525     8.96068E-03     7.19434E-03
             883            1526     9.41906E-03     7.59641E-03
             883            1542     8.47686E-03     7.45616E-03
             883            1543     8.99728E-03     7.95215E-03
             884            1526     9.41906E-03     7.59641E-03
             884            1527     9.88142E-03     8.00260E-03
             884            1543     8.99728E-03     7.95215E-03
             884            1544     9.53645E-03     8.47132E-03
             885            1527     9.88142E-03     8.00260E-03
             885            1528     10.3146E-03     8.38929E-03
             885            1544     9.53645E-03     8.47132E-03
             885            1545     10.0953E-03     9.01061E-03
             886            1528     10.3146E-03     8.38929E-03
             886            1529     10.6820E-03     8.69641E-03
             886            1545     10.0953E-03     9.01061E-03
             886            1546     10.6280E-03     9.52844E-03
             887            1529     10.6820E-03     8.69641E-03
             887            1530     10.8886E-03     8.85228E-03
             887            1546     10.6280E-03     9.52844E-03
             887            1547     11.0916E-03     9.97852E-03
             888            1530     10.8886E-03     8.85228E-03
             888            1531     10.7039E-03     8.63299E-03
             888            1547     11.0916E-03     9.97852E-03
             888            1548     11.2098E-03     10.1332E-03
             889            1531     10.7039E-03     8.63299E-03
             889            1532     9.96927E-03     7.87904E-03
             889            1548     11.2098E-03     10.1332E-03
             889            1549     10.6043E-03     9.70843E-03
             890            1532     9.96927E-03     7.87904E-03
             890            1533     7.75231E-03     6.38191E-03
             890            1549     10.6043E-03     9.70843E-03
             890            1550     8.87094E-03     8.36415E-03
             891            1533     7.75231E-03     6.38191E-03
             891            1534     9.53164E-03     9.90424E-03
             891            1550     8.87094E-03     8.36415E-03
             891            1551     11.3579E-03     10.7667E-03
             892             149     15.0685E-03     14.1399E-03
             892             150     13.0229E-03     14.4218E-03
             892            1534     9.53164E-03     9.90424E-03
             892            1551     11.3579E-03     10.7667E-03
             893             409     8.68044E-03     7.68992E-03
             893             410     9.03343E-03     8.07690E-03
             893            1535     7.68497E-03     7.24705E-03
             893            1552     7.68534E-03     6.91249E-03
             894            1535     7.68497E-03     7.24705E-03
             894            1536     6.19082E-03     6.06714E-03
             894            1552     7.68534E-03     6.91249E-03
             894            1553     6.21931E-03     5.85069E-03
             895            1536     6.19082E-03     6.06714E-03
             895            1537     6.26671E-03     5.71928E-03
             895            1553     6.21931E-03     5.85069E-03
             895            1554     5.77982E-03     5.60411E-03
             896            1537     6.26671E-03     5.71928E-03
             896            1538     6.66902E-03     5.85431E-03
             896            1554     5.77982E-03     5.60411E-03
             896            1555     5.98241E-03     5.79906E-03
             897            1538     6.66902E-03     5.85431E-03
             897            1539     7.06344E-03     6.16440E-03
             897            1555     5.98241E-03     5.79906E-03
             897            1556     6.39307E-03     6.18684E-03
             898            1539     7.06344E-03     6.16440E-03
             898            1540     7.51032E-03     6.55316E-03
             898            1556     6.39307E-03     6.18684E-03
             898            1557     6.88325E-03     6.66238E-03
             899            1540     7.51032E-03     6.55316E-03
             899            1541     7.98168E-03     6.98921E-03
             899            1557     6.88325E-03     6.66238E-03
             899            1558     7.40006E-03     7.17184E-03
             900            1541     7.98168E-03     6.98921E-03
             900            1542     8.47686E-03     7.45616E-03
             900            1558     7.40006E-03     7.17184E-03
             900            1559     7.93909E-03     7.70620E-03
             901            1542     8.47686E-03     7.45616E-03
             901            1543     8.99728E-03     7.95215E-03
             901            1559     7.93909E-03     7.70620E-03
             901            1560     8.49826E-03     8.26277E-03
             902            1543     8.99728E-03     7.95215E-03
             902            1544     9.53645E-03     8.47132E-03
             902            1560     8.49826E-03     8.26277E-03
             902            1561     9.08308E-03     8.84603E-03
             903            1544     9.53645E-03     8.47132E-03
             903            1545     10.0953E-03     9.01061E-03
             903            1561     9.08308E-03     8.84603E-03
             903            1562     9.68661E-03     9.45080E-03
             904            1545     10.0953E-03     9.01061E-03
             904            1546     10.6280E-03     9.52844E-03
             904            1562     9.68661E-03     9.45080E-03
             904            1563     10.3143E-03     10.0823E-03
             905            1546     10.6280E-03     9.52844E-03
             905            1547     11.0916E-03     9.97852E-03
             905            1563     10.3143E-03     10.0823E-03
             905            1564     10.8582E-03     10.6538E-03
             906            1547     11.0916E-03     9.97852E-03
             906            1548     11.2098E-03     10.1332E-03
             906            1564     10.8582E-03     10.6538E-03
             906            1565     11.3180E-03     11.1261E-03
             907            1548     11.2098E-03     10.1332E-03
             907            1549     10.6043E-03     9.70843E-03
             907            1565     11.3180E-03     11.1261E-03
             907            1566     11.1435E-03     11.1379E-03
             908            1549     10.6043E-03     9.70843E-03
             908            1550     8.87094E-03     8.36415E-03
             908            1566     11.1435E-03     11.1379E-03
             908            1567     11.1137E-03     11.1562E-03
             909            1550     8.87094E-03     8.36415E-03
             909            1551     11.3579E-03     10.7667E-03
             909            1567     11.1137E-03     11.1562E-03
             909            1568     14.5857E-03     14.1635E-03
             910             148     17.6744E-03     16.9405E-03
             910             149     15.0685E-03     14.1399E-03
             910            1551     11.3579E-03     10.7667E-03
             910            1568     14.5857E-03     14.1635E-03
             911             408     8.52769E-03     7.91152E-03
             911             409     8.68044E-03     7.68992E-03
             911            1552     7.68534E-03     6.91249E-03
             911            1569     7.58516E-03     7.01829E-03
             912            1552     7.68534E-03     6.91249E-03
             912            1553     6.21931E-03     5.85069E-03
             912            1569     7.58516E-03     7.01829E-03
             912            1570     6.06043E-03     5.90143E-03
             913            1553     6.21931E-03     5.85069E-03
             913            1554     5.77982E-03     5.60411E-03
             913            1570     6.06043E-03     5.90143E-03
             913            1571     5.30382E-03     5.67802E-03
             914            1554     5.77982E-03     5.60411E-03
             914            1555     5.98241E-03     5.79906E-03
             914            1571     5.30382E-03     5.67802E-03
             914            1572     5.31979E-03     5.86881E-03
             915            1555     5.98241E-03     5.79906E-03
             915            1556     6.39307E-03     6.18684E-03
             915            1572     5.31979E-03     5.86881E-03
             915            1573     5.74143E-03     6.30104E-03
             916            1556     6.39307E-03     6.18684E-03
             916            1557     6.88325E-03     6.66238E-03
             916            1573     5.74143E-03     6.30104E-03
             916            1574     6.24232E-03     6.81671E-03
             917            1557     6.88325E-03     6.66238E-03
             917            1558     7.40006E-03     7.17184E-03
             917            1574     6.24232E-03     6.81671E-03
             917            1575     6.78944E-03     7.36954E-03
             918            1558     7.40006E-03     7.17184E-03
             918            1559     7.93909E-03     7.70620E-03
             918            1575     6.78944E-03     7.36954E-03
             918            1576     7.34992E-03     7.93801E-03
             919            1559     7.93909E-03     7.70620E-03
             919            1560     8.49826E-03     8.26277E-03
             919            1576     7.34992E-03     7.93801E-03
             919            1577     7.92135E-03     8.51550E-03
             920            1560     8.49826E-03     8.26277E-03
             920            1561     9.08308E-03     8.84603E-03
             920            1577     7.92135E-03     8.51550E-03
             920            1578     8.50507E-03     9.10642E-03
             921            1561     9.08308E-03     8.84603E-03
             921            1562     9.68661E-03     9.45080E-03
             921            1578     8.50507E-03     9.10642E-03
             921            1579     9.10395E-03     9.71412E-03
             922            1562     9.68661E-03     9.45080E-03
             922            1563     10.3143E-03     10.0823E-03
             922            1579     9.10395E-03     9.71412E-03
             922            1580     9.71181E-03     10.3372E-03
             923            1563     10.3143E-03     10.0823E-03
             923            1564     10.8582E-03     10.6538E-03
             923            1580     9.71181E-03     10.3372E-03
             923            1581     10.3424E-03     10.9905E-03
             924            1564     10.8582E-03     10.6538E-03
             924            1565     11.3180E-03     11.1261E-03
             924            1581     10.3424E-03     10.9905E-03
             924            1582     10.9176E-03     11.6175E-03
             925            1565     11.3180E-03     11.1261E-03
             925            1566     11.1435E-03     11.1379E-03
             925            1582     10.9176E-03     11.6175E-03
             925            1583     11.8108E-03     12.3981E-03
             926            1566     11.1435E-03     11.1379E-03
             926            1567     11.1137E-03     11.1562E-03
             926            1583     11.8108E-03     12.3981E-03
             926            1584     13.7197E-03     13.9307E-03
             927            1567     11.1137E-03     11.1562E-03
             927            1568     14.5857E-03     14.1635E-03
             927            1584     13.7197E-03     13.9307E-03
             927            1585     17.9154E-03     18.0459E-03
             928             147     20.8468E-03     21.1169E-03
             928             148     17.6744E-03     16.9405E-03
             928            1568     14.5857E-03     14.1635E-03
             928            1585     17.9154E-03     18.0459E-03
             929             407     8.97789E-03     8.07445E-03
             929             408     8.52769E-03     7.91152E-03
             929            1569     7.58516E-03     7.01829E-03
             929            1586     7.56003E-03     7.40379E-03
             930            1569     7.58516E-03     7.01829E-03
             930            1570     6.06043E-03     5.90143E-03
             930            1586     7.56003E-03     7.40379E-03
             930            1587     5.40247E-03     6.29270E-03
             931            1570     6.06043E-03     5.90143E-03
             931            1571     5.30382E-03     5.67802E-03
             931            1587     5.40247E-03     6.29270E-03
             931            1588     4.65834E-03     5.88592E-03
             932            1571     5.30382E-03     5.67802E-03
             932            1572     5.31979E-03     5.86881E-03
             932            1588     4.65834E-03     5.88592E-03
             932            1589     4.77458E-03     6.08931E-03
             933            1572     5.31979E-03     5.86881E-03
             933            1573     5.74143E-03     6.30104E-03
             933            1589     4.77458E-03     6.08931E-03
             933            1590     5.13053E-03     6.50805E-03
             934            1573     5.74143E-03     6.30104E-03
             934            1574     6.24232E-03     6.81671E-03
             934            1590     5.13053E-03     6.50805E-03
             934            1591     5.63202E-03     7.03244E-03
             935            1574     6.24232E-03     6.81671E-03
             935            1575     6.78944E-03     7.36954E-03
             935            1591     5.63202E-03     7.03244E-03
             935            1592     6.17425E-03     7.59609E-03
             936            1575     6.78944E-03     7.36954E-03
             936            1576     7.34992E-03     7.93801E-03
             936            1592     6.17425E-03     7.59609E-03
             936            1593     6.73337E-03     8.16786E-03
             937            1576     7.34992E-03     7.93801E-03
             937            1577     7.92135E-03     8.51550E-03
             937            1593     6.73337E-03     8.16786E-03
             937            1594     7.29550E-03     8.74255E-03
             938            1577     7.92135E-03     8.51550E-03
             938            1578     8.50507E-03     9.10642E-03
             938            1594     7.29550E-03     8.74255E-03
             938            1595     7.85501E-03     9.30914E-03
             939            1578     8.50507E-03     9.10642E-03
             939            1579     9.10395E-03     9.71412E-03
             939            1595     7.85501E-03     9.30914E-03
             939            1596     8.41649E-03     9.88275E-03
             940            1579     9.10395E-03     9.71412E-03
             940            1580     9.71181E-03     10.3372E-03
             940            1596     8.41649E-03     9.88275E-03
             940            1597     8.98570E-03     10.4655E-03
             941            1580     9.71181E-03     10.3372E-03
             941            1581     10.3424E-03     10.9905E-03
             941            1597     8.98570E-03     10.4655E-03
             941            1598     9.61829E-03     11.1230E-03
             942            1581     10.3424E-03     10.9905E-03
             942            1582     10.9176E-03     11.6175E-03
             942            1598     9.61829E-03     11.1230E-03
             942            1599     10.4082E-03     11.9433E-03
             943            1582     10.9176E-03     11.6175E-03
             943            1583     11.8108E-03     12.3981E-03
             943            1599     10.4082E-03     11.9433E-03
             943            1600     11.8098E-03     13.2667E-03
             944            1583     11.8108E-03     12.3981E-03
             944            1584     13.7197E-03     13.9307E-03
             944            1600     11.8098E-03     13.2667E-03
             944            1601     15.3789E-03     16.2499E-03
             945            1584     13.7197E-03     13.9307E-03
             945            1585     17.9154E-03     18.0459E-03
             945            1601     15.3789E-03     16.2499E-03
             945            1602     21.7752E-03     21.6108E-03
             946             146     25.5585E-03     24.8644E-03
             946             147     20.8468E-03     21.1169E-03
             946            1585     17.9154E-03     18.0459E-03
             946            1602     21.7752E-03     21.6108E-03
             947             406     8.17572E-03     10.0846E-03
             947             407     8.97789E-03     8.07445E-03
             947            1586     7.56003E-03     7.40379E-03
             947            1603     6.46678E-03     8.58465E-03
             948            1586     7.56003E-03     7.40379E-03
             948            1587     5.40247E-03     6.29270E-03
             948            1603     6.46678E-03     8.58465E-03
             948            1604     4.48385E-03     6.68863E-03
             949            1587     5.40247E-03     6.29270E-03
             949            1588     4.65834E-03     5.88592E-03
             949            1604     4.48385E-03     6.68863E-03
             949            1605     4.18773E-03     6.27932E-03
             950            1588     4.65834E-03     5.88592E-03
             950            1589     4.77458E-03     6.08931E-03
             950            1605     4.18773E-03     6.27932E-03
             950            1606     4.27766E-03     6.41904E-03
             951            1589     4.77458E-03     6.08931E-03
             951            1590     5.13053E-03     6.50805E-03
             951            1606     4.27766E-03     6.41904E-03
             951            1607     4.59780E-03     6.80630E-03
             952            1590     5.13053E-03     6.50805E-03
             952            1591     5.63202E-03     7.03244E-03
             952            1607     4.59780E-03     6.80630E-03
             952            1608     5.05144E-03     7.30976E-03
             953            1591     5.63202E-03     7.03244E-03
             953            1592     6.17425E-03     7.59609E-03
             953            1608     5.05144E-03     7.30976E-03
             953            1609     5.56915E-03     7.85697E-03
             954            1592     6.17425E-03     7.59609E-03
             954            1593     6.73337E-03     8.16786E-03
             954            1609     5.56915E-03     7.85697E-03
             954            1610     6.11120E-03     8.42163E-03
             955            1593     6.73337E-03     8.16786E-03
             955            1594     7.29550E-03     8.74255E-03
             955            1610     6.11120E-03     8.42163E-03
             955            1611     6.65821E-03     8.97931E-03
             956            1594     7.29550E-03     8.74255E-03
             956            1595     7.85501E-03     9.30914E-03
             956            1611     6.65821E-03     8.97931E-03
             956            1612     7.20033E-03     9.53454E-03
             957            1595     7.85501E-03     9.30914E-03
             957            1596     8.41649E-03     9.88275E-03
             957            1612     7.20033E-03     9.53454E-03
             957            1613     7.73627E-03     10.0772E-03
             958            1596     8.41649E-03     9.88275E-03
             958            1597     8.98570E-03     10.4655E-03
             958            1613     7.73627E-03     10.0772E-03
             958            1614     8.30500E-03     10.6572E-03
             959            1597     8.98570E-03     10.4655E-03
             959            1598     9.61829E-03     11.1230E-03
             959            1614     8.30500E-03     10.6572E-03
             959            1615     8.94883E-03     11.3184E-03
             960            1598     9.61829E-03     11.1230E-03
             960            1599     10.4082E-03     11.9433E-03
             960            1615     8.94883E-03     11.3184E-03
             960            1616     9.94871E-03     12.3269E-03
             961            1599     10.4082E-03     11.9433E-03
             961            1600     11.8098E-03     13.2667E-03
             961            1616     9.94871E-03     12.3269E-03
             961            1617     11.6133E-03     14.0406E-03
             962            1600     11.8098E-03     13.2667E-03
             962            1601     15.3789E-03     16.2499E-03
             962            1617     11.6133E-03     14.0406E-03
             962            1618     15.1596E-03     17.6833E-03
             963            1601     15.3789E-03     16.2499E-03
             963            1602     21.7752E-03     21.6108E-03
             963            1618     15.1596E-03     17.6833E-03
             963            1619     23.6938E-03     25.8242E-03
             964             145     29.6925E-03     31.3670E-03
             964             146     25.5585E-03     24.8644E-03
             964            1602     21.7752E-03     21.6108E-03
             964            1619     23.6938E-03     25.8242E-03
             965             405     10.3904E-03     14.0264E-03
             965             406     8.17572E-03     10.0846E-03
             965            1603     6.46678E-03     8.58465E-03
             965            1620     10.1426E-03     12.6528E-03
             966            1603     6.46678E-03     8.58465E-03
             966            1604     4.48385E-03     6.68863E-03
             966            1620     10.1426E-03     12.6528E-03
             966            1621     10.1931E-03     11.2227E-03
             967            1604     4.48385E-03     6.68863E-03
             967            1605     4.18773E-03     6.27932E-03
             967            1621     10.1931E-03     11.2227E-03
             967            1622     10.7575E-03     11.4826E-03
             968            1605     4.18773E-03     6.27932E-03
             968            1606     4.27766E-03     6.41904E-03
             968            1622     10.7575E-03     11.4826E-03
             968            1623     11.4402E-03     12.1961E-03
             969            1606     4.27766E-03     6.41904E-03
             969            1607     4.59780E-03     6.80630E-03
             969            1623     11.4402E-03     12.1961E-03
             969            1624     12.3361E-03     13.1023E-03
             970            1607     4.59780E-03     6.80630E-03
             970            1608     5.05144E-03     7.30976E-03
             970            1624     12.3361E-03     13.1023E-03
             970            1625     13.3200E-03     14.1118E-03
             971            1608     5.05144E-03     7.30976E-03
             971            1609     5.56915E-03     7.85697E-03
             971            1625     13.3200E-03     14.1118E-03
             971            1626     14.3591E-03     15.1466E-03
             972            1609     5.56915E-03     7.85697E-03
             972            1610     6.11120E-03     8.42163E-03
             972            1626     14.3591E-03     15.1466E-03
             972            1627     15.4089E-03     16.1836E-03
             973            1610     6.11120E-03     8.42163E-03
             973            1611     6.65821E-03     8.97931E-03
             973            1627     15.4089E-03     16.1836E-03
             973            1628     16.4379E-03     17.1816E-03
             974            1611     6.65821E-03     8.97931E-03
             974            1612     7.20033E-03     9.53454E-03
             974            1628     16.4379E-03     17.1816E-03
             974            1629     17.4233E-03     18.1326E-03
             975            1612     7.20033E-03     9.53454E-03
             975            1613     7.73627E-03     10.0772E-03
             975            1629     17.4233E-03     18.1326E-03
             975            1630     18.3439E-03     18.9937E-03
             976            1613     7.73627E-03     10.0772E-03
             976            1614     8.30500E-03     10.6572E-03
             976            1630     18.3439E-03     18.9937E-03
             976            1631     19.1829E-03     19.7726E-03
             977            1614     8.30500E-03     10.6572E-03
             977            1615     8.94883E-03     11.3184E-03
             977            1631     19.1829E-03     19.7726E-03
             977            1632     19.9646E-03     20.4456E-03
             978            1615     8.94883E-03     11.3184E-03
             978            1616     9.94871E-03     12.3269E-03
             978            1632     19.9646E-03     20.4456E-03
             978            1633     20.7014E-03     21.1013E-03
             979            1616     9.94871E-03     12.3269E-03
             979            1617     11.6133E-03     14.0406E-03
             979            1633     20.7014E-03     21.1013E-03
             979            1634     21.6427E-03     21.8959E-03
             980            1617     11.6133E-03     14.0406E-03
             980            1618     15.1596E-03     17.6833E-03
             980            1634     21.6427E-03     21.8959E-03
             980            1635     22.7139E-03     23.1061E-03
             981            1618     15.1596E-03     17.6833E-03
             981            1619     23.6938E-03     25.8242E-03
             981            1635     22.7139E-03     23.1061E-03
             981            1636     25.7446E-03     26.9804E-03
             982             144     28.2999E-03     30.0828E-03
             982             145     29.6925E-03     31.3670E-03
             982            1619     23.6938E-03     25.8242E-03
             982            1636     25.7446E-03     26.9804E-03
             983             404     13.9228E-03     16.2411E-03
             983             405     10.3904E-03     14.0264E-03
             983            1620     10.1426E-03     12.6528E-03
             983            1637     14.2854E-03     15.6665E-03
             984            1620     10.1426E-03     12.6528E-03
             984            1621     10.1931E-03     11.2227E-03
             984            1637     14.2854E-03     15.6665E-03
             984            1638     15.4364E-03     15.3813E-03
             985            1621     10.1931E-03     11.2227E-03
             985            1622     10.7575E-03     11.4826E-03
             985            1638     15.4364E-03     15.3813E-03
             985            1639     16.9992E-03     16.3151E-03
             986            1622     10.7575E-03     11.4826E-03
             986            1623     11.4402E-03     12.1961E-03
             986            1639     16.9992E-03     16.3151E-03
             986            1640     18.5753E-03     17.7213E-03
             987            1623     11.4402E-03     12.1961E-03
             987            1624     12.3361E-03     13.1023E-03
             987            1640     18.5753E-03     17.7213E-03
             987            1641     20.2104E-03     19.2904E-03
             988            1624     12.3361E-03     13.1023E-03
             988            1625     13.3200E-03     14.1118E-03
             988            1641     20.2104E-03     19.2904E-03
             988            1642     21.8849E-03     20.9253E-03
             989            1625     13.3200E-03     14.1118E-03
             989            1626     14.3591E-03     15.1466E-03
             989            1642     21.8849E-03     20.9253E-03
             989            1643     23.5714E-03     22.5789E-03
             990            1626     14.3591E-03     15.1466E-03
             990            1627     15.4089E-03     16.1836E-03
             990            1643     23.5714E-03     22.5789E-03
             990            1644     25.2487E-03     24.2116E-03
             991            1627     15.4089E-03     16.1836E-03
             991            1628     16.4379E-03     17.1816E-03
             991            1644     25.2487E-03     24.2116E-03
             991            1645     26.8852E-03     25.7985E-03
             992            1628     16.4379E-03     17.1816E-03
             992            1629     17.4233E-03     18.1326E-03
             992            1645     26.8852E-03     25.7985E-03
             992            1646     28.4481E-03     27.2940E-03
             993            1629     17.4233E-03     18.1326E-03
             993            1630     18.3439E-03     18.9937E-03
             993            1646     28.4481E-03     27.2940E-03
             993            1647     29.8917E-03     28.6592E-03
             994            1630     18.3439E-03     18.9937E-03
             994            1631     19.1829E-03     19.7726E-03
             994            1647     29.8917E-03     28.6592E-03
             994            1648     31.1402E-03     29.8134E-03
             995            1631     19.1829E-03     19.7726E-03
             995            1632     19.9646E-03     20.4456E-03
             995            1648     31.1402E-03     29.8134E-03
             995            1649     32.1225E-03     30.6822E-03
             996            1632     19.9646E-03     20.4456E-03
             996            1633     20.7014E-03     21.1013E-03
             996            1649     32.1225E-03     30.6822E-03
             996            1650     32.6460E-03     31.1058E-03
             997            1633     20.7014E-03     21.1013E-03
             997            1634     21.6427E-03     21.8959E-03
             997            1650     32.6460E-03     31.1058E-03
             997            1651     32.5833E-03     30.9459E-03
             998            1634     21.6427E-03     21.8959E-03
             998            1635     22.7139E-03     23.1061E-03
             998            1651     32.5833E-03     30.9459E-03
             998            1652     31.2868E-03     29.7258E-03
             999            1635     22.7139E-03     23.1061E-03
             999            1636     25.7446E-03     26.9804E-03
             999            1652     31.2868E-03     29.7258E-03
             999            1653     29.4276E-03     28.0938E-03
            1000             143     28.6981E-03     27.4624E-03
            1000             144     28.2999E-03     30.0828E-03
            1000            1636     25.7446E-03     26.9804E-03
            1000            1653     29.4276E-03     28.0938E-03
            1001             403     13.8082E-03     14.2409E-03
            1001             404     13.9228E-03     16.2411E-03
            1001            1637     14.2854E-03     15.6665E-03
            1001            1654     13.6074E-03     14.4291E-03
            1002            1637     14.2854E-03     15.6665E-03
            1002            1638     15.4364E-03     15.3813E-03
            1002            1654     13.6074E-03     14.4291E-03
            1002            1655     14.2691E-03     14.9957E-03
            1003            1638     15.4364E-03     15.3813E-03
            1003            1639     16.9992E-03     16.3151E-03
            1003            1655     14.2691E-03     14.9957E-03
            1003            1656     16.1353E-03     16.0993E-03
            1004            1639     16.9992E-03     16.3151E-03
            1004            1640     18.5753E-03     17.7213E-03
            1004            1656     16.1353E-03     16.0993E-03
            1004            1657     18.0835E-03     17.6843E-03
            1005            1640     18.5753E-03     17.7213E-03
            1005            1641     20.2104E-03     19.2904E-03
            1005            1657     18.0835E-03     17.6843E-03
            1005            1658     19.9884E-03     19.4485E-03
            1006            1641     20.2104E-03     19.2904E-03
            1006            1642     21.8849E-03     20.9253E-03
            1006            1658     19.9884E-03     19.4485E-03
            1006            1659     21.8914E-03     21.2802E-03
            1007            1642     21.8849E-03     20.9253E-03
            1007            1643     23.5714E-03     22.5789E-03
            1007            1659     21.8914E-03     21.2802E-03
            1007            1660     23.7800E-03     23.1356E-03
            1008            1643     23.5714E-03     22.5789E-03
            1008            1644     25.2487E-03     24.2116E-03
            1008            1660     23.7800E-03     23.1356E-03
            1008            1661     25.6575E-03     24.9896E-03
            1009            1644     25.2487E-03     24.2116E-03
            1009            1645     26.8852E-03     25.7985E-03
            1009            1661     25.6575E-03     24.9896E-03
            1009            1662     27.5089E-03     26.8184E-03
            1010            1645     26.8852E-03     25.7985E-03
            1010            1646     28.4481E-03     27.2940E-03
            1010            1662     27.5089E-03     26.8184E-03
            1010            1663     29.3020E-03     28.5941E-03
            1011            1646     28.4481E-03     27.2940E-03
            1011            1647     29.8917E-03     28.6592E-03
            1011            1663     29.3020E-03     28.5941E-03
            1011            1664     30.9906E-03     30.2662E-03
            1012            1647     29.8917E-03     28.6592E-03
            1012            1648     31.1402E-03     29.8134E-03
            1012            1664     30.9906E-03     30.2662E-03
            1012            1665     32.4946E-03     31.7695E-03
            1013            1648     31.1402E-03     29.8134E-03
            1013            1649     32.1225E-03     30.6822E-03
            1013            1665     32.4946E-03     31.7695E-03
            1013            1666     33.6820E-03     32.9910E-03
            1014            1649     32.1225E-03     30.6822E-03
            1014            1650     32.6460E-03     31.1058E-03
            1014            1666     33.6820E-03     32.9910E-03
            1014            1667     34.3802E-03     33.7747E-03
            1015            1650     32.6460E-03     31.1058E-03
            1015            1651     32.5833E-03     30.9459E-03
            1015            1667     34.3802E-03     33.7747E-03
            1015            1668     34.3084E-03     33.9186E-03
            1016            1651     32.5833E-03     30.9459E-03
            1016            1652     31.2868E-03     29.7258E-03
            1016            1668     34.3084E-03     33.9186E-03
            1016            1669     33.1450E-03     33.0979E-03
            1017            1652     31.2868E-03     29.7258E-03
            1017            1653     29.4276E-03     28.0938E-03
            1017            1669     33.1450E-03     33.0979E-03
            1017            1670     33.2247E-03     33.0989E-03
            1018             142     34.1963E-03     33.7980E-03
            1018             143     28.6981E-03     27.4624E-03
            1018            1653     29.4276E-03     28.0938E-03
            1018            1670     33.2247E-03     33.0989E-03
            1019             402     13.0302E-03     12.9798E-03
            1019             403     13.8082E-03     14.2409E-03
            1019            1654     13.6074E-03     14.4291E-03
            1019            1671     13.1151E-03     13.3715E-03
            1020            1654     13.6074E-03     14.4291E-03
            1020            1655     14.2691E-03     14.9957E-03
            1020            1671     13.1151E-03     13.3715E-03
            1020            1672     13.8773E-03     14.4861E-03
            1021            1655     14.2691E-03     14.9957E-03
            1021            1656     16.1353E-03     16.0993E-03
            1021            1672     13.8773E-03     14.4861E-03
            1021            1673     15.5860E-03     16.0025E-03
            1022            1656     16.1353E-03     16.0993E-03
            1022            1657     18.0835E-03     17.6843E-03
            1022            1673     15.5860E-03     16.0025E-03
            1022            1674     17.6780E-03     17.7334E-03
            1023            1657     18.0835E-03     17.6843E-03
            1023            1658     19.9884E-03     19.4485E-03
            1023            1674     17.6780E-03     17.7334E-03
            1023            1675     19.7687E-03     19.6462E-03
            1024            1658     19.9884E-03     19.4485E-03
            1024            1659     21.8914E-03     21.2802E-03
            1024            1675     19.7687E-03     19.6462E-03
            1024            1676     21.8280E-03     21.6172E-03
            1025            1659     21.8914E-03     21.2802E-03
            1025            1660     23.7800E-03     23.1356E-03
            1025            1676     21.8280E-03     21.6172E-03
            1025            1677     23.8722E-03     23.6219E-03
            1026            1660     23.7800E-03     23.1356E-03
            1026            1661     25.6575E-03     24.9896E-03
            1026            1677     23.8722E-03     23.6219E-03
            1026            1678     25.9041E-03     25.6397E-03
            1027            1661     25.6575E-03     24.9896E-03
            1027            1662     27.5089E-03     26.8184E-03
            1027            1678     25.9041E-03     25.6397E-03
            1027            1679     27.9139E-03     27.6534E-03
            1028            1662     27.5089E-03     26.8184E-03
            1028            1663     29.3020E-03     28.5941E-03
            1028            1679     27.9139E-03     27.6534E-03
            1028            1680     29.8871E-03     29.6395E-03
            1029            1663     29.3020E-03     28.5941E-03
            1029            1664     30.9906E-03     30.2662E-03
            1029            1680     29.8871E-03     29.6395E-03
            1029            1681     31.7629E-03     31.5540E-03
            1030            1664     30.9906E-03     30.2662E-03
            1030            1665     32.4946E-03     31.7695E-03
            1030            1681     31.7629E-03     31.5540E-03
            1030            1682     33.4736E-03     33.3264E-03
            1031            1665     32.4946E-03     31.7695E-03
            1031            1666     33.6820E-03     32.9910E-03
            1031            1682     33.4736E-03     33.3264E-03
            1031            1683     34.8754E-03     34.8415E-03
            1032            1666     33.6820E-03     32.9910E-03
            1032            1667     34.3802E-03     33.7747E-03
            1032            1683     34.8754E-03     34.8415E-03
            1032            1684     35.8112E-03     35.9601E-03
            1033            1667     34.3802E-03     33.7747E-03
            1033            1668     34.3084E-03     33.9186E-03
            1033            1684     35.8112E-03     35.9601E-03
            1033            1685     36.0711E-03     36.4533E-03
            1034            1668     34.3084E-03     33.9186E-03
            1034            1669     33.1450E-03     33.0979E-03
            1034            1685     36.0711E-03     36.4533E-03
            1034            1686     36.1232E-03     36.6084E-03
            1035            1669     33.1450E-03     33.0979E-03
            1035            1670     33.2247E-03     33.0989E-03
            1035            1686     36.1232E-03     36.6084E-03
            1035            1687     37.6273E-03     37.6709E-03
            1036             141     38.9899E-03     38.6292E-03
            1036             142     34.1963E-03     33.7980E-03
            1036            1670     33.2247E-03     33.0989E-03
            1036            1687     37.6273E-03     37.6709E-03
            1037             401     12.5106E-03     12.8436E-03
            1037             402     13.0302E-03     12.9798E-03
            1037            1671     13.1151E-03     13.3715E-03
            1037            1688     12.7386E-03     13.1074E-03
            1038            1671     13.1151E-03     13.3715E-03
            1038            1672     13.8773E-03     14.4861E-03
            1038            1688     12.7386E-03     13.1074E-03
            1038            1689     13.6732E-03     14.1779E-03
            1039            1672     13.8773E-03     14.4861E-03
            1039            1673     15.5860E-03     16.0025E-03
            1039            1689     13.6732E-03     14.1779E-03
            1039            1690     15.3421E-03     15.9130E-03
            1040            1673     15.5860E-03     16.0025E-03
            1040            1674     17.6780E-03     17.7334E-03
            1040            1690     15.3421E-03     15.9130E-03
            1040            1691     17.3795E-03     17.8077E-03
            1041            1674     17.6780E-03     17.7334E-03
            1041            1675     19.7687E-03     19.6462E-03
            1041            1691     17.3795E-03     17.8077E-03
            1041            1692     19.5218E-03     19.7916E-03
            1042            1675     19.7687E-03     19.6462E-03
            1042            1676     21.8280E-03     21.6172E-03
            1042            1692     19.5218E-03     19.7916E-03
            1042            1693     21.6560E-03     21.8483E-03
            1043            1676     21.8280E-03     21.6172E-03
            1043            1677     23.8722E-03     23.6219E-03
            1043            1693     21.6560E-03     21.8483E-03
            1043            1694     23.7866E-03     23.9401E-03
            1044            1677     23.8722E-03     23.6219E-03
            1044            1678     25.9041E-03     25.6397E-03
            1044            1694     23.7866E-03     23.9401E-03
            1044            1695     25.9088E-03     26.0592E-03
            1045            1678     25.9041E-03     25.6397E-03
            1045            1679     27.9139E-03     27.6534E-03
            1045            1695     25.9088E-03     26.0592E-03
            1045            1696     28.0318E-03     28.1967E-03
            1046            1679     27.9139E-03     27.6534E-03
            1046            1680     29.8871E-03     29.6395E-03
            1046            1696     28.0318E-03     28.1967E-03
            1046            1697     30.1218E-03     30.3281E-03
            1047            1680     29.8871E-03     29.6395E-03
            1047            1681     31.7629E-03     31.5540E-03
            1047            1697     30.1218E-03     30.3281E-03
            1047            1698     32.1651E-03     32.4259E-03
            1048            1681     31.7629E-03     31.5540E-03
            1048            1682     33.4736E-03     33.3264E-03
            1048            1698     32.1651E-03     32.4259E-03
            1048            1699     34.0649E-03     34.4244E-03
            1049            1682     33.4736E-03     33.3264E-03
            1049            1683     34.8754E-03     34.8415E-03
            1049            1699     34.0649E-03     34.4244E-03
            1049            1700     35.7542E-03     36.2339E-03
            1050            1683     34.8754E-03     34.8415E-03
            1050            1684     35.8112E-03     35.9601E-03
            1050            1700     35.7542E-03     36.2339E-03
            1050            1701     37.0873E-03     37.7197E-03
            1051            1684     35.8112E-03     35.9601E-03
            1051            1685     36.0711E-03     36.4533E-03
            1051            1701     37.0873E-03     37.7197E-03
            1051            1702     38.1107E-03     38.8550E-03
            1052            1685     36.0711E-03     36.4533E-03
            1052            1686     36.1232E-03     36.6084E-03
            1052            1702     38.1107E-03     38.8550E-03
            1052            1703     39.3853E-03     39.9569E-03
            1053            1686     36.1232E-03     36.6084E-03
            1053            1687     37.6273E-03     37.6709E-03
            1053            1703     39.3853E-03     39.9569E-03
            1053            1704     41.6107E-03     41.8819E-03
            1054             140     43.0587E-03     43.2030E-03
            1054             141     38.9899E-03     38.6292E-03
            1054            1687     37.6273E-03     37.6709E-03
            1054            1704     41.6107E-03     41.8819E-03
            1055             400     12.2836E-03     12.3695E-03
            1055             401     12.5106E-03     12.8436E-03
            1055            1688     12.7386E-03     13.1074E-03
            1055            1705     12.5536E-03     12.9099E-03
            1056            1688     12.7386E-03     13.1074E-03
            1056            1689     13.6732E-03     14.1779E-03
            1056            1705     12.5536E-03     12.9099E-03
            1056            1706     13.5466E-03     14.1965E-03
            1057            1689     13.6732E-03     14.1779E-03
            1057            1690     15.3421E-03     15.9130E-03
            1057            1706     13.5466E-03     14.1965E-03
            1057            1707     15.2052E-03     15.8994E-03
            1058            1690     15.3421E-03     15.9130E-03
            1058            1691     17.3795E-03     17.8077E-03
            1058            1707     15.2052E-03     15.8994E-03
            1058            1708     17.1501E-03     17.8425E-03
            1059            1691     17.3795E-03     17.8077E-03
            1059            1692     19.5218E-03     19.7916E-03
            1059            1708     17.1501E-03     17.8425E-03
            1059            1709     19.2308E-03     19.8555E-03
            1060            1692     19.5218E-03     19.7916E-03
            1060            1693     21.6560E-03     21.8483E-03
            1060            1709     19.2308E-03     19.8555E-03
            1060            1710     21.3619E-03     21.9293E-03
            1061            1693     21.6560E-03     21.8483E-03
            1061            1694     23.7866E-03     23.9401E-03
            1061            1710     21.3619E-03     21.9293E-03
            1061            1711     23.5034E-03     24.0525E-03
            1062            1694     23.7866E-03     23.9401E-03
            1062            1695     25.9088E-03     26.0592E-03
            1062            1711     23.5034E-03     24.0525E-03
            1062            1712     25.6711E-03     26.2212E-03
            1063            1695     25.9088E-03     26.0592E-03
            1063            1696     28.0318E-03     28.1967E-03
            1063            1712     25.6711E-03     26.2212E-03
            1063            1713     27.8419E-03     28.4200E-03
            1064            1696     28.0318E-03     28.1967E-03
            1064            1697     30.1218E-03     30.3281E-03
            1064            1713     27.8419E-03     28.4200E-03
            1064            1714     30.0284E-03     30.6480E-03
            1065            1697     30.1218E-03     30.3281E-03
            1065            1698     32.1651E-03     32.4259E-03
            1065            1714     30.0284E-03     30.6480E-03
            1065            1715     32.1850E-03     32.8760E-03
            1066            1698     32.1651E-03     32.4259E-03
            1066            1699     34.0649E-03     34.4244E-03
            1066            1715     32.1850E-03     32.8760E-03
            1066            1716     34.3227E-03     35.0836E-03
            1067            1699     34.0649E-03     34.4244E-03
            1067            1700     35.7542E-03     36.2339E-03
            1067            1716     34.3227E-03     35.0836E-03
            1067            1717     36.3462E-03     37.2114E-03
            1068            1700     35.7542E-03     36.2339E-03
            1068            1701     37.0873E-03     37.7197E-03
            1068            1717     36.3462E-03     37.2114E-03
            1068            1718     38.2652E-03     39.1953E-03
            1069            1701     37.0873E-03     37.7197E-03
            1069            1702     38.1107E-03     38.8550E-03
            1069            1718     38.2652E-03     39.1953E-03
            1069            1719     40.2030E-03     41.0714E-03
            1070            1702     38.1107E-03     38.8550E-03
            1070            1703     39.3853E-03     39.9569E-03
            1070            1719     40.2030E-03     41.0714E-03
            1070            1720     42.3738E-03     43.1139E-03
            1071            1703     39.3853E-03     39.9569E-03
            1071            1704     41.6107E-03     41.8819E-03
            1071            1720     42.3738E-03     43.1139E-03
            1071            1721     45.4348E-03     45.8178E-03
            1072             139     47.2846E-03     47.3977E-03
            1072             140     43.0587E-03     43.2030E-03
            1072            1704     41.6107E-03     41.8819E-03
            1072            1721     45.4348E-03     45.8178E-03
            1073             399     11.9794E-03     12.4558E-03
            1073             400     12.2836E-03     12.3695E-03
            1073            1705     12.5536E-03     12.9099E-03
            1073            1722     12.4211E-03     12.9662E-03
            1074            1705     12.5536E-03     12.9099E-03
            1074            1706     13.5466E-03     14.1965E-03
            1074            1722     12.4211E-03     12.9662E-03
            1074            1723     13.5423E-03     14.2978E-03
            1075            1706     13.5466E-03     14.1965E-03
            1075            1707     15.2052E-03     15.8994E-03
            1075            1723     13.5423E-03     14.2978E-03
            1075            1724     15.0797E-03     15.9930E-03
            1076            1707     15.2052E-03     15.8994E-03
            1076            1708     17.1501E-03     17.8425E-03
            1076            1724     15.0797E-03     15.9930E-03
            1076            1725     16.9172E-03     17.8501E-03
            1077            1708     17.1501E-03     17.8425E-03
            1077            1709     19.2308E-03     19.8555E-03
            1077            1725     16.9172E-03     17.8501E-03
            1077            1726     18.8867E-03     19.8245E-03
            1078            1709     19.2308E-03     19.8555E-03
            1078            1710     21.3619E-03     21.9293E-03
            1078            1726     18.8867E-03     19.8245E-03
            1078            1727     20.9367E-03     21.8638E-03
            1079            1710     21.3619E-03     21.9293E-03
            1079            1711     23.5034E-03     24.0525E-03
            1079            1727     20.9367E-03     21.8638E-03
            1079            1728     23.0592E-03     23.9799E-03
            1080            1711     23.5034E-03     24.0525E-03
            1080            1712     25.6711E-03     26.2212E-03
            1080            1728     23.0592E-03     23.9799E-03
            1080            1729     25.2108E-03     26.1451E-03
            1081            1712     25.6711E-03     26.2212E-03
            1081            1713     27.8419E-03     28.4200E-03
            1081            1729     25.2108E-03     26.1451E-03
            1081            1730     27.4052E-03     28.3662E-03
            1082            1713     27.8419E-03     28.4200E-03
            1082            1714     30.0284E-03     30.6480E-03
            1082            1730     27.4052E-03     28.3662E-03
            1082            1731     29.6255E-03     30.6313E-03
            1083            1714     30.0284E-03     30.6480E-03
            1083            1715     32.1850E-03     32.8760E-03
            1083            1731     29.6255E-03     30.6313E-03
            1083            1732     31.9028E-03     32.9579E-03
            1084            1715     32.1850E-03     32.8760E-03
            1084            1716     34.3227E-03     35.0836E-03
            1084            1732     31.9028E-03     32.9579E-03
            1084            1733     34.2155E-03     35.3356E-03
            1085            1716     34.3227E-03     35.0836E-03
            1085            1717     36.3462E-03     37.2114E-03
            1085            1733     34.2155E-03     35.3356E-03
            1085            1734     36.6621E-03     37.7950E-03
            1086            1717     36.3462E-03     37.2114E-03
            1086            1718     38.2652E-03     39.1953E-03
            1086            1734     36.6621E-03     37.7950E-03
            1086            1735     39.2299E-03     40.3609E-03
            1087            1718     38.2652E-03     39.1953E-03
            1087            1719     40.2030E-03     41.0714E-03
            1087            1735     39.2299E-03     40.3609E-03
            1087            1736     42.0147E-03     43.0565E-03
            1088            1719     40.2030E-03     41.0714E-03
            1088            1720     42.3738E-03     43.1139E-03
            1088            1736     42.0147E-03     43.0565E-03
            1088            1737     45.2540E-03     46.0158E-03
            1089            1720     42.3738E-03     43.1139E-03
            1089            1721     45.4348E-03     45.8178E-03
            1089            1737     45.2540E-03     46.0158E-03
            1089            1738     49.0198E-03     49.6447E-03
            1090             138     51.0595E-03     51.7109E-03
            1090             139     47.2846E-03     47.3977E-03
            1090            1721     45.4348E-03     45.8178E-03
            1090            1738     49.0198E-03     49.6447E-03
            1091             398     12.0925E-03     12.6000E-03
            1091             399     11.9794E-03     12.4558E-03
            1091            1722     12.4211E-03     12.9662E-03
            1091            1739     12.4963E-03     13.2181E-03
            1092            1722     12.4211E-03     12.9662E-03
            1092            1723     13.5423E-03     14.2978E-03
            1092            1739     12.4963E-03     13.2181E-03
            1092            1740     13.5501E-03     14.5438E-03
            1093            1723     13.5423E-03     14.2978E-03
            1093            1724     15.0797E-03     15.9930E-03
            1093            1740     13.5501E-03     14.5438E-03
            1093            1741     14.9985E-03     16.1172E-03
            1094            1724     15.0797E-03     15.9930E-03
            1094            1725     16.9172E-03     17.8501E-03
            1094            1741     14.9985E-03     16.1172E-03
            1094            1742     16.6333E-03     17.8498E-03
            1095            1725     16.9172E-03     17.8501E-03
            1095            1726     18.8867E-03     19.8245E-03
            1095            1742     16.6333E-03     17.8498E-03
            1095            1743     18.4489E-03     19.7039E-03
            1096            1726     18.8867E-03     19.8245E-03
            1096            1727     20.9367E-03     21.8638E-03
            1096            1743     18.4489E-03     19.7039E-03
            1096            1744     20.4293E-03     21.7008E-03
            1097            1727     20.9367E-03     21.8638E-03
            1097            1728     23.0592E-03     23.9799E-03
            1097            1744     20.4293E-03     21.7008E-03
            1097            1745     22.4840E-03     23.7667E-03
            1098            1728     23.0592E-03     23.9799E-03
            1098            1729     25.2108E-03     26.1451E-03
            1098            1745     22.4840E-03     23.7667E-03
            1098            1746     24.6067E-03     25.9054E-03
            1099            1729     25.2108E-03     26.1451E-03
            1099            1730     27.4052E-03     28.3662E-03
            1099            1746     24.6067E-03     25.9054E-03
            1099            1747     26.7777E-03     28.1002E-03
            1100            1730     27.4052E-03     28.3662E-03
            1100            1731     29.6255E-03     30.6313E-03
            1100            1747     26.7777E-03     28.1002E-03
            1100            1748     29.0145E-03     30.3706E-03
            1101            1731     29.6255E-03     30.6313E-03
            1101            1732     31.9028E-03     32.9579E-03
            1101            1748     29.0145E-03     30.3706E-03
            1101            1749     31.3379E-03     32.7302E-03
            1102            1732     31.9028E-03     32.9579E-03
            1102            1733     34.2155E-03     35.3356E-03
            1102            1749     31.3379E-03     32.7302E-03
            1102            1750     33.8288E-03     35.2442E-03
            1103            1733     34.2155E-03     35.3356E-03
            1103            1734     36.6621E-03     37.7950E-03
            1103            1750     33.8288E-03     35.2442E-03
            1103            1751     36.5449E-03     37.9660E-03
            1104            1734     36.6621E-03     37.7950E-03
            1104            1735     39.2299E-03     40.3609E-03
            1104            1751     36.5449E-03     37.9660E-03
            1104            1752     39.7746E-03     41.0641E-03
            1105            1735     39.2299E-03     40.3609E-03
            1105            1736     42.0147E-03     43.0565E-03
            1105            1752     39.7746E-03     41.0641E-03
            1105            1753     43.5242E-03     44.6608E-03
            1106            1736     42.0147E-03     43.0565E-03
            1106            1737     45.2540E-03     46.0158E-03
            1106            1753     43.5242E-03     44.6608E-03
            1106            1754     47.7515E-03     48.7664E-03
            1107            1737     45.2540E-03     46.0158E-03
            1107            1738     49.0198E-03     49.6447E-03
            1107            1754     47.7515E-03     48.7664E-03
            1107            1755     52.6841E-03     53.2908E-03
            1108             137     55.3227E-03     55.6176E-03
            1108             138     51.0595E-03     51.7109E-03
            1108            1738     49.0198E-03     49.6447E-03
            1108            1755     52.6841E-03     53.2908E-03
            1109             397     12.2381E-03     13.1643E-03
            1109             398     12.0925E-03     12.6000E-03
            1109            1739     12.4963E-03     13.2181E-03
            1109            1756     12.7201E-03     13.7195E-03
            1110            1739     12.4963E-03     13.2181E-03
            1110            1740     13.5501E-03     14.5438E-03
            1110            1756     12.7201E-03     13.7195E-03
            1110            1757     13.7533E-03     14.9539E-03
            1111            1740     13.5501E-03     14.5438E-03
            1111            1741     14.9985E-03     16.1172E-03
            1111            1757     13.7533E-03     14.9539E-03
            1111            1758     14.8577E-03     16.2722E-03
            1112            1741     14.9985E-03     16.1172E-03
            1112            1742     16.6333E-03     17.8498E-03
            1112            1758     14.8577E-03     16.2722E-03
            1112            1759     16.2390E-03     17.7792E-03
            1113            1742     16.6333E-03     17.8498E-03
            1113            1743     18.4489E-03     19.7039E-03
            1113            1759     16.2390E-03     17.7792E-03
            1113            1760     17.9723E-03     19.5684E-03
            1114            1743     18.4489E-03     19.7039E-03
            1114            1744     20.4293E-03     21.7008E-03
            1114            1760     17.9723E-03     19.5684E-03
            1114            1761     19.8591E-03     21.4821E-03
            1115            1744     20.4293E-03     21.7008E-03
            1115            1745     22.4840E-03     23.7667E-03
            1115            1761     19.8591E-03     21.4821E-03
            1115            1762     21.8575E-03     23.4990E-03
            1116            1745     22.4840E-03     23.7667E-03
            1116            1746     24.6067E-03     25.9054E-03
            1116            1762     21.8575E-03     23.4990E-03
            1116            1763     23.9285E-03     25.5816E-03
            1117            1746     24.6067E-03     25.9054E-03
            1117            1747     26.7777E-03     28.1002E-03
            1117            1763     23.9285E-03     25.5816E-03
            1117            1764     26.0610E-03     27.7302E-03
            1118            1747     26.7777E-03     28.1002E-03
            1118            1748     29.0145E-03     30.3706E-03
            1118            1764     26.0610E-03     27.7302E-03
            1118            1765     28.2769E-03     29.9588E-03
            1119            1748     29.0145E-03     30.3706E-03
            1119            1749     31.3379E-03     32.7302E-03
            1119            1765     28.2769E-03     29.9588E-03
            1119            1766     30.6127E-03     32.3138E-03
            1120            1749     31.3379E-03     32.7302E-03
            1120            1750     33.8288E-03     35.2442E-03
            1120            1766     30.6127E-03     32.3138E-03
            1120            1767     33.1629E-03     34.8647E-03
            1121            1750     33.8288E-03     35.2442E-03
            1121            1751     36.5449E-03     37.9660E-03
            1121            1767     33.1629E-03     34.8647E-03
            1121            1768     36.0871E-03     37.7661E-03
            1122            1751     36.5449E-03     37.9660E-03
            1122            1752     39.7746E-03     41.0641E-03
            1122            1768     36.0871E-03     37.7661E-03
            1122            1769     39.5770E-03     41.1808E-03
            1123            1752     39.7746E-03     41.0641E-03
            1123            1753     43.5242E-03     44.6608E-03
            1123            1769     39.5770E-03     41.1808E-03
            1123            1770     44.2966E-03     45.5567E-03
            1124            1753     43.5242E-03     44.6608E-03
            1124            1754     47.7515E-03     48.7664E-03
            1124            1770     44.2966E-03     45.5567E-03
            1124            1771     50.0551E-03     50.9795E-03
            1125            1754     47.7515E-03     48.7664E-03
            1125            1755     52.6841E-03     53.2908E-03
            1125            1771     50.0551E-03     50.9795E-03
            1125            1772     56.0411E-03     57.1412E-03
            1126             136     59.0705E-03     60.4088E-03
            1126             137     55.3227E-03     55.6176E-03
            1126            1755     52.6841E-03     53.2908E-03
            1126            1772     56.0411E-03     57.1412E-03
            1127             396     13.2363E-03     14.1630E-03
            1127             397     12.2381E-03     13.1643E-03
            1127            1756     12.7201E-03     13.7195E-03
            1127            1773     13.5582E-03     14.7091E-03
            1128            1756     12.7201E-03     13.7195E-03
            1128            1757     13.7533E-03     14.9539E-03
            1128            1773     13.5582E-03     14.7091E-03
            1128            1774     13.9076E-03     15.4636E-03
            1129            1757     13.7533E-03     14.9539E-03
            1129            1758     14.8577E-03     16.2722E-03
            1129            1774     13.9076E-03     15.4636E-03
            1129            1775     14.4925E-03     16.3023E-03
            1130            1758     14.8577E-03     16.2722E-03
            1130            1759     16.2390E-03     17.7792E-03
            1130            1775     14.4925E-03     16.3023E-03
            1130            1776     15.8288E-03     17.7375E-03
            1131            1759     16.2390E-03     17.7792E-03
            1131            1760     17.9723E-03     19.5684E-03
            1131            1776     15.8288E-03     17.7375E-03
            1131            1777     17.4758E-03     19.4367E-03
            1132            1760     17.9723E-03     19.5684E-03
            1132            1761     19.8591E-03     21.4821E-03
            1132            1777     17.4758E-03     19.4367E-03
            1132            1778     19.2985E-03     21.2926E-03
            1133            1761     19.8591E-03     21.4821E-03
            1133            1762     21.8575E-03     23.4990E-03
            1133            1778     19.2985E-03     21.2926E-03
            1133            1779     21.2437E-03     23.2494E-03
            1134            1762     21.8575E-03     23.4990E-03
            1134            1763     23.9285E-03     25.5816E-03
            1134            1779     21.2437E-03     23.2494E-03
            1134            1780     23.2581E-03     25.2698E-03
            1135            1763     23.9285E-03     25.5816E-03
            1135            1764     26.0610E-03     27.7302E-03
            1135            1780     23.2581E-03     25.2698E-03
            1135            1781     25.3508E-03     27.3569E-03
            1136            1764     26.0610E-03     27.7302E-03
            1136            1765     28.2769E-03     29.9588E-03
            1136            1781     25.3508E-03     27.3569E-03
            1136            1782     27.5219E-03     29.5223E-03
            1137            1765     28.2769E-03     29.9588E-03
            1137            1766     30.6127E-03     32.3138E-03
            1137            1782     27.5219E-03     29.5223E-03
            1137            1783     29.8432E-03     31.8256E-03
            1138            1766     30.6127E-03     32.3138E-03
            1138            1767     33.1629E-03     34.8647E-03
            1138            1783     29.8432E-03     31.8256E-03
            1138            1784     32.3779E-03     34.3507E-03
            1139            1767     33.1629E-03     34.8647E-03
            1139            1768     36.0871E-03     37.7661E-03
            1139            1784     32.3779E-03     34.3507E-03
            1139            1785     35.3278E-03     37.2642E-03
            1140            1768     36.0871E-03     37.7661E-03
            1140            1769     39.5770E-03     41.1808E-03
            1140            1785     35.3278E-03     37.2642E-03
            1140            1786     38.9285E-03     40.8321E-03
            1141            1769     39.5770E-03     41.1808E-03
            1141            1770     44.2966E-03     45.5567E-03
            1141            1786     38.9285E-03     40.8321E-03
            1141            1787     43.6554E-03     45.4527E-03
            1142            1770     44.2966E-03     45.5567E-03
            1142            1771     50.0551E-03     50.9795E-03
            1142            1787     43.6554E-03     45.4527E-03
            1142            1788     50.9803E-03     52.1535E-03
            1143            1771     50.0551E-03     50.9795E-03
            1143            1772     56.0411E-03     57.1412E-03
            1143            1788     50.9803E-03     52.1535E-03
            1143            1789     59.7312E-03     59.9986E-03
            1144             135     63.9180E-03     63.7836E-03
            1144             136     59.0705E-03     60.4088E-03
            1144            1772     56.0411E-03     57.1412E-03
            1144            1789     59.7312E-03     59.9986E-03
            1145             395     15.0891E-03     16.7268E-03
            1145             396     13.2363E-03     14.1630E-03
            1145            1773     13.5582E-03     14.7091E-03
            1145            1790     14.3164E-03     16.1598E-03
            1146            1773     13.5582E-03     14.7091E-03
            1146            1774     13.9076E-03     15.4636E-03
            1146            1790     14.3164E-03     16.1598E-03
            1146            1791     13.5064E-03     15.6367E-03
            1147            1774     13.9076E-03     15.4636E-03
            1147            1775     14.4925E-03     16.3023E-03
            1147            1791     13.5064E-03     15.6367E-03
            1147            1792     14.1085E-03     16.3467E-03
            1148            1775     14.4925E-03     16.3023E-03
            1148            1776     15.8288E-03     17.7375E-03
            1148            1792     14.1085E-03     16.3467E-03
            1148            1793     15.4475E-03     17.7498E-03
            1149            1776     15.8288E-03     17.7375E-03
            1149            1777     17.4758E-03     19.4367E-03
            1149            1793     15.4475E-03     17.7498E-03
            1149            1794     17.0256E-03     19.3795E-03
            1150            1777     17.4758E-03     19.4367E-03
            1150            1778     19.2985E-03     21.2926E-03
            1150            1794     17.0256E-03     19.3795E-03
            1150            1795     18.8133E-03     21.1928E-03
            1151            1778     19.2985E-03     21.2926E-03
            1151            1779     21.2437E-03     23.2494E-03
            1151            1795     18.8133E-03     21.1928E-03
            1151            1796     20.6931E-03     23.0840E-03
            1152            1779     21.2437E-03     23.2494E-03
            1152            1780     23.2581E-03     25.2698E-03
            1152            1796     20.6931E-03     23.0840E-03
            1152            1797     22.6690E-03     25.0499E-03
            1153            1780     23.2581E-03     25.2698E-03
            1153            1781     25.3508E-03     27.3569E-03
            1153            1797     22.6690E-03     25.0499E-03
            1153            1798     24.7111E-03     27.0675E-03
            1154            1781     25.3508E-03     27.3569E-03
            1154            1782     27.5219E-03     29.5223E-03
            1154            1798     24.7111E-03     27.0675E-03
            1154            1799     26.8617E-03     29.1757E-03
            1155            1782     27.5219E-03     29.5223E-03
            1155            1783     29.8432E-03     31.8256E-03
            1155            1799     26.8617E-03     29.1757E-03
            1155            1800     29.1405E-03     31.4030E-03
            1156            1783     29.8432E-03     31.8256E-03
            1156            1784     32.3779E-03     34.3507E-03
            1156            1800     29.1405E-03     31.4030E-03
            1156            1801     31.6727E-03     33.8715E-03
            1157            1784     32.3779E-03     34.3507E-03
            1157            1785     35.3278E-03     37.2642E-03
            1157            1801     31.6727E-03     33.8715E-03
            1157            1802     34.5393E-03     36.6939E-03
            1158            1785     35.3278E-03     37.2642E-03
            1158            1786     38.9285E-03     40.8321E-03
            1158            1802     34.5393E-03     36.6939E-03
            1158            1803     38.0864E-03     40.2173E-03
            1159            1786     38.9285E-03     40.8321E-03
            1159            1787     43.6554E-03     45.4527E-03
            1159            1803     38.0864E-03     40.2173E-03
            1159            1804     42.5506E-03     44.7636E-03
            1160            1787     43.6554E-03     45.4527E-03
            1160            1788     50.9803E-03     52.1535E-03
            1160            1804     42.5506E-03     44.7636E-03
            1160            1805     49.2215E-03     51.6627E-03
            1161            1788     50.9803E-03     52.1535E-03
            1161            1789     59.7312E-03     59.9986E-03
            1161            1805     49.2215E-03     51.6627E-03
            1161            1806     60.6959E-03     62.7324E-03
            1162             134     67.9158E-03     69.4210E-03
            1162             135     63.9180E-03     63.7836E-03
            1162            1789     59.7312E-03     59.9986E-03
            1162            1806     60.6959E-03     62.7324E-03
            1163             394     19.7812E-03     21.4845E-03
            1163             395     15.0891E-03     16.7268E-03
            1163            1790     14.3164E-03     16.1598E-03
            1163            1807     19.6208E-03     20.8683E-03
            1164            1790     14.3164E-03     16.1598E-03
            1164            1791     13.5064E-03     15.6367E-03
            1164            1807     19.6208E-03     20.8683E-03
            1164            1808     20.0894E-03     20.8435E-03
            1165            1791     13.5064E-03     15.6367E-03
            1165            1792     14.1085E-03     16.3467E-03
            1165            1808     20.0894E-03     20.8435E-03
            1165            1809     21.6398E-03     22.4428E-03
            1166            1792     14.1085E-03     16.3467E-03
            1166            1793     15.4475E-03     17.7498E-03
            1166            1809     21.6398E-03     22.4428E-03
            1166            1810     23.6241E-03     24.5544E-03
            1167            1793     15.4475E-03     17.7498E-03
            1167            1794     17.0256E-03     19.3795E-03
            1167            1810     23.6241E-03     24.5544E-03
            1167            1811     25.8780E-03     26.8802E-03
            1168            1794     17.0256E-03     19.3795E-03
            1168            1795     18.8133E-03     21.1928E-03
            1168            1811     25.8780E-03     26.8802E-03
            1168            1812     28.2774E-03     29.3213E-03
            1169            1795     18.8133E-03     21.1928E-03
            1169            1796     20.6931E-03     23.0840E-03
            1169            1812     28.2774E-03     29.3213E-03
            1169            1813     30.7658E-03     31.8066E-03
            1170            1796     20.6931E-03     23.0840E-03
            1170            1797     22.6690E-03     25.0499E-03
            1170            1813     30.7658E-03     31.8066E-03
            1170            1814     33.2958E-03     34.3080E-03
            1171            1797     22.6690E-03     25.0499E-03
            1171            1798     24.7111E-03     27.0675E-03
            1171            1814     33.2958E-03     34.3080E-03
            1171            1815     35.8537E-03     36.7953E-03
            1172            1798     24.7111E-03     27.0675E-03
            1172            1799     26.8617E-03     29.1757E-03
            1172            1815     35.8537E-03     36.7953E-03
            1172            1816     38.4152E-03     39.2699E-03
            1173            1799     26.8617E-03     29.1757E-03
            1173            1800     29.1405E-03     31.4030E-03
            1173            1816     38.4152E-03     39.2699E-03
            1173            1817     41.0035E-03     41.7143E-03
            1174            1800     29.1405E-03     31.4030E-03
            1174            1801     31.6727E-03     33.8715E-03
            1174            1817     41.0035E-03     41.7143E-03
            1174            1818     43.5981E-03     44.1670E-03
            1175            1801     31.6727E-03     33.8715E-03
            1175            1802     34.5393E-03     36.6939E-03
            1175            1818     43.5981E-03     44.1670E-03
            1175            1819     46.2900E-03     46.6405E-03
            1176            1802     34.5393E-03     36.6939E-03
            1176            1803     38.0864E-03     40.2173E-03
            1176            1819     46.2900E-03     46.6405E-03
            1176            1820     49.0434E-03     49.2446E-03
            1177            1803     38.0864E-03     40.2173E-03
            1177            1804     42.5506E-03     44.7636E-03
            1177            1820     49.0434E-03     49.2446E-03
            1177            1821     52.1485E-03     52.1653E-03
            1178            1804     42.5506E-03     44.7636E-03
            1178            1805     49.2215E-03     51.6627E-03
            1178            1821     52.1485E-03     52.1653E-03
            1178            1822     55.4961E-03     55.6463E-03
            1179            1805     49.2215E-03     51.6627E-03
            1179            1806     60.6959E-03     62.7324E-03
            1179            1822     55.4961E-03     55.6463E-03
            1179            1823     60.8273E-03     62.1400E-03
            1180             133     64.5947E-03     66.7122E-03
            1180             134     67.9158E-03     69.4210E-03
            1180            1806     60.6959E-03     62.7324E-03
            1180            1823     60.8273E-03     62.1400E-03
            1181             393     21.5497E-03     24.2266E-03
            1181             394     19.7812E-03     21.4845E-03
            1181            1807     19.6208E-03     20.8683E-03
            1181            1824     23.1083E-03     24.6246E-03
            1182            1807     19.6208E-03     20.8683E-03
            1182            1808     20.0894E-03     20.8435E-03
            1182            1824     23.1083E-03     24.6246E-03
            1182            1825     25.9565E-03     25.9548E-03
            1183            1808     20.0894E-03     20.8435E-03
            1183            1809     21.6398E-03     22.4428E-03
            1183            1825     25.9565E-03     25.9548E-03
            1183            1826     28.7507E-03     28.3555E-03
            1184            1809     21.6398E-03     22.4428E-03
            1184            1810     23.6241E-03     24.5544E-03
            1184            1826     28.7507E-03     28.3555E-03
            1184            1827     31.7679E-03     31.3618E-03
            1185            1810     23.6241E-03     24.5544E-03
            1185            1811     25.8780E-03     26.8802E-03
            1185            1827     31.7679E-03     31.3618E-03
            1185            1828     34.8910E-03     34.5223E-03
            1186            1811     25.8780E-03     26.8802E-03
            1186            1812     28.2774E-03     29.3213E-03
            1186            1828     34.8910E-03     34.5223E-03
            1186            1829     38.1199E-03     37.7697E-03
            1187            1812     28.2774E-03     29.3213E-03
            1187            1813     30.7658E-03     31.8066E-03
            1187            1829     38.1199E-03     37.7697E-03
            1187            1830     41.3783E-03     41.0243E-03
            1188            1813     30.7658E-03     31.8066E-03
            1188            1814     33.2958E-03     34.3080E-03
            1188            1830     41.3783E-03     41.0243E-03
            1188            1831     44.6496E-03     44.2549E-03
            1189            1814     33.2958E-03     34.3080E-03
            1189            1815     35.8537E-03     36.7953E-03
            1189            1831     44.6496E-03     44.2549E-03
            1189            1832     47.8848E-03     47.4277E-03
            1190            1815     35.8537E-03     36.7953E-03
            1190            1816     38.4152E-03     39.2699E-03
            1190            1832     47.8848E-03     47.4277E-03
            1190            1833     51.0616E-03     50.5052E-03
            1191            1816     38.4152E-03     39.2699E-03
            1191            1817     41.0035E-03     41.7143E-03
            1191            1833     51.0616E-03     50.5052E-03
            1191            1834     54.1260E-03     53.4465E-03
            1192            1817     41.0035E-03     41.7143E-03
            1192            1818     43.5981E-03     44.1670E-03
            1192            1834     54.1260E-03     53.4465E-03
            1192            1835     57.0272E-03     56.1926E-03
            1193            1818     43.5981E-03     44.1670E-03
            1193            1819     46.2900E-03     46.6405E-03
            1193            1835     57.0272E-03     56.1926E-03
            1193            1836     59.6867E-03     58.6701E-03
            1194            1819     46.2900E-03     46.6405E-03
            1194            1820     49.0434E-03     49.2446E-03
            1194            1836     59.6867E-03     58.6701E-03
            1194            1837     61.9857E-03     60.7901E-03
            1195            1820     49.0434E-03     49.2446E-03
            1195            1821     52.1485E-03     52.1653E-03
            1195            1837     61.9857E-03     60.7901E-03
            1195            1838     63.7625E-03     62.4022E-03
            1196            1821     52.1485E-03     52.1653E-03
            1196            1822     55.4961E-03     55.6463E-03
            1196            1838     63.7625E-03     62.4022E-03
            1196            1839     64.6688E-03     63.2790E-03
            1197            1822     55.4961E-03     55.6463E-03
            1197            1823     60.8273E-03     62.1400E-03
            1197            1839     64.6688E-03     63.2790E-03
            1197            1840     64.4634E-03     62.8757E-03
            1198             132     64.0791E-03     62.2549E-03
            1198             133     64.5947E-03     66.7122E-03
            1198            1823     60.8273E-03     62.1400E-03
            1198            1840     64.4634E-03     62.8757E-03
            1199             392     19.5381E-03     21.5319E-03
            1199             393     21.5497E-03     24.2266E-03
            1199            1824     23.1083E-03     24.6246E-03
            1199            1841     20.9169E-03     22.9629E-03
            1200            1824     23.1083E-03     24.6246E-03
            1200            1825     25.9565E-03     25.9548E-03
            1200            1841     20.9169E-03     22.9629E-03
            1200            1842     24.1352E-03     25.5479E-03
            1201            1825     25.9565E-03     25.9548E-03
            1201            1826     28.7507E-03     28.3555E-03
            1201            1842     24.1352E-03     25.5479E-03
            1201            1843     27.7692E-03     28.2400E-03
            1202            1826     28.7507E-03     28.3555E-03
            1202            1827     31.7679E-03     31.3618E-03
            1202            1843     27.7692E-03     28.2400E-03
            1202            1844     31.3269E-03     31.4721E-03
            1203            1827     31.7679E-03     31.3618E-03
            1203            1828     34.8910E-03     34.5223E-03
            1203            1844     31.3269E-03     31.4721E-03
            1203            1845     34.8590E-03     34.8977E-03
            1204            1828     34.8910E-03     34.5223E-03
            1204            1829     38.1199E-03     37.7697E-03
            1204            1845     34.8590E-03     34.8977E-03
            1204            1846     38.3971E-03     38.3954E-03
            1205            1829     38.1199E-03     37.7697E-03
            1205            1830     41.3783E-03     41.0243E-03
            1205            1846     38.3971E-03     38.3954E-03
            1205            1847     41.9411E-03     41.9218E-03
            1206            1830     41.3783E-03     41.0243E-03
            1206            1831     44.6496E-03     44.2549E-03
            1206            1847     41.9411E-03     41.9218E-03
            1206            1848     45.4804E-03     45.4467E-03
            1207            1831     44.6496E-03     44.2549E-03
            1207            1832     47.8848E-03     47.4277E-03
            1207            1848     45.4804E-03     45.4467E-03
            1207            1849     49.0095E-03     48.9513E-03
            1208            1832     47.8848E-03     47.4277E-03
            1208            1833     51.0616E-03     50.5052E-03
            1208            1849     49.0095E-03     48.9513E-03
            1208            1850     52.4890E-03     52.4115E-03
            1209            1833     51.0616E-03     50.5052E-03
            1209            1834     54.1260E-03     53.4465E-03
            1209            1850     52.4890E-03     52.4115E-03
            1209            1851     55.8915E-03     55.7862E-03
            1210            1834     54.1260E-03     53.4465E-03
            1210            1835     57.0272E-03     56.1926E-03
            1210            1851     55.8915E-03     55.7862E-03
            1210            1852     59.1361E-03     59.0275E-03
            1211            1835     57.0272E-03     56.1926E-03
            1211            1836     59.6867E-03     58.6701E-03
            1211            1852     59.1361E-03     59.0275E-03
            1211            1853     62.1321E-03     62.0450E-03
            1212            1836     59.6867E-03     58.6701E-03
            1212            1837     61.9857E-03     60.7901E-03
            1212            1853     62.1321E-03     62.0450E-03
            1212            1854     64.7278E-03     64.7294E-03
            1213            1837     61.9857E-03     60.7901E-03
            1213            1838     63.7625E-03     62.4022E-03
            1213            1854     64.7278E-03     64.7294E-03
            1213            1855     66.7124E-03     66.9079E-03
            1214            1838     63.7625E-03     62.4022E-03
            1214            1839     64.6688E-03     63.2790E-03
            1214            1855     66.7124E-03     66.9079E-03
            1214            1856     67.8527E-03     68.2606E-03
            1215            1839     64.6688E-03     63.2790E-03
            1215            1840     64.4634E-03     62.8757E-03
            1215            1856     67.8527E-03     68.2606E-03
            1215            1857     68.9578E-03     69.1963E-03
            1216             131     69.7508E-03     69.7039E-03
            1216             132     64.0791E-03     62.2549E-03
            1216            1840     64.4634E-03     62.8757E-03
            1216            1857     68.9578E-03     69.1963E-03
            1217             391     18.4854E-03     19.4354E-03
            1217             392     19.5381E-03     21.5319E-03
            1217            1841     20.9169E-03     22.9629E-03
            1217            1858     19.8786E-03     21.2298E-03
            1218            1841     20.9169E-03     22.9629E-03
            1218            1842     24.1352E-03     25.5479E-03
            1218            1858     19.8786E-03     21.2298E-03
            1218            1859     23.1753E-03     24.8114E-03
            1219            1842     24.1352E-03     25.5479E-03
            1219            1843     27.7692E-03     28.2400E-03
            1219            1859     23.1753E-03     24.8114E-03
            1219            1860     27.0597E-03     28.2396E-03
            1220            1843     27.7692E-03     28.2400E-03
            1220            1844     31.3269E-03     31.4721E-03
            1220            1860     27.0597E-03     28.2396E-03
            1220            1861     30.9818E-03     31.6911E-03
            1221            1844     31.3269E-03     31.4721E-03
            1221            1845     34.8590E-03     34.8977E-03
            1221            1861     30.9818E-03     31.6911E-03
            1221            1862     34.8173E-03     35.3310E-03
            1222            1845     34.8590E-03     34.8977E-03
            1222            1846     38.3971E-03     38.3954E-03
            1222            1862     34.8173E-03     35.3310E-03
            1222            1863     38.5979E-03     39.0142E-03
            1223            1846     38.3971E-03     38.3954E-03
            1223            1847     41.9411E-03     41.9218E-03
            1223            1863     38.5979E-03     39.0142E-03
            1223            1864     42.3578E-03     42.7406E-03
            1224            1847     41.9411E-03     41.9218E-03
            1224            1848     45.4804E-03     45.4467E-03
            1224            1864     42.3578E-03     42.7406E-03
            1224            1865     46.1132E-03     46.4874E-03
            1225            1848     45.4804E-03     45.4467E-03
            1225            1849     49.0095E-03     48.9513E-03
            1225            1865     46.1132E-03     46.4874E-03
            1225            1866     49.8546E-03     50.2463E-03
            1226            1849     49.0095E-03     48.9513E-03
            1226            1850     52.4890E-03     52.4115E-03
            1226            1866     49.8546E-03     50.2463E-03
            1226            1867     53.5815E-03     53.9987E-03
            1227            1850     52.4890E-03     52.4115E-03
            1227            1851     55.8915E-03     55.7862E-03
            1227            1867     53.5815E-03     53.9987E-03
            1227            1868     57.2366E-03     57.7163E-03
            1228            1851     55.8915E-03     55.7862E-03
            1228            1852     59.1361E-03     59.0275E-03
            1228            1868     57.2366E-03     57.7163E-03
            1228            1869     60.7732E-03     61.3363E-03
            1229            1852     59.1361E-03     59.0275E-03
            1229            1853     62.1321E-03     62.0450E-03
            1229            1869     60.7732E-03     61.3363E-03
            1229            1870     64.0728E-03     64.7753E-03
            1230            1853     62.1321E-03     62.0450E-03
            1230            1854     64.7278E-03     64.7294E-03
            1230            1870     64.0728E-03     64.7753E-03
            1230            1871     66.9833E-03     67.8915E-03
            1231            1854     64.7278E-03     64.7294E-03
            1231            1855     66.7124E-03     66.9079E-03
            1231            1871     66.9833E-03     67.8915E-03
            1231            1872     69.3728E-03     70.4635E-03
            1232            1855     66.7124E-03     66.9079E-03
            1232            1856     67.8527E-03     68.2606E-03
            1232            1872     69.3728E-03     70.4635E-03
            1232            1873     71.2449E-03     72.4332E-03
            1233            1856     67.8527E-03     68.2606E-03
            1233            1857     68.9578E-03     69.1963E-03
            1233            1873     71.2449E-03     72.4332E-03
            1233            1874     73.4431E-03     74.2096E-03
            1234             130     74.7988E-03     75.1405E-03
            1234             131     69.7508E-03     69.7039E-03
            1234            1857     68.9578E-03     69.1963E-03
            1234            1874     73.4431E-03     74.2096E-03
            1235             390     17.5296E-03     19.2673E-03
            1235             391     18.4854E-03     19.4354E-03
            1235            1858     19.8786E-03     21.2298E-03
            1235            1875     19.1844E-03     20.8060E-03
            1236            1858     19.8786E-03     21.2298E-03
            1236            1859     23.1753E-03     24.8114E-03
            1236            1875     19.1844E-03     20.8060E-03
            1236            1876     22.7529E-03     24.2998E-03
            1237            1859     23.1753E-03     24.8114E-03
            1237            1860     27.0597E-03     28.2396E-03
            1237            1876     22.7529E-03     24.2998E-03
            1237            1877     26.6933E-03     28.1661E-03
            1238            1860     27.0597E-03     28.2396E-03
            1238            1861     30.9818E-03     31.6911E-03
            1238            1877     26.6933E-03     28.1661E-03
            1238            1878     30.7358E-03     31.9232E-03
            1239            1861     30.9818E-03     31.6911E-03
            1239            1862     34.8173E-03     35.3310E-03
            1239            1878     30.7358E-03     31.9232E-03
            1239            1879     34.7199E-03     35.6707E-03
            1240            1862     34.8173E-03     35.3310E-03
            1240            1863     38.5979E-03     39.0142E-03
            1240            1879     34.7199E-03     35.6707E-03
            1240            1880     38.6387E-03     39.4837E-03
            1241            1863     38.5979E-03     39.0142E-03
            1241            1864     42.3578E-03     42.7406E-03
            1241            1880     38.6387E-03     39.4837E-03
            1241            1881     42.5326E-03     43.3262E-03
            1242            1864     42.3578E-03     42.7406E-03
            1242            1865     46.1132E-03     46.4874E-03
            1242            1881     42.5326E-03     43.3262E-03
            1242            1882     46.4160E-03     47.2137E-03
            1243            1865     46.1132E-03     46.4874E-03
            1243            1866     49.8546E-03     50.2463E-03
            1243            1882     46.4160E-03     47.2137E-03
            1243            1883     50.3125E-03     51.1408E-03
            1244            1866     49.8546E-03     50.2463E-03
            1244            1867     53.5815E-03     53.9987E-03
            1244            1883     50.3125E-03     51.1408E-03
            1244            1884     54.1963E-03     55.0959E-03
            1245            1867     53.5815E-03     53.9987E-03
            1245            1868     57.2366E-03     57.7163E-03
            1245            1884     54.1963E-03     55.0959E-03
            1245            1885     58.0681E-03     59.0571E-03
            1246            1868     57.2366E-03     57.7163E-03
            1246            1869     60.7732E-03     61.3363E-03
            1246            1885     58.0681E-03     59.0571E-03
            1246            1886     61.8488E-03     62.9775E-03
            1247            1869     60.7732E-03     61.3363E-03
            1247            1870     64.0728E-03     64.7753E-03
            1247            1886     61.8488E-03     62.9775E-03
            1247            1887     65.4710E-03     66.7620E-03
            1248            1870     64.0728E-03     64.7753E-03
            1248            1871     66.9833E-03     67.8915E-03
            1248            1887     65.4710E-03     66.7620E-03
            1248            1888     68.8207E-03     70.2646E-03
            1249            1871     66.9833E-03     67.8915E-03
            1249            1872     69.3728E-03     70.4635E-03
            1249            1888     68.8207E-03     70.2646E-03
            1249            1889     71.7748E-03     73.3411E-03
            1250            1872     69.3728E-03     70.4635E-03
            1250            1873     71.2449E-03     72.4332E-03
            1250            1889     71.7748E-03     73.3411E-03
            1250            1890     74.5786E-03     75.9403E-03
            1251            1873     71.2449E-03     72.4332E-03
            1251            1874     73.4431E-03     74.2096E-03
            1251            1890     74.5786E-03     75.9403E-03
            1251            1891     77.4970E-03     78.3454E-03
            1252             129     79.0023E-03     79.5662E-03
            1252             130     74.7988E-03     75.1405E-03
            1252            1874     73.4431E-03     74.2096E-03
            1252            1891     77.4970E-03     78.3454E-03
            1253             389     17.3155E-03     18.6904E-03
            1253             390     17.5296E-03     19.2673E-03
            1253            1875     19.1844E-03     20.8060E-03
            1253            1892     18.9538E-03     20.5649E-03
            1254            1875     19.1844E-03     20.8060E-03
            1254            1876     22.7529E-03     24.2998E-03
            1254            1892     18.9538E-03     20.5649E-03
            1254            1893     22.5667E-03     24.3295E-03
            1255            1876     22.7529E-03     24.2998E-03
            1255            1877     26.6933E-03     28.1661E-03
            1255            1893     22.5667E-03     24.3295E-03
            1255            1894     26.5571E-03     28.1803E-03
            1256            1877     26.6933E-03     28.1661E-03
            1256            1878     30.7358E-03     31.9232E-03
            1256            1894     26.5571E-03     28.1803E-03
            1256            1895     30.5609E-03     32.0526E-03
            1257            1878     30.7358E-03     31.9232E-03
            1257            1879     34.7199E-03     35.6707E-03
            1257            1895     30.5609E-03     32.0526E-03
            1257            1896     34.5398E-03     35.8734E-03
            1258            1879     34.7199E-03     35.6707E-03
            1258            1880     38.6387E-03     39.4837E-03
            1258            1896     34.5398E-03     35.8734E-03
            1258            1897     38.4869E-03     39.7102E-03
            1259            1880     38.6387E-03     39.4837E-03
            1259            1881     42.5326E-03     43.3262E-03
            1259            1897     38.4869E-03     39.7102E-03
            1259            1898     42.4134E-03     43.5996E-03
            1260            1881     42.5326E-03     43.3262E-03
            1260            1882     46.4160E-03     47.2137E-03
            1260            1898     42.4134E-03     43.5996E-03
            1260            1899     46.3607E-03     47.5503E-03
            1261            1882     46.4160E-03     47.2137E-03
            1261            1883     50.3125E-03     51.1408E-03
            1261            1899     46.3607E-03     47.5503E-03
            1261            1900     50.3212E-03     51.5595E-03
            1262            1883     50.3125E-03     51.1408E-03
            1262            1884     54.1963E-03     55.0959E-03
            1262            1900     50.3212E-03     51.5595E-03
            1262            1901     54.3202E-03     55.6333E-03
            1263            1884     54.1963E-03     55.0959E-03
            1263            1885     58.0681E-03     59.0571E-03
            1263            1901     54.3202E-03     55.6333E-03
            1263            1902     58.3254E-03     59.7540E-03
            1264            1885     58.0681E-03     59.0571E-03
            1264            1886     61.8488E-03     62.9775E-03
            1264            1902     58.3254E-03     59.7540E-03
            1264            1903     62.3560E-03     63.9034E-03
            1265            1886     61.8488E-03     62.9775E-03
            1265            1887     65.4710E-03     66.7620E-03
            1265            1903     62.3560E-03     63.9034E-03
            1265            1904     66.3292E-03     68.0176E-03
            1266            1887     65.4710E-03     66.7620E-03
            1266            1888     68.8207E-03     70.2646E-03
            1266            1904     66.3292E-03     68.0176E-03
            1266            1905     70.1936E-03     71.9766E-03
            1267            1888     68.8207E-03     70.2646E-03
            1267            1889     71.7748E-03     73.3411E-03
            1267            1905     70.1936E-03     71.9766E-03
            1267            1906     73.9389E-03     75.6476E-03
            1268            1889     71.7748E-03     73.3411E-03
            1268            1890     74.5786E-03     75.9403E-03
            1268            1906     73.9389E-03     75.6476E-03
            1268            1907     77.5120E-03     79.0099E-03
            1269            1890     74.5786E-03     75.9403E-03
            1269            1891     77.4970E-03     78.3454E-03
            1269            1907     77.5120E-03     79.0099E-03
            1269            1908     81.2285E-03     82.2230E-03
            1270             128     83.1847E-03     83.8176E-03
            1270             129     79.0023E-03     79.5662E-03
            1270            1891     77.4970E-03     78.3454E-03
            1270            1908     81.2285E-03     82.2230E-03
            1271             388     17.0857E-03     18.9159E-03
            1271             389     17.3155E-03     18.6904E-03
            1271            1892     18.9538E-03     20.5649E-03
            1271            1909     18.9215E-03     20.7533E-03
            1272            1892     18.9538E-03     20.5649E-03
            1272            1893     22.5667E-03     24.3295E-03
            1272            1909     18.9215E-03     20.7533E-03
            1272            1910     22.6777E-03     24.5422E-03
            1273            1893     22.5667E-03     24.3295E-03
            1273            1894     26.5571E-03     28.1803E-03
            1273            1910     22.6777E-03     24.5422E-03
            1273            1911     26.5266E-03     28.3608E-03
            1274            1894     26.5571E-03     28.1803E-03
            1274            1895     30.5609E-03     32.0526E-03
            1274            1911     26.5266E-03     28.3608E-03
            1274            1912     30.4086E-03     32.1284E-03
            1275            1895     30.5609E-03     32.0526E-03
            1275            1896     34.5398E-03     35.8734E-03
            1275            1912     30.4086E-03     32.1284E-03
            1275            1913     34.2670E-03     35.8938E-03
            1276            1896     34.5398E-03     35.8734E-03
            1276            1897     38.4869E-03     39.7102E-03
            1276            1913     34.2670E-03     35.8938E-03
            1276            1914     38.1242E-03     39.6820E-03
            1277            1897     38.4869E-03     39.7102E-03
            1277            1898     42.4134E-03     43.5996E-03
            1277            1914     38.1242E-03     39.6820E-03
            1277            1915     42.0238E-03     43.5541E-03
            1278            1898     42.4134E-03     43.5996E-03
            1278            1899     46.3607E-03     47.5503E-03
            1278            1915     42.0238E-03     43.5541E-03
            1278            1916     45.9476E-03     47.4926E-03
            1279            1899     46.3607E-03     47.5503E-03
            1279            1900     50.3212E-03     51.5595E-03
            1279            1916     45.9476E-03     47.4926E-03
            1279            1917     49.9238E-03     51.5158E-03
            1280            1900     50.3212E-03     51.5595E-03
            1280            1901     54.3202E-03     55.6333E-03
            1280            1917     49.9238E-03     51.5158E-03
            1280            1918     53.9482E-03     55.6182E-03
            1281            1901     54.3202E-03     55.6333E-03
            1281            1902     58.3254E-03     59.7540E-03
            1281            1918     53.9482E-03     55.6182E-03
            1281            1919     58.0607E-03     59.8252E-03
            1282            1902     58.3254E-03     59.7540E-03
            1282            1903     62.3560E-03     63.9034E-03
            1282            1919     58.0607E-03     59.8252E-03
            1282            1920     62.2488E-03     64.1278E-03
            1283            1903     62.3560E-03     63.9034E-03
            1283            1904     66.3292E-03     68.0176E-03
            1283            1920     62.2488E-03     64.1278E-03
            1283            1921     66.6095E-03     68.5450E-03
            1284            1904     66.3292E-03     68.0176E-03
            1284            1905     70.1936E-03     71.9766E-03
            1284            1921     66.6095E-03     68.5450E-03
            1284            1922     71.0718E-03     73.0394E-03
            1285            1905     70.1936E-03     71.9766E-03
            1285            1906     73.9389E-03     75.6476E-03
            1285            1922     71.0718E-03     73.0394E-03
            1285            1923     75.6024E-03     77.4722E-03
            1286            1906     73.9389E-03     75.6476E-03
            1286            1907     77.5120E-03     79.0099E-03
            1286            1923     75.6024E-03     77.4722E-03
            1286            1924     80.1981E-03     81.7112E-03
            1287            1907     77.5120E-03     79.0099E-03
            1287            1908     81.2285E-03     82.2230E-03
            1287            1924     80.1981E-03     81.7112E-03
            1287            1925     84.6579E-03     85.8789E-03
            1288             127     86.8507E-03     87.9983E-03
            1288             128     83.1847E-03     83.8176E-03
            1288            1908     81.2285E-03     82.2230E-03
            1288            1925     84.6579E-03     85.8789E-03
            1289             387     17.4349E-03     19.3965E-03
            1289             388     17.0857E-03     18.9159E-03
            1289            1909     18.9215E-03     20.7533E-03
            1289            1926     19.2902E-03     21.2910E-03
            1290            1909     18.9215E-03     20.7533E-03
            1290            1910     22.6777E-03     24.5422E-03
            1290            1926     19.2902E-03     21.2910E-03
            1290            1927     22.9702E-03     25.0021E-03
            1291            1910     22.6777E-03     24.5422E-03
            1291            1911     26.5266E-03     28.3608E-03
            1291            1927     22.9702E-03     25.0021E-03
            1291            1928     26.6357E-03     28.6362E-03
            1292            1911     26.5266E-03     28.3608E-03
            1292            1912     30.4086E-03     32.1284E-03
            1292            1928     26.6357E-03     28.6362E-03
            1292            1929     30.2359E-03     32.1692E-03
            1293            1912     30.4086E-03     32.1284E-03
            1293            1913     34.2670E-03     35.8938E-03
            1293            1929     30.2359E-03     32.1692E-03
            1293            1930     33.8620E-03     35.7339E-03
            1294            1913     34.2670E-03     35.8938E-03
            1294            1914     38.1242E-03     39.6820E-03
            1294            1930     33.8620E-03     35.7339E-03
            1294            1931     37.6001E-03     39.4475E-03
            1295            1914     38.1242E-03     39.6820E-03
            1295            1915     42.0238E-03     43.5541E-03
            1295            1931     37.6001E-03     39.4475E-03
            1295            1932     41.3936E-03     43.2327E-03
            1296            1915     42.0238E-03     43.5541E-03
            1296            1916     45.9476E-03     47.4926E-03
            1296            1932     41.3936E-03     43.2327E-03
            1296            1933     45.2543E-03     47.1133E-03
            1297            1916     45.9476E-03     47.4926E-03
            1297            1917     49.9238E-03     51.5158E-03
            1297            1933     45.2543E-03     47.1133E-03
            1297            1934     49.1754E-03     51.0730E-03
            1298            1917     49.9238E-03     51.5158E-03
            1298            1918     53.9482E-03     55.6182E-03
            1298            1934     49.1754E-03     51.0730E-03
            1298            1935     53.1785E-03     55.1396E-03
            1299            1918     53.9482E-03     55.6182E-03
            1299            1919     58.0607E-03     59.8252E-03
            1299            1935     53.1785E-03     55.1396E-03
            1299            1936     57.2945E-03     59.3281E-03
            1300            1919     58.0607E-03     59.8252E-03
            1300            1920     62.2488E-03     64.1278E-03
            1300            1936     57.2945E-03     59.3281E-03
            1300            1937     61.6093E-03     63.7121E-03
            1301            1920     62.2488E-03     64.1278E-03
            1301            1921     66.6095E-03     68.5450E-03
            1301            1937     61.6093E-03     63.7121E-03
            1301            1938     66.1689E-03     68.3287E-03
            1302            1921     66.6095E-03     68.5450E-03
            1302            1922     71.0718E-03     73.0394E-03
            1302            1938     66.1689E-03     68.3287E-03
            1302            1939     71.2620E-03     73.3132E-03
            1303            1922     71.0718E-03     73.0394E-03
            1303            1923     75.6024E-03     77.4722E-03
            1303            1939     71.2620E-03     73.3132E-03
            1303            1940     76.7457E-03     78.6725E-03
            1304            1923     75.6024E-03     77.4722E-03
            1304            1924     80.1981E-03     81.7112E-03
            1304            1940     76.7457E-03     78.6725E-03
            1304            1941     82.3670E-03     84.1364E-03
            1305            1924     80.1981E-03     81.7112E-03
            1305            1925     84.6579E-03     85.8789E-03
            1305            1941     82.3670E-03     84.1364E-03
            1305            1942     88.0918E-03     89.2424E-03
            1306             126     90.9259E-03     91.6139E-03
            1306             127     86.8507E-03     87.9983E-03
            1306            1925     84.6579E-03     85.8789E-03
            1306            1942     88.0918E-03     89.2424E-03
            1307             386     18.2448E-03     20.3053E-03
            1307             387     17.4349E-03     19.3965E-03
            1307            1926     19.2902E-03     21.2910E-03
            1307            1943     20.0731E-03     22.2338E-03
            1308            1926     19.2902E-03     21.2910E-03
            1308            1927     22.9702E-03     25.0021E-03
            1308            1943     20.0731E-03     22.2338E-03
            1308            1944     23.6276E-03     25.8495E-03
            1309            1927     22.9702E-03     25.0021E-03
            1309            1928     26.6357E-03     28.6362E-03
            1309            1944     23.6276E-03     25.8495E-03
            1309            1945     26.8171E-03     28.9567E-03
            1310            1928     26.6357E-03     28.6362E-03
            1310            1929     30.2359E-03     32.1692E-03
            1310            1945     26.8171E-03     28.9567E-03
            1310            1946     29.9596E-03     32.0684E-03
            1311            1929     30.2359E-03     32.1692E-03
            1311            1930     33.8620E-03     35.7339E-03
            1311            1946     29.9596E-03     32.0684E-03
            1311            1947     33.3833E-03     35.4999E-03
            1312            1930     33.8620E-03     35.7339E-03
            1312            1931     37.6001E-03     39.4475E-03
            1312            1947     33.3833E-03     35.4999E-03
            1312            1948     36.9438E-03     39.0612E-03
            1313            1931     37.6001E-03     39.4475E-03
            1313            1932     41.3936E-03     43.2327E-03
            1313            1948     36.9438E-03     39.0612E-03
            1313            1949     40.6144E-03     42.7474E-03
            1314            1932     41.3936E-03     43.2327E-03
            1314            1933     45.2543E-03     47.1133E-03
            1314            1949     40.6144E-03     42.7474E-03
            1314            1950     44.3683E-03     46.5140E-03
            1315            1933     45.2543E-03     47.1133E-03
            1315            1934     49.1754E-03     51.0730E-03
            1315            1950     44.3683E-03     46.5140E-03
            1315            1951     48.1913E-03     50.3646E-03
            1316            1934     49.1754E-03     51.0730E-03
            1316            1935     53.1785E-03     55.1396E-03
            1316            1951     48.1913E-03     50.3646E-03
            1316            1952     52.1144E-03     54.3126E-03
            1317            1935     53.1785E-03     55.1396E-03
            1317            1936     57.2945E-03     59.3281E-03
            1317            1952     52.1144E-03     54.3126E-03
            1317            1953     56.1695E-03     58.4118E-03
            1318            1936     57.2945E-03     59.3281E-03
            1318            1937     61.6093E-03     63.7121E-03
            1318            1953     56.1695E-03     58.4118E-03
            1318            1954     60.4584E-03     62.7284E-03
            1319            1937     61.6093E-03     63.7121E-03
            1319            1938     66.1689E-03     68.3287E-03
            1319            1954     60.4584E-03     62.7284E-03
            1319            1955     65.1439E-03     67.4276E-03
            1320            1938     66.1689E-03     68.3287E-03
            1320            1939     71.2620E-03     73.3132E-03
            1320            1955     65.1439E-03     67.4276E-03
            1320            1956     70.3943E-03     72.6500E-03
            1321            1939     71.2620E-03     73.3132E-03
            1321            1940     76.7457E-03     78.6725E-03
            1321            1956     70.3943E-03     72.6500E-03
            1321            1957     76.9060E-03     78.8134E-03
            1322            1940     76.7457E-03     78.6725E-03
            1322            1941     82.3670E-03     84.1364E-03
            1322            1957     76.9060E-03     78.8134E-03
            1322            1958     84.1923E-03     85.7746E-03
            1323            1941     82.3670E-03     84.1364E-03
            1323            1942     88.0918E-03     89.2424E-03
            1323            1958     84.1923E-03     85.7746E-03
            1323            1959     91.0502E-03     92.7968E-03
            1324             125     94.3353E-03     96.2812E-03
            1324             126     90.9259E-03     91.6139E-03
            1324            1942     88.0918E-03     89.2424E-03
            1324            1959     91.0502E-03     92.7968E-03
            1325             385     19.8403E-03     22.4157E-03
            1325             386     18.2448E-03     20.3053E-03
            1325            1943     20.0731E-03     22.2338E-03
            1325            1960     21.7531E-03     24.1854E-03
            1326            1943     20.0731E-03     22.2338E-03
            1326            1944     23.6276E-03     25.8495E-03
            1326            1960     21.7531E-03     24.1854E-03
            1326            1961     24.5932E-03     26.8237E-03
            1327            1944     23.6276E-03     25.8495E-03
            1327            1945     26.8171E-03     28.9567E-03
            1327            1961     24.5932E-03     26.8237E-03
            1327            1962     26.8132E-03     29.0437E-03
            1328            1945     26.8171E-03     28.9567E-03
            1328            1946     29.9596E-03     32.0684E-03
            1328            1962     26.8132E-03     29.0437E-03
            1328            1963     29.6637E-03     31.9744E-03
            1329            1946     29.9596E-03     32.0684E-03
            1329            1947     33.3833E-03     35.4999E-03
            1329            1963     29.6637E-03     31.9744E-03
            1329            1964     32.8597E-03     35.2249E-03
            1330            1947     33.3833E-03     35.4999E-03
            1330            1948     36.9438E-03     39.0612E-03
            1330            1964     32.8597E-03     35.2249E-03
            1330            1965     36.2464E-03     38.6584E-03
            1331            1948     36.9438E-03     39.0612E-03
            1331            1949     40.6144E-03     42.7474E-03
            1331            1965     36.2464E-03     38.6584E-03
            1331            1966     39.7831E-03     42.2132E-03
            1332            1949     40.6144E-03     42.7474E-03
            1332            1950     44.3683E-03     46.5140E-03
            1332            1966     39.7831E-03     42.2132E-03
            1332            1967     43.3982E-03     45.8389E-03
            1333            1950     44.3683E-03     46.5140E-03
            1333            1951     48.1913E-03     50.3646E-03
            1333            1967     43.3982E-03     45.8389E-03
            1333            1968     47.1070E-03     49.5374E-03
            1334            1951     48.1913E-03     50.3646E-03
            1334            1952     52.1144E-03     54.3126E-03
            1334            1968     47.1070E-03     49.5374E-03
            1334            1969     50.8960E-03     53.3176E-03
            1335            1952     52.1144E-03     54.3126E-03
            1335            1953     56.1695E-03     58.4118E-03
            1335            1969     50.8960E-03     53.3176E-03
            1335            1970     54.8462E-03     57.2386E-03
            1336            1953     56.1695E-03     58.4118E-03
            1336            1954     60.4584E-03     62.7284E-03
            1336            1970     54.8462E-03     57.2386E-03
            1336            1971     59.0076E-03     61.3892E-03
            1337            1954     60.4584E-03     62.7284E-03
            1337            1955     65.1439E-03     67.4276E-03
            1337            1971     59.0076E-03     61.3892E-03
            1337            1972     63.5971E-03     65.9381E-03
            1338            1955     65.1439E-03     67.4276E-03
            1338            1956     70.3943E-03     72.6500E-03
            1338            1972     63.5971E-03     65.9381E-03
            1338            1973     68.8442E-03     71.1689E-03
            1339            1956     70.3943E-03     72.6500E-03
            1339            1957     76.9060E-03     78.8134E-03
            1339            1973     68.8442E-03     71.1689E-03
            1339            1974     75.2407E-03     77.4826E-03
            1340            1957     76.9060E-03     78.8134E-03
            1340            1958     84.1923E-03     85.7746E-03
            1340            1974     75.2407E-03     77.4826E-03
            1340            1975     84.3432E-03     85.9087E-03
            1341            1958     84.1923E-03     85.7746E-03
            1341            1959     91.0502E-03     92.7968E-03
            1341            1975     84.3432E-03     85.9087E-03
            1341            1976     94.3052E-03     94.8457E-03
            1342             124     98.7852E-03     98.8440E-03
            1342             125     94.3353E-03     96.2812E-03
            1342            1959     91.0502E-03     92.7968E-03
            1342            1976     94.3052E-03     94.8457E-03
            1343             384     24.0425E-03     26.1169E-03
            1343             385     19.8403E-03     22.4157E-03
            1343            1960     21.7531E-03     24.1854E-03
            1343            1977     24.3671E-03     26.3719E-03
            1344            1960     21.7531E-03     24.1854E-03
            1344            1961     24.5932E-03     26.8237E-03
            1344            1977     24.3671E-03     26.3719E-03
            1344            1978     25.0537E-03     27.1621E-03
            1345            1961     24.5932E-03     26.8237E-03
            1345            1962     26.8132E-03     29.0437E-03
            1345            1978     25.0537E-03     27.1621E-03
            1345            1979     26.7338E-03     29.1031E-03
            1346            1962     26.8132E-03     29.0437E-03
            1346            1963     29.6637E-03     31.9744E-03
            1346            1979     26.7338E-03     29.1031E-03
            1346            1980     29.4055E-03     31.9487E-03
            1347            1963     29.6637E-03     31.9744E-03
            1347            1964     32.8597E-03     35.2249E-03
            1347            1980     29.4055E-03     31.9487E-03
            1347            1981     32.3687E-03     35.0405E-03
            1348            1964     32.8597E-03     35.2249E-03
            1348            1965     36.2464E-03     38.6584E-03
            1348            1981     32.3687E-03     35.0405E-03
            1348            1982     35.6199E-03     38.3596E-03
            1349            1965     36.2464E-03     38.6584E-03
            1349            1966     39.7831E-03     42.2132E-03
            1349            1982     35.6199E-03     38.3596E-03
            1349            1983     38.9858E-03     41.7573E-03
            1350            1966     39.7831E-03     42.2132E-03
            1350            1967     43.3982E-03     45.8389E-03
            1350            1983     38.9858E-03     41.7573E-03
            1350            1984     42.4727E-03     45.2325E-03
            1351            1967     43.3982E-03     45.8389E-03
            1351            1968     47.1070E-03     49.5374E-03
            1351            1984     42.4727E-03     45.2325E-03
            1351            1985     46.0277E-03     48.7474E-03
            1352            1968     47.1070E-03     49.5374E-03
            1352            1969     50.8960E-03     53.3176E-03
            1352            1985     46.0277E-03     48.7474E-03
            1352            1986     49.6968E-03     52.3399E-03
            1353            1969     50.8960E-03     53.3176E-03
            1353            1970     54.8462E-03     57.2386E-03
            1353            1986     49.6968E-03     52.3399E-03
            1353            1987     53.4833E-03     56.0292E-03
            1354            1970     54.8462E-03     57.2386E-03
            1354            1971     59.0076E-03     61.3892E-03
            1354            1987     53.4833E-03     56.0292E-03
            1354            1988     57.5219E-03     59.9421E-03
            1355            1971     59.0076E-03     61.3892E-03
            1355            1972     63.5971E-03     65.9381E-03
            1355            1988     57.5219E-03     59.9421E-03
            1355            1989     61.8738E-03     64.1808E-03
            1356            1972     63.5971E-03     65.9381E-03
            1356            1973     68.8442E-03     71.1689E-03
            1356            1989     61.8738E-03     64.1808E-03
            1356            1990     66.9210E-03     69.1302E-03
            1357            1973     68.8442E-03     71.1689E-03
            1357            1974     75.2407E-03     77.4826E-03
            1357            1990     66.9210E-03     69.1302E-03
            1357            1991     72.8603E-03     75.0980E-03
            1358            1974     75.2407E-03     77.4826E-03
            1358            1975     84.3432E-03     85.9087E-03
            1358            1991     72.8603E-03     75.0980E-03
            1358            1992     81.1664E-03     83.6144E-03
            1359            1975     84.3432E-03     85.9087E-03
            1359            1976     94.3052E-03     94.8457E-03
            1359            1992     81.1664E-03     83.6144E-03
            1359            1993     94.3024E-03     96.2057E-03
            1360             123     102.247E-03     103.492E-03
            1360             124     98.7852E-03     98.8440E-03
            1360            1976     94.3052E-03     94.8457E-03
            1360            1993     94.3024E-03     96.2057E-03
            1361             383     30.3923E-03     30.7122E-03
            1361             384     24.0425E-03     26.1169E-03
            1361            1977     24.3671E-03     26.3719E-03
            1361            1994     30.3563E-03     30.7368E-03
            1362            1977     24.3671E-03     26.3719E-03
            1362            1978     25.0537E-03     27.1621E-03
            1362            1994     30.3563E-03     30.7368E-03
            1362            1995     31.2743E-03     31.8919E-03
            1363            1978     25.0537E-03     27.1621E-03
            1363            1979     26.7338E-03     29.1031E-03
            1363            1995     31.2743E-03     31.8919E-03
            1363            1996     33.7499E-03     34.7210E-03
            1364            1979     26.7338E-03     29.1031E-03
            1364            1980     29.4055E-03     31.9487E-03
            1364            1996     33.7499E-03     34.7210E-03
            1364            1997     36.9393E-03     38.2045E-03
            1365            1980     29.4055E-03     31.9487E-03
            1365            1981     32.3687E-03     35.0405E-03
            1365            1997     36.9393E-03     38.2045E-03
            1365            1998     40.4924E-03     41.9322E-03
            1366            1981     32.3687E-03     35.0405E-03
            1366            1982     35.6199E-03     38.3596E-03
            1366            1998     40.4924E-03     41.9322E-03
            1366            1999     44.2680E-03     45.7992E-03
            1367            1982     35.6199E-03     38.3596E-03
            1367            1983     38.9858E-03     41.7573E-03
            1367            1999     44.2680E-03     45.7992E-03
            1367            2000     48.1624E-03     49.7104E-03
            1368            1983     38.9858E-03     41.7573E-03
            1368            1984     42.4727E-03     45.2325E-03
            1368            2000     48.1624E-03     49.7104E-03
            1368            2001     52.1165E-03     53.6318E-03
            1369            1984     42.4727E-03     45.2325E-03
            1369            1985     46.0277E-03     48.7474E-03
            1369            2001     52.1165E-03     53.6318E-03
            1369            2002     56.1076E-03     57.5230E-03
            1370            1985     46.0277E-03     48.7474E-03
            1370            1986     49.6968E-03     52.3399E-03
            1370            2002     56.1076E-03     57.5230E-03
            1370            2003     60.0997E-03     61.3853E-03
            1371            1986     49.6968E-03     52.3399E-03
            1371            1987     53.4833E-03     56.0292E-03
            1371            2003     60.0997E-03     61.3853E-03
            1371            2004     64.1259E-03     65.1928E-03
            1372            1987     53.4833E-03     56.0292E-03
            1372            1988     57.5219E-03     59.9421E-03
            1372            2004     64.1259E-03     65.1928E-03
            1372            2005     68.1500E-03     68.9936E-03
            1373            1988     57.5219E-03     59.9421E-03
            1373            1989     61.8738E-03     64.1808E-03
            1373            2005     68.1500E-03     68.9936E-03
            1373            2006     72.2938E-03     72.7989E-03
            1374            1989     61.8738E-03     64.1808E-03
            1374            1990     66.9210E-03     69.1302E-03
            1374            2006     72.2938E-03     72.7989E-03
            1374            2007     76.5044E-03     76.7520E-03
            1375            1990     66.9210E-03     69.1302E-03
            1375            1991     72.8603E-03     75.0980E-03
            1375            2007     76.5044E-03     76.7520E-03
            1375            2008     81.1523E-03     81.0955E-03
            1376            1991     72.8603E-03     75.0980E-03
            1376            1992     81.1664E-03     83.6144E-03
            1376            2008     81.1523E-03     81.0955E-03
            1376            2009     86.1392E-03     86.1754E-03
            1377            1992     81.1664E-03     83.6144E-03
            1377            1993     94.3024E-03     96.2057E-03
            1377            2009     86.1392E-03     86.1754E-03
            1377            2010     93.5854E-03     95.2333E-03
            1378             122     98.6771E-03     101.508E-03
            1378             123     102.247E-03     103.492E-03
            1378            1993     94.3024E-03     96.2057E-03
            1378            2010     93.5854E-03     95.2333E-03
            1379             382     29.7926E-03     33.0145E-03
            1379             383     30.3923E-03     30.7122E-03
            1379            1994     30.3563E-03     30.7368E-03
            1379            2011     32.2187E-03     34.0924E-03
            1380            1994     30.3563E-03     30.7368E-03
            1380            1995     31.2743E-03     31.8919E-03
            1380            2011     32.2187E-03     34.0924E-03
            1380            2012     36.3278E-03     36.5861E-03
            1381            1995     31.2743E-03     31.8919E-03
            1381            1996     33.7499E-03     34.7210E-03
            1381            2012     36.3278E-03     36.5861E-03
            1381            2013     40.1557E-03     40.1699E-03
            1382            1996     33.7499E-03     34.7210E-03
            1382            1997     36.9393E-03     38.2045E-03
            1382            2013     40.1557E-03     40.1699E-03
            1382            2014     44.4413E-03     44.5483E-03
            1383            1997     36.9393E-03     38.2045E-03
            1383            1998     40.4924E-03     41.9322E-03
            1383            2014     44.4413E-03     44.5483E-03
            1383            2015     48.8869E-03     49.1002E-03
            1384            1998     40.4924E-03     41.9322E-03
            1384            1999     44.2680E-03     45.7992E-03
            1384            2015     48.8869E-03     49.1002E-03
            1384            2016     53.5062E-03     53.7737E-03
            1385            1999     44.2680E-03     45.7992E-03
            1385            2000     48.1624E-03     49.7104E-03
            1385            2016     53.5062E-03     53.7737E-03
            1385            2017     58.1736E-03     58.4522E-03
            1386            2000     48.1624E-03     49.7104E-03
            1386            2001     52.1165E-03     53.6318E-03
            1386            2017     58.1736E-03     58.4522E-03
            1386            2018     62.8761E-03     63.1085E-03
            1387            2001     52.1165E-03     53.6318E-03
            1387            2002     56.1076E-03     57.5230E-03
            1387            2018     62.8761E-03     63.1085E-03
            1387            2019     67.5471E-03     67.6983E-03
            1388            2002     56.1076E-03     57.5230E-03
            1388            2003     60.0997E-03     61.3853E-03
            1388            2019     67.5471E-03     67.6983E-03
            1388            2020     72.1739E-03     72.1910E-03
            1389            2003     60.0997E-03     61.3853E-03
            1389            2004     64.1259E-03     65.1928E-03
            1389            2020     72.1739E-03     72.1910E-03
            1389            2021     76.6955E-03     76.5437E-03
            1390            2004     64.1259E-03     65.1928E-03
            1390            2005     68.1500E-03     68.9936E-03
            1390            2021     76.6955E-03     76.5437E-03
            1390            2022     81.0854E-03     80.7192E-03
            1391            2005     68.1500E-03     68.9936E-03
            1391            2006     72.2938E-03     72.7989E-03
            1391            2022     81.0854E-03     80.7192E-03
            1391            2023     85.2626E-03     84.6505E-03
            1392            2006     72.2938E-03     72.7989E-03
            1392            2007     76.5044E-03     76.7520E-03
            1392            2023     85.2626E-03     84.6505E-03
            1392            2024     89.1809E-03     88.3232E-03
            1393            2007     76.5044E-03     76.7520E-03
            1393            2008     81.1523E-03     81.0955E-03
            1393            2024     89.1809E-03     88.3232E-03
            1393            2025     92.6743E-03     91.6094E-03
            1394            2008     81.1523E-03     81.0955E-03
            1394            2009     86.1392E-03     86.1754E-03
            1394            2025     92.6743E-03     91.6094E-03
            1394            2026     95.6990E-03     94.5859E-03
            1395            2009     86.1392E-03     86.1754E-03
            1395            2010     93.5854E-03     95.2333E-03
            1395            2026     95.6990E-03     94.5859E-03
            1395            2027     98.0229E-03     96.5059E-03
            1396             121     98.9008E-03     96.9585E-03
            1396             122     98.6771E-03     101.508E-03
            1396            2010     93.5854E-03     95.2333E-03
            1396            2027     98.0229E-03     96.5059E-03
            1397             381     26.0991E-03     29.5037E-03
            1397             382     29.7926E-03     33.0145E-03
            1397            2011     32.2187E-03     34.0924E-03
            1397            2028     28.7851E-03     31.9687E-03
            1398            2011     32.2187E-03     34.0924E-03
            1398            2012     36.3278E-03     36.5861E-03
            1398            2028     28.7851E-03     31.9687E-03
            1398            2029     34.0653E-03     36.1861E-03
            1399            2012     36.3278E-03     36.5861E-03
            1399            2013     40.1557E-03     40.1699E-03
            1399            2029     34.0653E-03     36.1861E-03
            1399            2030     39.1348E-03     40.1630E-03
            1400            2013     40.1557E-03     40.1699E-03
            1400            2014     44.4413E-03     44.5483E-03
            1400            2030     39.1348E-03     40.1630E-03
            1400            2031     44.0929E-03     44.8059E-03
            1401            2014     44.4413E-03     44.5483E-03
            1401            2015     48.8869E-03     49.1002E-03
            1401            2031     44.0929E-03     44.8059E-03
            1401            2032     49.0647E-03     49.6867E-03
            1402            2015     48.8869E-03     49.1002E-03
            1402            2016     53.5062E-03     53.7737E-03
            1402            2032     49.0647E-03     49.6867E-03
            1402            2033     54.0625E-03     54.6613E-03
            1403            2016     53.5062E-03     53.7737E-03
            1403            2017     58.1736E-03     58.4522E-03
            1403            2033     54.0625E-03     54.6613E-03
            1403            2034     59.0902E-03     59.6781E-03
            1404            2017     58.1736E-03     58.4522E-03
            1404            2018     62.8761E-03     63.1085E-03
            1404            2034     59.0902E-03     59.6781E-03
            1404            2035     64.1217E-03     64.6985E-03
            1405            2018     62.8761E-03     63.1085E-03
            1405            2019     67.5471E-03     67.6983E-03
            1405            2035     64.1217E-03     64.6985E-03
            1405            2036     69.1592E-03     69.7058E-03
            1406            2019     67.5471E-03     67.6983E-03
            1406            2020     72.1739E-03     72.1910E-03
            1406            2036     69.1592E-03     69.7058E-03
            1406            2037     74.1554E-03     74.6776E-03
            1407            2020     72.1739E-03     72.1910E-03
            1407            2021     76.6955E-03     76.5437E-03
            1407            2037     74.1554E-03     74.6776E-03
            1407            2038     79.1005E-03     79.5819E-03
            1408            2021     76.6955E-03     76.5437E-03
            1408            2022     81.0854E-03     80.7192E-03
            1408            2038     79.1005E-03     79.5819E-03
            1408            2039     83.9124E-03     84.3860E-03
            1409            2022     81.0854E-03     80.7192E-03
            1409            2023     85.2626E-03     84.6505E-03
            1409            2039     83.9124E-03     84.3860E-03
            1409            2040     88.5397E-03     89.0232E-03
            1410            2023     85.2626E-03     84.6505E-03
            1410            2024     89.1809E-03     88.3232E-03
            1410            2040     88.5397E-03     89.0232E-03
            1410            2041     92.8542E-03     93.4311E-03
            1411            2024     89.1809E-03     88.3232E-03
            1411            2025     92.6743E-03     91.6094E-03
            1411            2041     92.8542E-03     93.4311E-03
            1411            2042     96.7228E-03     97.4857E-03
            1412            2025     92.6743E-03     91.6094E-03
            1412            2026     95.6990E-03     94.5859E-03
            1412            2042     96.7228E-03     97.4857E-03
            1412            2043     100.131E-03     100.979E-03
            1413            2026     95.6990E-03     94.5859E-03
            1413            2027     98.0229E-03     96.5059E-03
            1413            2043     100.131E-03     100.979E-03
            1413            2044     103.087E-03     103.576E-03
            1414             120     104.479E-03     104.583E-03
            1414             121     98.9008E-03     96.9585E-03
            1414            2027     98.0229E-03     96.5059E-03
            1414            2044     103.087E-03     103.576E-03
            1415             380     24.7845E-03     26.6822E-03
            1415             381     26.0991E-03     29.5037E-03
            1415            2028     28.7851E-03     31.9687E-03
            1415            2045     27.2895E-03     29.6309E-03
            1416            2028     28.7851E-03     31.9687E-03
            1416            2029     34.0653E-03     36.1861E-03
            1416            2045     27.2895E-03     29.6309E-03
            1416            2046     32.6920E-03     35.2482E-03
            1417            2029     34.0653E-03     36.1861E-03
            1417            2030     39.1348E-03     40.1630E-03
            1417            2046     32.6920E-03     35.2482E-03
            1417            2047     38.3614E-03     40.2680E-03
            1418            2030     39.1348E-03     40.1630E-03
            1418            2031     44.0929E-03     44.8059E-03
            1418            2047     38.3614E-03     40.2680E-03
            1418            2048     43.8473E-03     45.1917E-03
            1419            2031     44.0929E-03     44.8059E-03
            1419            2032     49.0647E-03     49.6867E-03
            1419            2048     43.8473E-03     45.1917E-03
            1419            2049     49.2209E-03     50.3481E-03
            1420            2032     49.0647E-03     49.6867E-03
            1420            2033     54.0625E-03     54.6613E-03
            1420            2049     49.2209E-03     50.3481E-03
            1420            2050     54.5339E-03     55.5517E-03
            1421            2033     54.0625E-03     54.6613E-03
            1421            2034     59.0902E-03     59.6781E-03
            1421            2050     54.5339E-03     55.5517E-03
            1421            2051     59.8312E-03     60.8174E-03
            1422            2034     59.0902E-03     59.6781E-03
            1422            2035     64.1217E-03     64.6985E-03
            1422            2051     59.8312E-03     60.8174E-03
            1422            2052     65.1351E-03     66.1155E-03
            1423            2035     64.1217E-03     64.6985E-03
            1423            2036     69.1592E-03     69.7058E-03
            1423            2052     65.1351E-03     66.1155E-03
            1423            2053     70.4345E-03     71.4429E-03
            1424            2036     69.1592E-03     69.7058E-03
            1424            2037     74.1554E-03     74.6776E-03
            1424            2053     70.4345E-03     71.4429E-03
            1424            2054     75.7404E-03     76.7845E-03
            1425            2037     74.1554E-03     74.6776E-03
            1425            2038     79.1005E-03     79.5819E-03
            1425            2054     75.7404E-03     76.7845E-03
            1425            2055     80.9963E-03     82.1237E-03
            1426            2038     79.1005E-03     79.5819E-03
            1426            2039     83.9124E-03     84.3860E-03
            1426            2055     80.9963E-03     82.1237E-03
            1426            2056     86.1747E-03     87.4048E-03
            1427            2039     83.9124E-03     84.3860E-03
            1427            2040     88.5397E-03     89.0232E-03
            1427            2056     86.1747E-03     87.4048E-03
            1427            2057     91.1782E-03     92.5717E-03
            1428            2040     88.5397E-03     89.0232E-03
            1428            2041     92.8542E-03     93.4311E-03
            1428            2057     91.1782E-03     92.5717E-03
            1428            2058     95.8646E-03     97.4858E-03
            1429            2041     92.8542E-03     93.4311E-03
            1429            2042     96.7228E-03     97.4857E-03
            1429            2058     95.8646E-03     97.4858E-03
            1429            2059     100.208E-03     101.960E-03
            1430            2042     96.7228E-03     97.4857E-03
            1430            2043     100.131E-03     100.979E-03
            1430            2059     100.208E-03     101.960E-03
            1430            2060     103.940E-03     105.754E-03
            1431            2043     100.131E-03     100.979E-03
            1431            2044     103.087E-03     103.576E-03
            1431            2060     103.940E-03     105.754E-03
            1431            2061     107.453E-03     108.848E-03
            1432             119     109.307E-03     110.266E-03
            1432             120     104.479E-03     104.583E-03
            1432            2044     103.087E-03     103.576E-03
            1432            2061     107.453E-03     108.848E-03
            1433             379     23.5240E-03     26.4726E-03
            1433             380     24.7845E-03     26.6822E-03
            1433            2045     27.2895E-03     29.6309E-03
            1433            2062     26.3712E-03     29.0696E-03
            1434            2045     27.2895E-03     29.6309E-03
            1434            2046     32.6920E-03     35.2482E-03
            1434            2062     26.3712E-03     29.0696E-03
            1434            2063     32.1185E-03     34.5663E-03
            1435            2046     32.6920E-03     35.2482E-03
            1435            2047     38.3614E-03     40.2680E-03
            1435            2063     32.1185E-03     34.5663E-03
            1435            2064     37.9420E-03     40.2178E-03
            1436            2047     38.3614E-03     40.2680E-03
            1436            2048     43.8473E-03     45.1917E-03
            1436            2064     37.9420E-03     40.2178E-03
            1436            2065     43.6934E-03     45.5800E-03
            1437            2048     43.8473E-03     45.1917E-03
            1437            2049     49.2209E-03     50.3481E-03
            1437            2065     43.6934E-03     45.5800E-03
            1437            2066     49.2894E-03     50.8760E-03
            1438            2049     49.2209E-03     50.3481E-03
            1438            2050     54.5339E-03     55.5517E-03
            1438            2066     49.2894E-03     50.8760E-03
            1438            2067     54.7949E-03     56.2513E-03
            1439            2050     54.5339E-03     55.5517E-03
            1439            2051     59.8312E-03     60.8174E-03
            1439            2067     54.7949E-03     56.2513E-03
            1439            2068     60.2671E-03     61.6609E-03
            1440            2051     59.8312E-03     60.8174E-03
            1440            2052     65.1351E-03     66.1155E-03
            1440            2068     60.2671E-03     61.6609E-03
            1440            2069     65.7333E-03     67.1373E-03
            1441            2052     65.1351E-03     66.1155E-03
            1441            2053     70.4345E-03     71.4429E-03
            1441            2069     65.7333E-03     67.1373E-03
            1441            2070     71.2264E-03     72.6754E-03
            1442            2053     70.4345E-03     71.4429E-03
            1442            2054     75.7404E-03     76.7845E-03
            1442            2070     71.2264E-03     72.6754E-03
            1442            2071     76.7249E-03     78.2728E-03
            1443            2054     75.7404E-03     76.7845E-03
            1443            2055     80.9963E-03     82.1237E-03
            1443            2071     76.7249E-03     78.2728E-03
            1443            2072     82.2407E-03     83.9102E-03
            1444            2055     80.9963E-03     82.1237E-03
            1444            2056     86.1747E-03     87.4048E-03
            1444            2072     82.2407E-03     83.9102E-03
            1444            2073     87.7071E-03     89.5550E-03
            1445            2056     86.1747E-03     87.4048E-03
            1445            2057     91.1782E-03     92.5717E-03
            1445            2073     87.7071E-03     89.5550E-03
            1445            2074     93.0559E-03     95.1054E-03
            1446            2057     91.1782E-03     92.5717E-03
            1446            2058     95.8646E-03     97.4858E-03
            1446            2074     93.0559E-03     95.1054E-03
            1446            2075     98.2114E-03     100.413E-03
            1447            2058     95.8646E-03     97.4858E-03
            1447            2059     100.208E-03     101.960E-03
            1447            2075     98.2114E-03     100.413E-03
            1447            2076     102.938E-03     105.262E-03
            1448            2059     100.208E-03     101.960E-03
            1448            2060     103.940E-03     105.754E-03
            1448            2076     102.938E-03     105.262E-03
            1448            2077     107.319E-03     109.389E-03
            1449            2060     103.940E-03     105.754E-03
            1449            2061     107.453E-03     108.848E-03
            1449            2077     107.319E-03     109.389E-03
            1449            2078     111.423E-03     112.761E-03
            1450             118     113.378E-03     114.278E-03
            1450             119     109.307E-03     110.266E-03
            1450            2061     107.453E-03     108.848E-03
            1450            2078     111.423E-03     112.761E-03
            1451             378     23.3695E-03     25.8547E-03
            1451             379     23.5240E-03     26.4726E-03
            1451            2062     26.3712E-03     29.0696E-03
            1451            2079     26.1479E-03     28.8128E-03
            1452            2062     26.3712E-03     29.0696E-03
            1452            2063     32.1185E-03     34.5663E-03
            1452            2079     26.1479E-03     28.8128E-03
            1452            2080     31.9202E-03     34.6113E-03
            1453            2063     32.1185E-03     34.5663E-03
            1453            2064     37.9420E-03     40.2178E-03
            1453            2080     31.9202E-03     34.6113E-03
            1453            2081     37.8373E-03     40.2671E-03
            1454            2064     37.9420E-03     40.2178E-03
            1454            2065     43.6934E-03     45.5800E-03
            1454            2081     37.8373E-03     40.2671E-03
            1454            2082     43.5971E-03     45.8034E-03
            1455            2065     43.6934E-03     45.5800E-03
            1455            2066     49.2894E-03     50.8760E-03
            1455            2082     43.5971E-03     45.8034E-03
            1455            2083     49.2343E-03     51.2143E-03
            1456            2066     49.2894E-03     50.8760E-03
            1456            2067     54.7949E-03     56.2513E-03
            1456            2083     49.2343E-03     51.2143E-03
            1456            2084     54.7916E-03     56.6189E-03
            1457            2067     54.7949E-03     56.2513E-03
            1457            2068     60.2671E-03     61.6609E-03
            1457            2084     54.7916E-03     56.6189E-03
            1457            2085     60.3149E-03     62.0902E-03
            1458            2068     60.2671E-03     61.6609E-03
            1458            2069     65.7333E-03     67.1373E-03
            1458            2085     60.3149E-03     62.0902E-03
            1458            2086     65.8610E-03     67.6428E-03
            1459            2069     65.7333E-03     67.1373E-03
            1459            2070     71.2264E-03     72.6754E-03
            1459            2086     65.8610E-03     67.6428E-03
            1459            2087     71.4322E-03     73.2824E-03
            1460            2070     71.2264E-03     72.6754E-03
            1460            2071     76.7249E-03     78.2728E-03
            1460            2087     71.4322E-03     73.2824E-03
            1460            2088     77.0620E-03     79.0185E-03
            1461            2071     76.7249E-03     78.2728E-03
            1461            2072     82.2407E-03     83.9102E-03
            1461            2088     77.0620E-03     79.0185E-03
            1461            2089     82.7266E-03     84.8406E-03
            1462            2072     82.2407E-03     83.9102E-03
            1462            2073     87.7071E-03     89.5550E-03
            1462            2089     82.7266E-03     84.8406E-03
            1462            2090     88.4490E-03     90.7286E-03
            1463            2073     87.7071E-03     89.5550E-03
            1463            2074     93.0559E-03     95.1054E-03
            1463            2090     88.4490E-03     90.7286E-03
            1463            2091     94.1566E-03     96.6132E-03
            1464            2074     93.0559E-03     95.1054E-03
            1464            2075     98.2114E-03     100.413E-03
            1464            2091     94.1566E-03     96.6132E-03
            1464            2092     99.7535E-03     102.331E-03
            1465            2075     98.2114E-03     100.413E-03
            1465            2076     102.938E-03     105.262E-03
            1465            2092     99.7535E-03     102.331E-03
            1465            2093     105.156E-03     107.637E-03
            1466            2076     102.938E-03     105.262E-03
            1466            2077     107.319E-03     109.389E-03
            1466            2093     105.156E-03     107.637E-03
            1466            2094     110.170E-03     112.342E-03
            1467            2077     107.319E-03     109.389E-03
            1467            2078     111.423E-03     112.761E-03
            1467            2094     110.170E-03     112.342E-03
            1467            2095     114.926E-03     116.451E-03
            1468             117     117.284E-03     118.369E-03
            1468             118     113.378E-03     114.278E-03
            1468            2078     111.423E-03     112.761E-03
            1468            2095     114.926E-03     116.451E-03
            1469             377     23.3035E-03     26.2147E-03
            1469             378     23.3695E-03     25.8547E-03
            1469            2079     26.1479E-03     28.8128E-03
            1469            2096     26.2608E-03     29.1315E-03
            1470            2079     26.1479E-03     28.8128E-03
            1470            2080     31.9202E-03     34.6113E-03
            1470            2096     26.2608E-03     29.1315E-03
            1470            2097     32.1487E-03     34.9323E-03
            1471            2080     31.9202E-03     34.6113E-03
            1471            2081     37.8373E-03     40.2671E-03
            1471            2097     32.1487E-03     34.9323E-03
            1471            2098     37.9074E-03     40.5306E-03
            1472            2081     37.8373E-03     40.2671E-03
            1472            2082     43.5971E-03     45.8034E-03
            1472            2098     37.9074E-03     40.5306E-03
            1472            2099     43.5313E-03     45.9470E-03
            1473            2082     43.5971E-03     45.8034E-03
            1473            2083     49.2343E-03     51.2143E-03
            1473            2099     43.5313E-03     45.9470E-03
            1473            2100     49.0381E-03     51.2862E-03
            1474            2083     49.2343E-03     51.2143E-03
            1474            2084     54.7916E-03     56.6189E-03
            1474            2100     49.0381E-03     51.2862E-03
            1474            2101     54.4965E-03     56.6286E-03
            1475            2084     54.7916E-03     56.6189E-03
            1475            2085     60.3149E-03     62.0902E-03
            1475            2101     54.4965E-03     56.6286E-03
            1475            2102     59.9842E-03     62.0723E-03
            1476            2085     60.3149E-03     62.0902E-03
            1476            2086     65.8610E-03     67.6428E-03
            1476            2102     59.9842E-03     62.0723E-03
            1476            2103     65.4989E-03     67.6040E-03
            1477            2086     65.8610E-03     67.6428E-03
            1477            2087     71.4322E-03     73.2824E-03
            1477            2103     65.4989E-03     67.6040E-03
            1477            2104     71.0773E-03     73.2491E-03
            1478            2087     71.4322E-03     73.2824E-03
            1478            2088     77.0620E-03     79.0185E-03
            1478            2104     71.0773E-03     73.2491E-03
            1478            2105     76.7235E-03     79.0049E-03
            1479            2088     77.0620E-03     79.0185E-03
            1479            2089     82.7266E-03     84.8406E-03
            1479            2105     76.7235E-03     79.0049E-03
            1479            2106     82.4808E-03     84.9005E-03
            1480            2089     82.7266E-03     84.8406E-03
            1480            2090     88.4490E-03     90.7286E-03
            1480            2106     82.4808E-03     84.9005E-03
            1480            2107     88.3423E-03     90.9245E-03
            1481            2090     88.4490E-03     90.7286E-03
            1481            2091     94.1566E-03     96.6132E-03
            1481            2107     88.3423E-03     90.9245E-03
            1481            2108     94.4009E-03     97.0832E-03
            1482            2091     94.1566E-03     96.6132E-03
            1482            2092     99.7535E-03     102.331E-03
            1482            2108     94.4009E-03     97.0832E-03
            1482            2109     100.545E-03     103.291E-03
            1483            2092     99.7535E-03     102.331E-03
            1483            2093     105.156E-03     107.637E-03
            1483            2109     100.545E-03     103.291E-03
            1483            2110     106.668E-03     109.298E-03
            1484            2093     105.156E-03     107.637E-03
            1484            2094     110.170E-03     112.342E-03
            1484            2110     106.668E-03     109.298E-03
            1484            2111     112.630E-03     114.816E-03
            1485            2094     110.170E-03     112.342E-03
            1485            2095     114.926E-03     116.451E-03
            1485            2111     112.630E-03     114.816E-03
            1485            2112     118.088E-03     119.825E-03
            1486             116     120.676E-03     122.241E-03
            1486             117     117.284E-03     118.369E-03
            1486            2095     114.926E-03     116.451E-03
            1486            2112     118.088E-03     119.825E-03
            1487             376     23.9027E-03     27.0520E-03
            1487             377     23.3035E-03     26.2147E-03
            1487            2096     26.2608E-03     29.1315E-03
            1487            2113     26.9105E-03     29.9524E-03
            1488            2096     26.2608E-03     29.1315E-03
            1488            2097     32.1487E-03     34.9323E-03
            1488            2113     26.9105E-03     29.9524E-03
            1488            2114     32.6941E-03     35.5847E-03
            1489            2097     32.1487E-03     34.9323E-03
            1489            2098     37.9074E-03     40.5306E-03
            1489            2114     32.6941E-03     35.5847E-03
            1489            2115     38.1850E-03     40.9467E-03
            1490            2098     37.9074E-03     40.5306E-03
            1490            2099     43.5313E-03     45.9470E-03
            1490            2115     38.1850E-03     40.9467E-03
            1490            2116     43.4566E-03     46.0282E-03
            1491            2099     43.5313E-03     45.9470E-03
            1491            2100     49.0381E-03     51.2862E-03
            1491            2116     43.4566E-03     46.0282E-03
            1491            2117     48.6629E-03     51.0907E-03
            1492            2100     49.0381E-03     51.2862E-03
            1492            2101     54.4965E-03     56.6286E-03
            1492            2117     48.6629E-03     51.0907E-03
            1492            2118     53.9585E-03     56.3274E-03
            1493            2101     54.4965E-03     56.6286E-03
            1493            2102     59.9842E-03     62.0723E-03
            1493            2118     53.9585E-03     56.3274E-03
            1493            2119     59.3037E-03     61.6484E-03
            1494            2102     59.9842E-03     62.0723E-03
            1494            2103     65.4989E-03     67.6040E-03
            1494            2119     59.3037E-03     61.6484E-03
            1494            2120     64.7222E-03     67.0911E-03
            1495            2103     65.4989E-03     67.6040E-03
            1495            2104     71.0773E-03     73.2491E-03
            1495            2120     64.7222E-03     67.0911E-03
            1495            2121     70.2147E-03     72.6367E-03
            1496            2104     71.0773E-03     73.2491E-03
            1496            2105     76.7235E-03     79.0049E-03
            1496            2121     70.2147E-03     72.6367E-03
            1496            2122     75.8029E-03     78.3171E-03
            1497            2105     76.7235E-03     79.0049E-03
            1497            2106     82.4808E-03     84.9005E-03
            1497            2122     75.8029E-03     78.3171E-03
            1497            2123     81.5245E-03     84.1462E-03
            1498            2106     82.4808E-03     84.9005E-03
            1498            2107     88.3423E-03     90.9245E-03
            1498            2123     81.5245E-03     84.1462E-03
            1498            2124     87.4648E-03     90.2013E-03
            1499            2107     88.3423E-03     90.9245E-03
            1499            2108     94.4009E-03     97.0832E-03
            1499            2124     87.4648E-03     90.2013E-03
            1499            2125     93.6595E-03     96.5033E-03
            1500            2108     94.4009E-03     97.0832E-03
            1500            2109     100.545E-03     103.291E-03
            1500            2125     93.6595E-03     96.5033E-03
            1500            2126     100.405E-03     103.163E-03
            1501            2109     100.545E-03     103.291E-03
            1501            2110     106.668E-03     109.298E-03
            1501            2126     100.405E-03     103.163E-03
            1501            2127     107.455E-03     110.110E-03
            1502            2110     106.668E-03     109.298E-03
            1502            2111     112.630E-03     114.816E-03
            1502            2127     107.455E-03     110.110E-03
            1502            2128     114.443E-03     116.892E-03
            1503            2111     112.630E-03     114.816E-03
            1503            2112     118.088E-03     119.825E-03
            1503            2128     114.443E-03     116.892E-03
            1503            2129     121.192E-03     122.814E-03
            1504             115     124.418E-03     125.436E-03
            1504             116     120.676E-03     122.241E-03
            1504            2112     118.088E-03     119.825E-03
            1504            2129     121.192E-03     122.814E-03
            1505             375     25.3316E-03     28.2659E-03
            1505             376     23.9027E-03     27.0520E-03
            1505            2113     26.9105E-03     29.9524E-03
            1505            2130     28.2035E-03     31.2914E-03
            1506            2113     26.9105E-03     29.9524E-03
            1506            2114     32.6941E-03     35.5847E-03
            1506            2130     28.2035E-03     31.2914E-03
            1506            2131     33.7408E-03     36.8350E-03
            1507            2114     32.6941E-03     35.5847E-03
            1507            2115     38.1850E-03     40.9467E-03
            1507            2131     33.7408E-03     36.8350E-03
            1507            2132     38.6286E-03     41.4232E-03
            1508            2115     38.1850E-03     40.9467E-03
            1508            2116     43.4566E-03     46.0282E-03
            1508            2132     38.6286E-03     41.4232E-03
            1508            2133     43.2723E-03     45.8987E-03
            1509            2116     43.4566E-03     46.0282E-03
            1509            2117     48.6629E-03     51.0907E-03
            1509            2133     43.2723E-03     45.8987E-03
            1509            2134     48.1759E-03     50.7637E-03
            1510            2117     48.6629E-03     51.0907E-03
            1510            2118     53.9585E-03     56.3274E-03
            1510            2134     48.1759E-03     50.7637E-03
            1510            2135     53.2162E-03     55.7813E-03
            1511            2118     53.9585E-03     56.3274E-03
            1511            2119     59.3037E-03     61.6484E-03
            1511            2135     53.2162E-03     55.7813E-03
            1511            2136     58.3768E-03     60.9539E-03
            1512            2119     59.3037E-03     61.6484E-03
            1512            2120     64.7222E-03     67.0911E-03
            1512            2136     58.3768E-03     60.9539E-03
            1512            2137     63.6350E-03     66.2264E-03
            1513            2120     64.7222E-03     67.0911E-03
            1513            2121     70.2147E-03     72.6367E-03
            1513            2137     63.6350E-03     66.2264E-03
            1513            2138     68.9718E-03     71.6015E-03
            1514            2121     70.2147E-03     72.6367E-03
            1514            2122     75.8029E-03     78.3171E-03
            1514            2138     68.9718E-03     71.6015E-03
            1514            2139     74.4241E-03     77.0908E-03
            1515            2122     75.8029E-03     78.3171E-03
            1515            2123     81.5245E-03     84.1462E-03
            1515            2139     74.4241E-03     77.0908E-03
            1515            2140     80.0166E-03     82.7514E-03
            1516            2123     81.5245E-03     84.1462E-03
            1516            2124     87.4648E-03     90.2013E-03
            1516            2140     80.0166E-03     82.7514E-03
            1516            2141     85.8565E-03     88.6455E-03
            1517            2124     87.4648E-03     90.2013E-03
            1517            2125     93.6595E-03     96.5033E-03
            1517            2141     85.8565E-03     88.6455E-03
            1517            2142     92.1062E-03     94.9460E-03
            1518            2125     93.6595E-03     96.5033E-03
            1518            2126     100.405E-03     103.163E-03
            1518            2142     92.1062E-03     94.9460E-03
            1518            2143     98.9176E-03     101.776E-03
            1519            2126     100.405E-03     103.163E-03
            1519            2127     107.455E-03     110.110E-03
            1519            2143     98.9176E-03     101.776E-03
            1519            2144     107.036E-03     109.542E-03
            1520            2127     107.455E-03     110.110E-03
            1520            2128     114.443E-03     116.892E-03
            1520            2144     107.036E-03     109.542E-03
            1520            2145     115.770E-03     117.949E-03
            1521            2128     114.443E-03     116.892E-03
            1521            2129     121.192E-03     122.814E-03
            1521            2145     115.770E-03     117.949E-03
            1521            2146     123.672E-03     125.981E-03
            1522             114     127.378E-03     129.836E-03
            1522             115     124.418E-03     125.436E-03
            1522            2129     121.192E-03     122.814E-03
            1522            2146     123.672E-03     125.981E-03
            1523             374     27.5032E-03     31.4237E-03
            1523             375     25.3316E-03     28.2659E-03
            1523            2130     28.2035E-03     31.2914E-03
            1523            2147     30.6164E-03     34.1579E-03
            1524            2130     28.2035E-03     31.2914E-03
            1524            2131     33.7408E-03     36.8350E-03
            1524            2147     30.6164E-03     34.1579E-03
            1524            2148     35.3605E-03     38.2534E-03
            1525            2131     33.7408E-03     36.8350E-03
            1525            2132     38.6286E-03     41.4232E-03
            1525            2148     35.3605E-03     38.2534E-03
            1525            2149     38.9135E-03     41.5623E-03
            1526            2132     38.6286E-03     41.4232E-03
            1526            2133     43.2723E-03     45.8987E-03
            1526            2149     38.9135E-03     41.5623E-03
            1526            2150     43.0669E-03     45.7551E-03
            1527            2133     43.2723E-03     45.8987E-03
            1527            2134     48.1759E-03     50.7637E-03
            1527            2150     43.0669E-03     45.7551E-03
            1527            2151     47.6143E-03     50.3517E-03
            1528            2134     48.1759E-03     50.7637E-03
            1528            2135     53.2162E-03     55.7813E-03
            1528            2151     47.6143E-03     50.3517E-03
            1528            2152     52.3818E-03     55.1731E-03
            1529            2135     53.2162E-03     55.7813E-03
            1529            2136     58.3768E-03     60.9539E-03
            1529            2152     52.3818E-03     55.1731E-03
            1529            2153     57.3310E-03     60.1446E-03
            1530            2136     58.3768E-03     60.9539E-03
            1530            2137     63.6350E-03     66.2264E-03
            1530            2153     57.3310E-03     60.1446E-03
            1530            2154     62.3720E-03     65.1991E-03
            1531            2137     63.6350E-03     66.2264E-03
            1531            2138     68.9718E-03     71.6015E-03
            1531            2154     62.3720E-03     65.1991E-03
            1531            2155     67.5227E-03     70.3351E-03
            1532            2138     68.9718E-03     71.6015E-03
            1532            2139     74.4241E-03     77.0908E-03
            1532            2155     67.5227E-03     70.3351E-03
            1532            2156     72.7561E-03     75.5566E-03
            1533            2139     74.4241E-03     77.0908E-03
            1533            2140     80.0166E-03     82.7514E-03
            1533            2156     72.7561E-03     75.5566E-03
            1533            2157     78.1600E-03     80.9215E-03
            1534            2140     80.0166E-03     82.7514E-03
            1534            2141     85.8565E-03     88.6455E-03
            1534            2157     78.1600E-03     80.9215E-03
            1534            2158     83.7716E-03     86.5217E-03
            1535            2141     85.8565E-03     88.6455E-03
            1535            2142     92.1062E-03     94.9460E-03
            1535            2158     83.7716E-03     86.5217E-03
            1535            2159     89.8211E-03     92.5290E-03
            1536            2142     92.1062E-03     94.9460E-03
            1536            2143     98.9176E-03     101.776E-03
            1536            2159     89.8211E-03     92.5290E-03
            1536            2160     96.5336E-03     99.2437E-03
            1537            2143     98.9176E-03     101.776E-03
            1537            2144     107.036E-03     109.542E-03
            1537            2160     96.5336E-03     99.2437E-03
            1537            2161     104.420E-03     107.076E-03
            1538            2144     107.036E-03     109.542E-03
            1538            2145     115.770E-03     117.949E-03
            1538            2161     104.420E-03     107.076E-03
            1538            2162     115.152E-03     117.083E-03
            1539            2145     115.770E-03     117.949E-03
            1539            2146     123.672E-03     125.981E-03
            1539            2162     115.152E-03     117.083E-03
            1539            2163     126.410E-03     127.178E-03
            1540             113     131.326E-03     131.517E-03
            1540             114     127.378E-03     129.836E-03
            1540            2146     123.672E-03     125.981E-03
            1540            2163     126.410E-03     127.178E-03
            1541             373     33.6127E-03     36.3260E-03
            1541             374     27.5032E-03     31.4237E-03
            1541            2147     30.6164E-03     34.1579E-03
            1541            2164     34.7317E-03     37.0985E-03
            1542            2147     30.6164E-03     34.1579E-03
            1542            2148     35.3605E-03     38.2534E-03
            1542            2164     34.7317E-03     37.0985E-03
            1542            2165     36.5286E-03     38.7463E-03
            1543            2148     35.3605E-03     38.2534E-03
            1543            2149     38.9135E-03     41.5623E-03
            1543            2165     36.5286E-03     38.7463E-03
            1543            2166     39.0984E-03     41.6379E-03
            1544            2149     38.9135E-03     41.5623E-03
            1544            2150     43.0669E-03     45.7551E-03
            1544            2166     39.0984E-03     41.6379E-03
            1544            2167     42.9068E-03     45.6929E-03
            1545            2150     43.0669E-03     45.7551E-03
            1545            2151     47.6143E-03     50.3517E-03
            1545            2167     42.9068E-03     45.6929E-03
            1545            2168     47.0731E-03     50.0440E-03
            1546            2151     47.6143E-03     50.3517E-03
            1546            2152     52.3818E-03     55.1731E-03
            1546            2168     47.0731E-03     50.0440E-03
            1546            2169     51.6097E-03     54.6800E-03
            1547            2152     52.3818E-03     55.1731E-03
            1547            2153     57.3310E-03     60.1446E-03
            1547            2169     51.6097E-03     54.6800E-03
            1547            2170     56.2886E-03     59.4058E-03
            1548            2153     57.3310E-03     60.1446E-03
            1548            2154     62.3720E-03     65.1991E-03
            1548            2170     56.2886E-03     59.4058E-03
            1548            2171     61.1158E-03     64.2173E-03
            1549            2154     62.3720E-03     65.1991E-03
            1549            2155     67.5227E-03     70.3351E-03
            1549            2171     61.1158E-03     64.2173E-03
            1549            2172     66.0145E-03     69.0604E-03
            1550            2155     67.5227E-03     70.3351E-03
            1550            2156     72.7561E-03     75.5566E-03
            1550            2172     66.0145E-03     69.0604E-03
            1550            2173     71.0337E-03     73.9705E-03
            1551            2156     72.7561E-03     75.5566E-03
            1551            2157     78.1600E-03     80.9215E-03
            1551            2173     71.0337E-03     73.9705E-03
            1551            2174     76.1612E-03     78.9581E-03
            1552            2157     78.1600E-03     80.9215E-03
            1552            2158     83.7716E-03     86.5217E-03
            1552            2174     76.1612E-03     78.9581E-03
            1552            2175     81.5402E-03     84.1542E-03
            1553            2158     83.7716E-03     86.5217E-03
            1553            2159     89.8211E-03     92.5290E-03
            1553            2175     81.5402E-03     84.1542E-03
            1553            2176     87.2169E-03     89.6542E-03
            1554            2159     89.8211E-03     92.5290E-03
            1554            2160     96.5336E-03     99.2437E-03
            1554            2176     87.2169E-03     89.6542E-03
            1554            2177     93.6054E-03     95.8792E-03
            1555            2160     96.5336E-03     99.2437E-03
            1555            2161     104.420E-03     107.076E-03
            1555            2177     93.6054E-03     95.8792E-03
            1555            2178     100.875E-03     103.131E-03
            1556            2161     104.420E-03     107.076E-03
            1556            2162     115.152E-03     117.083E-03
            1556            2178     100.875E-03     103.131E-03
            1556            2179     110.658E-03     113.122E-03
            1557            2162     115.152E-03     117.083E-03
            1557            2163     126.410E-03     127.178E-03
            1557            2179     110.658E-03     113.122E-03
            1557            2180     125.409E-03     127.192E-03
            1558             112     134.125E-03     135.114E-03
            1558             113     131.326E-03     131.517E-03
            1558            2163     126.410E-03     127.178E-03
            1558            2180     125.409E-03     127.192E-03
            1559             372     40.4355E-03     39.8233E-03
            1559             373     33.6127E-03     36.3260E-03
            1559            2164     34.7317E-03     37.0985E-03
            1559            2181     40.3872E-03     40.2452E-03
            1560            2164     34.7317E-03     37.0985E-03
            1560            2165     36.5286E-03     38.7463E-03
            1560            2181     40.3872E-03     40.2452E-03
            1560            2182     41.6762E-03     42.3253E-03
            1561            2165     36.5286E-03     38.7463E-03
            1561            2166     39.0984E-03     41.6379E-03
            1561            2182     41.6762E-03     42.3253E-03
            1561            2183     45.0455E-03     46.2655E-03
            1562            2166     39.0984E-03     41.6379E-03
            1562            2167     42.9068E-03     45.6929E-03
            1562            2183     45.0455E-03     46.2655E-03
            1562            2184     49.3677E-03     51.0034E-03
            1563            2167     42.9068E-03     45.6929E-03
            1563            2168     47.0731E-03     50.0440E-03
            1563            2184     49.3677E-03     51.0034E-03
            1563            2185     54.1469E-03     56.0203E-03
            1564            2168     47.0731E-03     50.0440E-03
            1564            2169     51.6097E-03     54.6800E-03
            1564            2185     54.1469E-03     56.0203E-03
            1564            2186     59.1991E-03     61.1953E-03
            1565            2169     51.6097E-03     54.6800E-03
            1565            2170     56.2886E-03     59.4058E-03
            1565            2186     59.1991E-03     61.1953E-03
            1565            2187     64.4007E-03     66.4211E-03
            1566            2170     56.2886E-03     59.4058E-03
            1566            2171     61.1158E-03     64.2173E-03
            1566            2187     64.4007E-03     66.4211E-03
            1566            2188     69.6616E-03     71.6474E-03
            1567            2171     61.1158E-03     64.2173E-03
            1567            2172     66.0145E-03     69.0604E-03
            1567            2188     69.6616E-03     71.6474E-03
            1567            2189     74.9736E-03     76.8385E-03
            1568            2172     66.0145E-03     69.0604E-03
            1568            2173     71.0337E-03     73.9705E-03
            1568            2189     74.9736E-03     76.8385E-03
            1568            2190     80.2692E-03     81.9773E-03
            1569            2173     71.0337E-03     73.9705E-03
            1569            2174     76.1612E-03     78.9581E-03
            1569            2190     80.2692E-03     81.9773E-03
            1569            2191     85.6167E-03     87.0502E-03
            1570            2174     76.1612E-03     78.9581E-03
            1570            2175     81.5402E-03     84.1542E-03
            1570            2191     85.6167E-03     87.0502E-03
            1570            2192     90.9332E-03     92.0814E-03
            1571            2175     81.5402E-03     84.1542E-03
            1571            2176     87.2169E-03     89.6542E-03
            1571            2192     90.9332E-03     92.0814E-03
            1571            2193     96.4102E-03     97.1105E-03
            1572            2176     87.2169E-03     89.6542E-03
            1572            2177     93.6054E-03     95.8792E-03
            1572            2193     96.4102E-03     97.1105E-03
            1572            2194     101.923E-03     102.273E-03
            1573            2177     93.6054E-03     95.8792E-03
            1573            2178     100.875E-03     103.131E-03
            1573            2194     101.923E-03     102.273E-03
            1573            2195     107.975E-03     107.890E-03
            1574            2178     100.875E-03     103.131E-03
            1574            2179     110.658E-03     113.122E-03
            1574            2195     107.975E-03     107.890E-03
            1574            2196     114.406E-03     114.388E-03
            1575            2179     110.658E-03     113.122E-03
            1575            2180     125.409E-03     127.192E-03
            1575            2196     114.406E-03     114.388E-03
            1575            2197     123.787E-03     125.830E-03
            1576             111     130.177E-03     133.740E-03
            1576             112     134.125E-03     135.114E-03
            1576            2180     125.409E-03     127.192E-03
            1576            2197     123.787E-03     125.830E-03
            1577             371     36.8663E-03     40.5845E-03
            1577             372     40.4355E-03     39.8233E-03
            1577            2181     40.3872E-03     40.2452E-03
            1577            2198     40.0843E-03     42.2980E-03
            1578            2181     40.3872E-03     40.2452E-03
            1578            2182     41.6762E-03     42.3253E-03
            1578            2198     40.0843E-03     42.2980E-03
            1578            2199     45.3750E-03     45.9380E-03
            1579            2182     41.6762E-03     42.3253E-03
            1579            2183     45.0455E-03     46.2655E-03
            1579            2199     45.3750E-03     45.9380E-03
            1579            2200     50.2541E-03     50.7435E-03
            1580            2183     45.0455E-03     46.2655E-03
            1580            2184     49.3677E-03     51.0034E-03
            1580            2200     50.2541E-03     50.7435E-03
            1580            2201     55.8172E-03     56.4702E-03
            1581            2184     49.3677E-03     51.0034E-03
            1581            2185     54.1469E-03     56.0203E-03
            1581            2201     55.8172E-03     56.4702E-03
            1581            2202     61.5588E-03     62.3572E-03
            1582            2185     54.1469E-03     56.0203E-03
            1582            2186     59.1991E-03     61.1953E-03
            1582            2202     61.5588E-03     62.3572E-03
            1582            2203     67.5160E-03     68.3895E-03
            1583            2186     59.1991E-03     61.1953E-03
            1583            2187     64.4007E-03     66.4211E-03
            1583            2203     67.5160E-03     68.3895E-03
            1583            2204     73.5221E-03     74.4050E-03
            1584            2187     64.4007E-03     66.4211E-03
            1584            2188     69.6616E-03     71.6474E-03
            1584            2204     73.5221E-03     74.4050E-03
            1584            2205     79.5682E-03     80.4120E-03
            1585            2188     69.6616E-03     71.6474E-03
            1585            2189     74.9736E-03     76.8385E-03
            1585            2205     79.5682E-03     80.4120E-03
            1585            2206     85.5909E-03     86.3385E-03
            1586            2189     74.9736E-03     76.8385E-03
            1586            2190     80.2692E-03     81.9773E-03
            1586            2206     85.5909E-03     86.3385E-03
            1586            2207     91.5745E-03     92.1848E-03
            1587            2190     80.2692E-03     81.9773E-03
            1587            2191     85.6167E-03     87.0502E-03
            1587            2207     91.5745E-03     92.1848E-03
            1587            2208     97.4666E-03     97.8801E-03
            1588            2191     85.6167E-03     87.0502E-03
            1588            2192     90.9332E-03     92.0814E-03
            1588            2208     97.4666E-03     97.8801E-03
            1588            2209     103.262E-03     103.424E-03
            1589            2192     90.9332E-03     92.0814E-03
            1589            2193     96.4102E-03     97.1105E-03
            1589            2209     103.262E-03     103.424E-03
            1589            2210     108.848E-03     108.730E-03
            1590            2193     96.4102E-03     97.1105E-03
            1590            2194     101.923E-03     102.273E-03
            1590            2210     108.848E-03     108.730E-03
            1590            2211     114.286E-03     113.835E-03
            1591            2194     101.923E-03     102.273E-03
            1591            2195     107.975E-03     107.890E-03
            1591            2211     114.286E-03     113.835E-03
            1591            2212     119.320E-03     118.652E-03
            1592            2195     107.975E-03     107.890E-03
            1592            2196     114.406E-03     114.388E-03
            1592            2212     119.320E-03     118.652E-03
            1592            2213     124.238E-03     123.466E-03
            1593            2196     114.406E-03     114.388E-03
            1593            2197     123.787E-03     125.830E-03
            1593            2213     124.238E-03     123.466E-03
            1593            2214     128.938E-03     127.578E-03
            1594             110     131.028E-03     129.140E-03
            1594             111     130.177E-03     133.740E-03
            1594            2197     123.787E-03     125.830E-03
            1594            2214     128.938E-03     127.578E-03
            1595             370     31.7807E-03     36.4193E-03
            1595             371     36.8663E-03     40.5845E-03
            1595            2198     40.0843E-03     42.2980E-03
            1595            2215     35.6916E-03     39.8490E-03
            1596            2198     40.0843E-03     42.2980E-03
            1596            2199     45.3750E-03     45.9380E-03
            1596            2215     35.6916E-03     39.8490E-03
            1596            2216     42.8893E-03     45.6251E-03
            1597            2199     45.3750E-03     45.9380E-03
            1597            2200     50.2541E-03     50.7435E-03
            1597            2216     42.8893E-03     45.6251E-03
            1597            2217     49.2887E-03     50.8428E-03
            1598            2200     50.2541E-03     50.7435E-03
            1598            2201     55.8172E-03     56.4702E-03
            1598            2217     49.2887E-03     50.8428E-03
            1598            2218     55.5490E-03     56.8182E-03
            1599            2201     55.8172E-03     56.4702E-03
            1599            2202     61.5588E-03     62.3572E-03
            1599            2218     55.5490E-03     56.8182E-03
            1599            2219     61.8442E-03     63.0450E-03
            1600            2202     61.5588E-03     62.3572E-03
            1600            2203     67.5160E-03     68.3895E-03
            1600            2219     61.8442E-03     63.0450E-03
            1600            2220     68.1719E-03     69.3553E-03
            1601            2203     67.5160E-03     68.3895E-03
            1601            2204     73.5221E-03     74.4050E-03
            1601            2220     68.1719E-03     69.3553E-03
            1601            2221     74.5387E-03     75.7265E-03
            1602            2204     73.5221E-03     74.4050E-03
            1602            2205     79.5682E-03     80.4120E-03
            1602            2221     74.5387E-03     75.7265E-03
            1602            2222     80.9309E-03     82.1036E-03
            1603            2205     79.5682E-03     80.4120E-03
            1603            2206     85.5909E-03     86.3385E-03
            1603            2222     80.9309E-03     82.1036E-03
            1603            2223     87.3362E-03     88.4924E-03
            1604            2206     85.5909E-03     86.3385E-03
            1604            2207     91.5745E-03     92.1848E-03
            1604            2223     87.3362E-03     88.4924E-03
            1604            2224     93.7415E-03     94.8660E-03
            1605            2207     91.5745E-03     92.1848E-03
            1605            2208     97.4666E-03     97.8801E-03
            1605            2224     93.7415E-03     94.8660E-03
            1605            2225     100.120E-03     101.218E-03
            1606            2208     97.4666E-03     97.8801E-03
            1606            2209     103.262E-03     103.424E-03
            1606            2225     100.120E-03     101.218E-03
            1606            2226     106.419E-03     107.513E-03
            1607            2209     103.262E-03     103.424E-03
            1607            2210     108.848E-03     108.730E-03
            1607            2226     106.419E-03     107.513E-03
            1607            2227     112.611E-03     113.711E-03
            1608            2210     108.848E-03     108.730E-03
            1608            2211     114.286E-03     113.835E-03
            1608            2227     112.611E-03     113.711E-03
            1608            2228     118.546E-03     119.783E-03
            1609            2211     114.286E-03     113.835E-03
            1609            2212     119.320E-03     118.652E-03
            1609            2228     118.546E-03     119.783E-03
            1609            2229     124.219E-03     125.595E-03
            1610            2212     119.320E-03     118.652E-03
            1610            2213     124.238E-03     123.466E-03
            1610            2229     124.219E-03     125.595E-03
            1610            2230     129.713E-03     131.108E-03
            1611            2213     124.238E-03     123.466E-03
            1611            2214     128.938E-03     127.578E-03
            1611            2230     129.713E-03     131.108E-03
            1611            2231     134.508E-03     135.269E-03
            1612             109     136.616E-03     136.735E-03
            1612             110     131.028E-03     129.140E-03
            1612            2214     128.938E-03     127.578E-03
            1612            2231     134.508E-03     135.269E-03
            1613             369     30.3167E-03     33.1905E-03
            1613             370     31.7807E-03     36.4193E-03
            1613            2215     35.6916E-03     39.8490E-03
            1613            2232     33.8827E-03     37.1870E-03
            1614            2215     35.6916E-03     39.8490E-03
            1614            2216     42.8893E-03     45.6251E-03
            1614            2232     33.8827E-03     37.1870E-03
            1614            2233     41.2611E-03     44.6240E-03
            1615            2216     42.8893E-03     45.6251E-03
            1615            2217     49.2887E-03     50.8428E-03
            1615            2233     41.2611E-03     44.6240E-03
            1615            2234     48.5222E-03     51.0690E-03
            1616            2217     49.2887E-03     50.8428E-03
            1616            2218     55.5490E-03     56.8182E-03
            1616            2234     48.5222E-03     51.0690E-03
            1616            2235     55.3699E-03     57.3083E-03
            1617            2218     55.5490E-03     56.8182E-03
            1617            2219     61.8442E-03     63.0450E-03
            1617            2235     55.3699E-03     57.3083E-03
            1617            2236     62.0734E-03     63.7761E-03
            1618            2219     61.8442E-03     63.0450E-03
            1618            2220     68.1719E-03     69.3553E-03
            1618            2236     62.0734E-03     63.7761E-03
            1618            2237     68.7017E-03     70.3029E-03
            1619            2220     68.1719E-03     69.3553E-03
            1619            2221     74.5387E-03     75.7265E-03
            1619            2237     68.7017E-03     70.3029E-03
            1619            2238     75.3374E-03     76.9044E-03
            1620            2221     74.5387E-03     75.7265E-03
            1620            2222     80.9309E-03     82.1036E-03
            1620            2238     75.3374E-03     76.9044E-03
            1620            2239     81.9826E-03     83.5612E-03
            1621            2222     80.9309E-03     82.1036E-03
            1621            2223     87.3362E-03     88.4924E-03
            1621            2239     81.9826E-03     83.5612E-03
            1621            2240     88.6740E-03     90.2840E-03
            1622            2223     87.3362E-03     88.4924E-03
            1622            2224     93.7415E-03     94.8660E-03
            1622            2240     88.6740E-03     90.2840E-03
            1622            2241     95.3834E-03     97.0625E-03
            1623            2224     93.7415E-03     94.8660E-03
            1623            2225     100.120E-03     101.218E-03
            1623            2241     95.3834E-03     97.0625E-03
            1623            2242     102.128E-03     103.901E-03
            1624            2225     100.120E-03     101.218E-03
            1624            2226     106.419E-03     107.513E-03
            1624            2242     102.128E-03     103.901E-03
            1624            2243     108.840E-03     110.768E-03
            1625            2226     106.419E-03     107.513E-03
            1625            2227     112.611E-03     113.711E-03
            1625            2243     108.840E-03     110.768E-03
            1625            2244     115.491E-03     117.623E-03
            1626            2227     112.611E-03     113.711E-03
            1626            2228     118.546E-03     119.783E-03
            1626            2244     115.491E-03     117.623E-03
            1626            2245     121.937E-03     124.318E-03
            1627            2228     118.546E-03     119.783E-03
            1627            2229     124.219E-03     125.595E-03
            1627            2245     121.937E-03     124.318E-03
            1627            2246     128.156E-03     130.704E-03
            1628            2229     124.219E-03     125.595E-03
            1628            2230     129.713E-03     131.108E-03
            1628            2246     128.156E-03     130.704E-03
            1628            2247     133.804E-03     136.280E-03
            1629            2230     129.713E-03     131.108E-03
            1629            2231     134.508E-03     135.269E-03
            1629            2247     133.804E-03     136.280E-03
            1629            2248     138.673E-03     140.800E-03
            1630             108     140.997E-03     142.856E-03
            1630             109     136.616E-03     136.735E-03
            1630            2231     134.508E-03     135.269E-03
            1630            2248     138.673E-03     140.800E-03
            1631             368     28.9916E-03     33.1015E-03
            1631             369     30.3167E-03     33.1905E-03
            1631            2232     33.8827E-03     37.1870E-03
            1631            2249     32.9681E-03     36.6561E-03
            1632            2232     33.8827E-03     37.1870E-03
            1632            2233     41.2611E-03     44.6240E-03
            1632            2249     32.9681E-03     36.6561E-03
            1632            2250     40.6775E-03     43.9538E-03
            1633            2233     41.2611E-03     44.6240E-03
            1633            2234     48.5222E-03     51.0690E-03
            1633            2250     40.6775E-03     43.9538E-03
            1633            2251     48.1159E-03     51.1237E-03
            1634            2234     48.5222E-03     51.0690E-03
            1634            2235     55.3699E-03     57.3083E-03
            1634            2251     48.1159E-03     51.1237E-03
            1634            2252     55.2721E-03     57.7744E-03
            1635            2235     55.3699E-03     57.3083E-03
            1635            2236     62.0734E-03     63.7761E-03
            1635            2252     55.2721E-03     57.7744E-03
            1635            2253     62.1676E-03     64.3450E-03
            1636            2236     62.0734E-03     63.7761E-03
            1636            2237     68.7017E-03     70.3029E-03
            1636            2253     62.1676E-03     64.3450E-03
            1636            2254     68.9745E-03     70.9988E-03
            1637            2237     68.7017E-03     70.3029E-03
            1637            2238     75.3374E-03     76.9044E-03
            1637            2254     68.9745E-03     70.9988E-03
            1637            2255     75.7384E-03     77.7068E-03
            1638            2238     75.3374E-03     76.9044E-03
            1638            2239     81.9826E-03     83.5612E-03
            1638            2255     75.7384E-03     77.7068E-03
            1638            2256     82.5474E-03     84.5315E-03
            1639            2239     81.9826E-03     83.5612E-03
            1639            2240     88.6740E-03     90.2840E-03
            1639            2256     82.5474E-03     84.5315E-03
            1639            2257     89.3837E-03     91.4413E-03
            1640            2240     88.6740E-03     90.2840E-03
            1640            2241     95.3834E-03     97.0625E-03
            1640            2257     89.3837E-03     91.4413E-03
            1640            2258     96.3029E-03     98.4746E-03
            1641            2241     95.3834E-03     97.0625E-03
            1641            2242     102.128E-03     103.901E-03
            1641            2258     96.3029E-03     98.4746E-03
            1641            2259     103.253E-03     105.611E-03
            1642            2242     102.128E-03     103.901E-03
            1642            2243     108.840E-03     110.768E-03
            1642            2259     103.253E-03     105.611E-03
            1642            2260     110.303E-03     112.861E-03
            1643            2243     108.840E-03     110.768E-03
            1643            2244     115.491E-03     117.623E-03
            1643            2260     110.303E-03     112.861E-03
            1643            2261     117.301E-03     120.154E-03
            1644            2244     115.491E-03     117.623E-03
            1644            2245     121.937E-03     124.318E-03
            1644            2261     117.301E-03     120.154E-03
            1644            2262     124.269E-03     127.323E-03
            1645            2245     121.937E-03     124.318E-03
            1645            2246     128.156E-03     130.704E-03
            1645            2262     124.269E-03     127.323E-03
            1645            2263     130.900E-03     134.040E-03
            1646            2246     128.156E-03     130.704E-03
            1646            2247     133.804E-03     136.280E-03
            1646            2263     130.900E-03     134.040E-03
            1646            2264     136.893E-03     139.896E-03
            1647            2247     133.804E-03     136.280E-03
            1647            2248     138.673E-03     140.800E-03
            1647            2264     136.893E-03     139.896E-03
            1647            2265     142.529E-03     144.365E-03
            1648             107     145.245E-03     146.158E-03
            1648             108     140.997E-03     142.856E-03
            1648            2248     138.673E-03     140.800E-03
            1648            2265     142.529E-03     144.365E-03
            1649             367     29.2663E-03     32.7446E-03
            1649             368     28.9916E-03     33.1015E-03
            1649            2249     32.9681E-03     36.6561E-03
            1649            2266     33.0197E-03     36.7229E-03
            1650            2249     32.9681E-03     36.6561E-03
            1650            2250     40.6775E-03     43.9538E-03
            1650            2266     33.0197E-03     36.7229E-03
            1650            2267     40.6747E-03     44.2569E-03
            1651            2250     40.6775E-03     43.9538E-03
            1651            2251     48.1159E-03     51.1237E-03
            1651            2267     40.6747E-03     44.2569E-03
            1651            2268     48.1327E-03     51.2696E-03
            1652            2251     48.1159E-03     51.1237E-03
            1652            2252     55.2721E-03     57.7744E-03
            1652            2268     48.1327E-03     51.2696E-03
            1652            2269     55.2198E-03     58.0810E-03
            1653            2252     55.2721E-03     57.7744E-03
            1653            2253     62.1676E-03     64.3450E-03
            1653            2269     55.2198E-03     58.0810E-03
            1653            2270     62.1129E-03     64.6670E-03
            1654            2253     62.1676E-03     64.3450E-03
            1654            2254     68.9745E-03     70.9988E-03
            1654            2270     62.1129E-03     64.6670E-03
            1654            2271     68.8910E-03     71.2765E-03
            1655            2254     68.9745E-03     70.9988E-03
            1655            2255     75.7384E-03     77.7068E-03
            1655            2271     68.8910E-03     71.2765E-03
            1655            2272     75.6949E-03     78.0286E-03
            1656            2255     75.7384E-03     77.7068E-03
            1656            2256     82.5474E-03     84.5315E-03
            1656            2272     75.6949E-03     78.0286E-03
            1656            2273     82.5136E-03     84.8671E-03
            1657            2256     82.5474E-03     84.5315E-03
            1657            2257     89.3837E-03     91.4413E-03
            1657            2273     82.5136E-03     84.8671E-03
            1657            2274     89.4134E-03     91.8486E-03
            1658            2257     89.3837E-03     91.4413E-03
            1658            2258     96.3029E-03     98.4746E-03
            1658            2274     89.4134E-03     91.8486E-03
            1658            2275     96.3683E-03     98.9490E-03
            1659            2258     96.3029E-03     98.4746E-03
            1659            2259     103.253E-03     105.611E-03
            1659            2275     96.3683E-03     98.9490E-03
            1659            2276     103.459E-03     106.219E-03
            1660            2259     103.253E-03     105.611E-03
            1660            2260     110.303E-03     112.861E-03
            1660            2276     103.459E-03     106.219E-03
            1660            2277     110.615E-03     113.640E-03
            1661            2260     110.303E-03     112.861E-03
            1661            2261     117.301E-03     120.154E-03
            1661            2277     110.615E-03     113.640E-03
            1661            2278     118.002E-03     121.210E-03
            1662            2261     117.301E-03     120.154E-03
            1662            2262     124.269E-03     127.323E-03
            1662            2278     118.002E-03     121.210E-03
            1662            2279     125.373E-03     128.810E-03
            1663            2262     124.269E-03     127.323E-03
            1663            2263     130.900E-03     134.040E-03
            1663            2279     125.373E-03     128.810E-03
            1663            2280     132.602E-03     136.049E-03
            1664            2263     130.900E-03     134.040E-03
            1664            2264     136.893E-03     139.896E-03
            1664            2280     132.602E-03     136.049E-03
            1664            2281     139.505E-03     142.366E-03
            1665            2264     136.893E-03     139.896E-03
            1665            2265     142.529E-03     144.365E-03
            1665            2281     139.505E-03     142.366E-03
            1665            2282     145.449E-03     147.808E-03
            1666             106     148.184E-03     150.409E-03
            1666             107     145.245E-03     146.158E-03
            1666            2265     142.529E-03     144.365E-03
            1666            2282     145.449E-03     147.808E-03
            1667             366     29.6082E-03     33.8983E-03
            1667             367     29.2663E-03     32.7446E-03
            1667            2266     33.0197E-03     36.7229E-03
            1667            2283     33.6857E-03     37.6100E-03
            1668            2266     33.0197E-03     36.7229E-03
            1668            2267     40.6747E-03     44.2569E-03
            1668            2283     33.6857E-03     37.6100E-03
            1668            2284     41.3337E-03     44.9264E-03
            1669            2267     40.6747E-03     44.2569E-03
            1669            2268     48.1327E-03     51.2696E-03
            1669            2284     41.3337E-03     44.9264E-03
            1669            2285     48.4432E-03     51.8315E-03
            1670            2268     48.1327E-03     51.2696E-03
            1670            2269     55.2198E-03     58.0810E-03
            1670            2285     48.4432E-03     51.8315E-03
            1670            2286     55.2318E-03     58.2431E-03
            1671            2269     55.2198E-03     58.0810E-03
            1671            2270     62.1129E-03     64.6670E-03
            1671            2286     55.2318E-03     58.2431E-03
            1671            2287     61.8322E-03     64.6312E-03
            1672            2270     62.1129E-03     64.6670E-03
            1672            2271     68.8910E-03     71.2765E-03
            1672            2287     61.8322E-03     64.6312E-03
            1672            2288     68.4957E-03     71.1749E-03
            1673            2271     68.8910E-03     71.2765E-03
            1673            2272     75.6949E-03     78.0286E-03
            1673            2288     68.4957E-03     71.1749E-03
            1673            2289     75.1765E-03     77.8155E-03
            1674            2272     75.6949E-03     78.0286E-03
            1674            2273     82.5136E-03     84.8671E-03
            1674            2289     75.1765E-03     77.8155E-03
            1674            2290     81.9323E-03     84.5975E-03
            1675            2273     82.5136E-03     84.8671E-03
            1675            2274     89.4134E-03     91.8486E-03
            1675            2290     81.9323E-03     84.5975E-03
            1675            2291     88.7446E-03     91.4844E-03
            1676            2274     89.4134E-03     91.8486E-03
            1676            2275     96.3683E-03     98.9490E-03
            1676            2291     88.7446E-03     91.4844E-03
            1676            2292     95.6612E-03     98.5215E-03
            1677            2275     96.3683E-03     98.9490E-03
            1677            2276     103.459E-03     106.219E-03
            1677            2292     95.6612E-03     98.5215E-03
            1677            2293     102.676E-03     105.712E-03
            1678            2276     103.459E-03     106.219E-03
            1678            2277     110.615E-03     113.640E-03
            1678            2293     102.676E-03     105.712E-03
            1678            2294     109.913E-03     113.131E-03
            1679            2277     110.615E-03     113.640E-03
            1679            2278     118.002E-03     121.210E-03
            1679            2294     109.913E-03     113.131E-03
            1679            2295     117.329E-03     120.782E-03
            1680            2278     118.002E-03     121.210E-03
            1680            2279     125.373E-03     128.810E-03
            1680            2295     117.329E-03     120.782E-03
            1680            2296     125.251E-03     128.722E-03
            1681            2279     125.373E-03     128.810E-03
            1681            2280     132.602E-03     136.049E-03
            1681            2296     125.251E-03     128.722E-03
            1681            2297     133.351E-03     136.763E-03
            1682            2280     132.602E-03     136.049E-03
            1682            2281     139.505E-03     142.366E-03
            1682            2297     133.351E-03     136.763E-03
            1682            2298     141.111E-03     144.350E-03
            1683            2281     139.505E-03     142.366E-03
            1683            2282     145.449E-03     147.808E-03
            1683            2298     141.111E-03     144.350E-03
            1683            2299     148.487E-03     150.519E-03
            1684             105     151.982E-03     153.066E-03
            1684             106     148.184E-03     150.409E-03
            1684            2282     145.449E-03     147.808E-03
            1684            2299     148.487E-03     150.519E-03
            1685             365     31.5905E-03     35.2730E-03
            1685             366     29.6082E-03     33.8983E-03
            1685            2283     33.6857E-03     37.6100E-03
            1685            2300     35.3303E-03     39.2516E-03
            1686            2283     33.6857E-03     37.6100E-03
            1686            2284     41.3337E-03     44.9264E-03
            1686            2300     35.3303E-03     39.2516E-03
            1686            2301     42.6223E-03     46.4780E-03
            1687            2284     41.3337E-03     44.9264E-03
            1687            2285     48.4432E-03     51.8315E-03
            1687            2301     42.6223E-03     46.4780E-03
            1687            2302     49.0855E-03     52.4415E-03
            1688            2285     48.4432E-03     51.8315E-03
            1688            2286     55.2318E-03     58.2431E-03
            1688            2302     49.0855E-03     52.4415E-03
            1688            2303     55.1279E-03     58.2049E-03
            1689            2286     55.2318E-03     58.2431E-03
            1689            2287     61.8322E-03     64.6312E-03
            1689            2303     55.1279E-03     58.2049E-03
            1689            2304     61.4148E-03     64.3738E-03
            1690            2287     61.8322E-03     64.6312E-03
            1690            2288     68.4957E-03     71.1749E-03
            1690            2304     61.4148E-03     64.3738E-03
            1690            2305     67.7990E-03     70.7165E-03
            1691            2288     68.4957E-03     71.1749E-03
            1691            2289     75.1765E-03     77.8155E-03
            1691            2305     67.7990E-03     70.7165E-03
            1691            2306     74.2975E-03     77.2089E-03
            1692            2289     75.1765E-03     77.8155E-03
            1692            2290     81.9323E-03     84.5975E-03
            1692            2306     74.2975E-03     77.2089E-03
            1692            2307     80.8730E-03     83.8058E-03
            1693            2290     81.9323E-03     84.5975E-03
            1693            2291     88.7446E-03     91.4844E-03
            1693            2307     80.8730E-03     83.8058E-03
            1693            2308     87.5224E-03     90.5028E-03
            1694            2291     88.7446E-03     91.4844E-03
            1694            2292     95.6612E-03     98.5215E-03
            1694            2308     87.5224E-03     90.5028E-03
            1694            2309     94.2571E-03     97.3059E-03
            1695            2292     95.6612E-03     98.5215E-03
            1695            2293     102.676E-03     105.712E-03
            1695            2309     94.2571E-03     97.3059E-03
            1695            2310     101.117E-03     104.267E-03
            1696            2293     102.676E-03     105.712E-03
            1696            2294     109.913E-03     113.131E-03
            1696            2310     101.117E-03     104.267E-03
            1696            2311     108.167E-03     111.438E-03
            1697            2294     109.913E-03     113.131E-03
            1697            2295     117.329E-03     120.782E-03
            1697            2311     108.167E-03     111.438E-03
            1697            2312     115.579E-03     118.975E-03
            1698            2295     117.329E-03     120.782E-03
            1698            2296     125.251E-03     128.722E-03
            1698            2312     115.579E-03     118.975E-03
            1698            2313     123.466E-03     126.958E-03
            1699            2296     125.251E-03     128.722E-03
            1699            2297     133.351E-03     136.763E-03
            1699            2313     123.466E-03     126.958E-03
            1699            2314     132.578E-03     135.775E-03
            1700            2297     133.351E-03     136.763E-03
            1700            2298     141.111E-03     144.350E-03
            1700            2314     132.578E-03     135.775E-03
            1700            2315     142.169E-03     144.959E-03
            1701            2298     141.111E-03     144.350E-03
            1701            2299     148.487E-03     150.519E-03
            1701            2315     142.169E-03     144.959E-03
            1701            2316     150.528E-03     153.393E-03
            1702             104     154.352E-03     157.371E-03
            1702             105     151.982E-03     153.066E-03
            1702            2299     148.487E-03     150.519E-03
            1702            2316     150.528E-03     153.393E-03
            1703             364     34.1882E-03     39.2284E-03
            1703             365     31.5905E-03     35.2730E-03
            1703            2300     35.3303E-03     39.2516E-03
            1703            2317     38.3345E-03     42.8331E-03
            1704            2300     35.3303E-03     39.2516E-03
            1704            2301     42.6223E-03     46.4780E-03
            1704            2317     38.3345E-03     42.8331E-03
            1704            2318     44.7522E-03     48.2964E-03
            1705            2301     42.6223E-03     46.4780E-03
            1705            2302     49.0855E-03     52.4415E-03
            1705            2318     44.7522E-03     48.2964E-03
            1705            2319     49.5857E-03     52.6793E-03
            1706            2302     49.0855E-03     52.4415E-03
            1706            2303     55.1279E-03     58.2049E-03
            1706            2319     49.5857E-03     52.6793E-03
            1706            2320     55.0272E-03     58.1065E-03
            1707            2303     55.1279E-03     58.2049E-03
            1707            2304     61.4148E-03     64.3738E-03
            1707            2320     55.0272E-03     58.1065E-03
            1707            2321     60.8706E-03     63.9923E-03
            1708            2304     61.4148E-03     64.3738E-03
            1708            2305     67.7990E-03     70.7165E-03
            1708            2321     60.8706E-03     63.9923E-03
            1708            2322     66.9420E-03     70.1026E-03
            1709            2305     67.7990E-03     70.7165E-03
            1709            2306     74.2975E-03     77.2089E-03
            1709            2322     66.9420E-03     70.1026E-03
            1709            2323     73.1843E-03     76.3754E-03
            1710            2306     74.2975E-03     77.2089E-03
            1710            2307     80.8730E-03     83.8058E-03
            1710            2323     73.1843E-03     76.3754E-03
            1710            2324     79.5078E-03     82.7103E-03
            1711            2307     80.8730E-03     83.8058E-03
            1711            2308     87.5224E-03     90.5028E-03
            1711            2324     79.5078E-03     82.7103E-03
            1711            2325     85.9155E-03     89.1136E-03
            1712            2308     87.5224E-03     90.5028E-03
            1712            2309     94.2571E-03     97.3059E-03
            1712            2325     85.9155E-03     89.1136E-03
            1712            2326     92.3808E-03     95.5702E-03
            1713            2309     94.2571E-03     97.3059E-03
            1713            2310     101.117E-03     104.267E-03
            1713            2326     92.3808E-03     95.5702E-03
            1713            2327     98.9713E-03     102.136E-03
            1714            2310     101.117E-03     104.267E-03
            1714            2311     108.167E-03     111.438E-03
            1714            2327     98.9713E-03     102.136E-03
            1714            2328     105.716E-03     108.883E-03
            1715            2311     108.167E-03     111.438E-03
            1715            2312     115.579E-03     118.975E-03
            1715            2328     105.716E-03     108.883E-03
            1715            2329     112.833E-03     115.971E-03
            1716            2312     115.579E-03     118.975E-03
            1716            2313     123.466E-03     126.958E-03
            1716            2329     112.833E-03     115.971E-03
            1716            2330     120.517E-03     123.700E-03
            1717            2313     123.466E-03     126.958E-03
            1717            2314     132.578E-03     135.775E-03
            1717            2330     120.517E-03     123.700E-03
            1717            2331     129.316E-03     132.444E-03
            1718            2314     132.578E-03     135.775E-03
            1718            2315     142.169E-03     144.959E-03
            1718            2331     129.316E-03     132.444E-03
            1718            2332     140.939E-03     143.312E-03
            1719            2315     142.169E-03     144.959E-03
            1719            2316     150.528E-03     153.393E-03
            1719            2332     140.939E-03     143.312E-03
            1719            2333     152.821E-03     153.819E-03
            1720             103     157.911E-03     158.138E-03
            1720             104     154.352E-03     157.371E-03
            1720            2316     150.528E-03     153.393E-03
            1720            2333     152.821E-03     153.819E-03
            1721             363     41.8390E-03     45.2961E-03
            1721             364     34.1882E-03     39.2284E-03
            1721            2317     38.3345E-03     42.8331E-03
            1721            2334     43.6396E-03     46.4957E-03
            1722            2317     38.3345E-03     42.8331E-03
            1722            2318     44.7522E-03     48.2964E-03
            1722            2334     43.6396E-03     46.4957E-03
            1722            2335     46.4779E-03     48.9553E-03
            1723            2318     44.7522E-03     48.2964E-03
            1723            2319     49.5857E-03     52.6793E-03
            1723            2335     46.4779E-03     48.9553E-03
            1723            2336     49.9939E-03     52.8472E-03
            1724            2319     49.5857E-03     52.6793E-03
            1724            2320     55.0272E-03     58.1065E-03
            1724            2336     49.9939E-03     52.8472E-03
            1724            2337     54.9593E-03     58.1004E-03
            1725            2320     55.0272E-03     58.1065E-03
            1725            2321     60.8706E-03     63.9923E-03
            1725            2337     54.9593E-03     58.1004E-03
            1725            2338     60.3246E-03     63.6816E-03
            1726            2321     60.8706E-03     63.9923E-03
            1726            2322     66.9420E-03     70.1026E-03
            1726            2338     60.3246E-03     63.6816E-03
            1726            2339     66.0970E-03     69.5768E-03
            1727            2322     66.9420E-03     70.1026E-03
            1727            2323     73.1843E-03     76.3754E-03
            1727            2339     66.0970E-03     69.5768E-03
            1727            2340     72.0076E-03     75.5383E-03
            1728            2323     73.1843E-03     76.3754E-03
            1728            2324     79.5078E-03     82.7103E-03
            1728            2340     72.0076E-03     75.5383E-03
            1728            2341     78.0503E-03     81.5742E-03
            1729            2324     79.5078E-03     82.7103E-03
            1729            2325     85.9155E-03     89.1136E-03
            1729            2341     78.0503E-03     81.5742E-03
            1729            2342     84.1338E-03     87.5960E-03
            1730            2325     85.9155E-03     89.1136E-03
            1730            2326     92.3808E-03     95.5702E-03
            1730            2342     84.1338E-03     87.5960E-03
            1730            2343     90.2969E-03     93.6444E-03
            1731            2326     92.3808E-03     95.5702E-03
            1731            2327     98.9713E-03     102.136E-03
            1731            2343     90.2969E-03     93.6444E-03
            1731            2344     96.5138E-03     99.6971E-03
            1732            2327     98.9713E-03     102.136E-03
            1732            2328     105.716E-03     108.883E-03
            1732            2344     96.5138E-03     99.6971E-03
            1732            2345     102.927E-03     105.885E-03
            1733            2328     105.716E-03     108.883E-03
            1733            2329     112.833E-03     115.971E-03
            1733            2345     102.927E-03     105.885E-03
            1733            2346     109.550E-03     112.276E-03
            1734            2329     112.833E-03     115.971E-03
            1734            2330     120.517E-03     123.700E-03
            1734            2346     109.550E-03     112.276E-03
            1734            2347     116.833E-03     119.298E-03
            1735            2330     120.517E-03     123.700E-03
            1735            2331     129.316E-03     132.444E-03
            1735            2347     116.833E-03     119.298E-03
            1735            2348     124.879E-03     127.261E-03
            1736            2331     129.316E-03     132.444E-03
            1736            2332     140.939E-03     143.312E-03
            1736            2348     124.879E-03     127.261E-03
            1736            2349     135.453E-03     137.967E-03
            1737            2332     140.939E-03     143.312E-03
            1737            2333     152.821E-03     153.819E-03
            1737            2349     135.453E-03     137.967E-03
            1737            2350     151.008E-03     152.691E-03
            1738             102     160.072E-03     160.871E-03
            1738             103     157.911E-03     158.138E-03
            1738            2333     152.821E-03     153.819E-03
            1738            2350     151.008E-03     152.691E-03
            1739              20     47.1967E-03     47.4897E-03
            1739             362     47.6636E-03     48.5096E-03
            1739             363     41.8390E-03     45.2961E-03
            1739            2334     43.6396E-03     46.4957E-03
            1740             361     50.0132E-03     51.6848E-03
            1740             362     47.6636E-03     48.5096E-03
            1740            2334     43.6396E-03     46.4957E-03
            1740            2335     46.4779E-03     48.9553E-03
            1741             360     54.3452E-03     56.4663E-03
            1741             361     50.0132E-03     51.6848E-03
            1741            2335     46.4779E-03     48.9553E-03
            1741            2336     49.9939E-03     52.8472E-03
            1742             359     59.4876E-03     61.9117E-03
            1742             360     54.3452E-03     56.4663E-03
            1742            2336     49.9939E-03     52.8472E-03
            1742            2337     54.9593E-03     58.1004E-03
            1743             358     65.0717E-03     67.6890E-03
            1743             359     59.4876E-03     61.9117E-03
            1743            2337     54.9593E-03     58.1004E-03
            1743            2338     60.3246E-03     63.6816E-03
            1744             357     70.9434E-03     73.6808E-03
            1744             358     65.0717E-03     67.6890E-03
            1744            2338     60.3246E-03     63.6816E-03
            1744            2339     66.0970E-03     69.5768E-03
            1745             356     76.9970E-03     79.7913E-03
            1745             357     70.9434E-03     73.6808E-03
            1745            2339     66.0970E-03     69.5768E-03
            1745            2340     72.0076E-03     75.5383E-03
            1746             355     83.1594E-03     85.9760E-03
            1746             356     76.9970E-03     79.7913E-03
            1746            2340     72.0076E-03     75.5383E-03
            1746            2341     78.0503E-03     81.5742E-03
            1747             354     89.4177E-03     92.1999E-03
            1747             355     83.1594E-03     85.9760E-03
            1747            2341     78.0503E-03     81.5742E-03
            1747            2342     84.1338E-03     87.5960E-03
            1748             353     95.7218E-03     98.4520E-03
            1748             354     89.4177E-03     92.1999E-03
            1748            2342     84.1338E-03     87.5960E-03
            1748            2343     90.2969E-03     93.6444E-03
            1749             352     102.127E-03     104.727E-03
            1749             353     95.7218E-03     98.4520E-03
            1749            2343     90.2969E-03     93.6444E-03
            1749            2344     96.5138E-03     99.6971E-03
            1750             351     108.584E-03     111.058E-03
            1750             352     102.127E-03     104.727E-03
            1750            2344     96.5138E-03     99.6971E-03
            1750            2345     102.927E-03     105.885E-03
            1751             350     115.259E-03     117.498E-03
            1751             351     108.584E-03     111.058E-03
            1751            2345     102.927E-03     105.885E-03
            1751            2346     109.550E-03     112.276E-03
            1752             349     122.089E-03     124.185E-03
            1752             350     115.259E-03     117.498E-03
            1752            2346     109.550E-03     112.276E-03
            1752            2347     116.833E-03     119.298E-03
            1753             348     129.534E-03     131.438E-03
            1753             349     122.089E-03     124.185E-03
            1753            2347     116.833E-03     119.298E-03
            1753            2348     124.879E-03     127.261E-03
            1754             347     137.539E-03     139.669E-03
            1754             348     129.534E-03     131.438E-03
            1754            2348     124.879E-03     127.261E-03
            1754            2349     135.453E-03     137.967E-03
            1755             346     148.769E-03     152.619E-03
            1755             347     137.539E-03     139.669E-03
            1755            2349     135.453E-03     137.967E-03
            1755            2350     151.008E-03     152.691E-03
            1756               6     156.096E-03     161.151E-03
            1756             102     160.072E-03     160.871E-03
            1756             346     148.769E-03     152.619E-03
            1756            2350     151.008E-03     152.691E-03
            2271               3     6.23877E-03     8.21518E-03
            2271              38     479.046E-06     530.603E-06
            2271             345     4.89981E-03     5.57774E-03
            2271            2785     451.537E-06     506.265E-06
            2272             344     4.04340E-03     3.09371E-03
            2272             345     4.89981E-03     5.57774E-03
            2272            2785     451.537E-06     506.265E-06
            2272            2786     418.986E-06     473.869E-06
            2273             343     4.92046E-03     3.62002E-03
            2273             344     4.04340E-03     3.09371E-03
            2273            2786     418.986E-06     473.869E-06
            2273            2787     420.052E-06     467.500E-06
            2274             342     5.40011E-03     4.13102E-03
            2274             343     4.92046E-03     3.62002E-03
            2274            2787     420.052E-06     467.500E-06
            2274            2788     416.094E-06     461.443E-06
            2275             341     5.53297E-03     4.31243E-03
            2275             342     5.40011E-03     4.13102E-03
            2275            2788     416.094E-06     461.443E-06
            2275            2789     406.388E-06     452.296E-06
            2276             340     5.52245E-03     4.34151E-03
            2276             341     5.53297E-03     4.31243E-03
            2276            2789     406.388E-06     452.296E-06
            2276            2790     402.545E-06     446.164E-06
            2277             339     5.38769E-03     4.24513E-03
            2277             340     5.52245E-03     4.34151E-03
            2277            2790     402.545E-06     446.164E-06
            2277            2791     397.741E-06     439.616E-06
            2278             338     5.20870E-03     4.09650E-03
            2278             339     5.38769E-03     4.24513E-03
            2278            2791     397.741E-06     439.616E-06
            2278            2792     395.043E-06     434.480E-06
            2279             337     5.00010E-03     3.92615E-03
            2279             338     5.20870E-03     4.09650E-03
            2279            2792     395.043E-06     434.480E-06
            2279            2793     392.276E-06     429.152E-06
            2280             336     4.78694E-03     3.74618E-03
            2280             337     5.00010E-03     3.92615E-03
            2280            2793     392.276E-06     429.152E-06
            2280            2794     390.536E-06     424.569E-06
            2281             335     4.57139E-03     3.57785E-03
            2281             336     4.78694E-03     3.74618E-03
            2281            2794     390.536E-06     424.569E-06
            2281            2795     389.112E-06     420.057E-06
            2282             334     4.36895E-03     3.43117E-03
            2282             335     4.57139E-03     3.57785E-03
            2282            2795     389.112E-06     420.057E-06
            2282            2796     388.374E-06     416.003E-06
            2283             333     4.17414E-03     3.31459E-03
            2283             334     4.36895E-03     3.43117E-03
            2283            2796     388.374E-06     416.003E-06
            2283            2797     388.078E-06     412.251E-06
            2284             332     4.00025E-03     3.26591E-03
            2284             333     4.17414E-03     3.31459E-03
            2284            2797     388.078E-06     412.251E-06
            2284            2798     388.463E-06     408.875E-06
            2285             331     3.85230E-03     3.29146E-03
            2285             332     4.00025E-03     3.26591E-03
            2285            2798     388.463E-06     408.875E-06
            2285            2799     389.698E-06     406.290E-06
            2286             330     3.68613E-03     3.52147E-03
            2286             331     3.85230E-03     3.29146E-03
            2286            2799     389.698E-06     406.290E-06
            2286            2800     392.046E-06     404.801E-06
            2287             329     3.54107E-03     4.57705E-03
            2287             330     3.68613E-03     3.52147E-03
            2287            2800     392.046E-06     404.801E-06
            2287            2801     396.011E-06     400.337E-06
            2288              16     3.48724E-03     5.41468E-03
            2288             328     398.567E-06     396.516E-06
            2288             329     3.54107E-03     4.57705E-03
            2288            2801     396.011E-06     400.337E-06
            2289              38     479.046E-06     530.603E-06
            2289              39     227.867E-06     234.562E-06
            2289            2785     451.537E-06     506.265E-06
            2289            2802     328.613E-06     346.597E-06
            2290            2785     451.537E-06     506.265E-06
            2290            2786     418.986E-06     473.869E-06
            2290            2802     328.613E-06     346.597E-06
            2290            2803     455.381E-06     463.585E-06
            2291            2786     418.986E-06     473.869E-06
            2291            2787     420.052E-06     467.500E-06
            2291            2803     455.381E-06     463.585E-06
            2291            2804     457.933E-06     457.606E-06
            2292            2787     420.052E-06     467.500E-06
            2292            2788     416.094E-06     461.443E-06
            2292            2804     457.933E-06     457.606E-06
            2292            2805     435.558E-06     443.660E-06
            2293            2788     416.094E-06     461.443E-06
            2293            2789     406.388E-06     452.296E-06
            2293            2805     435.558E-06     443.660E-06
            2293            2806     430.100E-06     435.295E-06
            2294            2789     406.388E-06     452.296E-06
            2294            2790     402.545E-06     446.164E-06
            2294            2806     430.100E-06     435.295E-06
            2294            2807     423.120E-06     429.182E-06
            2295            2790     402.545E-06     446.164E-06
            2295            2791     397.741E-06     439.616E-06
            2295            2807     423.120E-06     429.182E-06
            2295            2808     419.293E-06     425.227E-06
            2296            2791     397.741E-06     439.616E-06
            2296            2792     395.043E-06     434.480E-06
            2296            2808     419.293E-06     425.227E-06
            2296            2809     414.754E-06     420.670E-06
            2297            2792     395.043E-06     434.480E-06
            2297            2793     392.276E-06     429.152E-06
            2297            2809     414.754E-06     420.670E-06
            2297            2810     411.280E-06     417.088E-06
            2298            2793     392.276E-06     429.152E-06
            2298            2794     390.536E-06     424.569E-06
            2298            2810     411.280E-06     417.088E-06
            2298            2811     407.694E-06     413.528E-06
            2299            2794     390.536E-06     424.569E-06
            2299            2795     389.112E-06     420.057E-06
            2299            2811     407.694E-06     413.528E-06
            2299            2812     404.850E-06     410.505E-06
            2300            2795     389.112E-06     420.057E-06
            2300            2796     388.374E-06     416.003E-06
            2300            2812     404.850E-06     410.505E-06
            2300            2813     402.195E-06     407.746E-06
            2301            2796     388.374E-06     416.003E-06
            2301            2797     388.078E-06     412.251E-06
            2301            2813     402.195E-06     407.746E-06
            2301            2814     399.716E-06     405.852E-06
            2302            2797     388.078E-06     412.251E-06
            2302            2798     388.463E-06     408.875E-06
            2302            2814     399.716E-06     405.852E-06
            2302            2815     399.075E-06     402.789E-06
            2303            2798     388.463E-06     408.875E-06
            2303            2799     389.698E-06     406.290E-06
            2303            2815     399.075E-06     402.789E-06
            2303            2816     396.447E-06     403.813E-06
            2304            2799     389.698E-06     406.290E-06
            2304            2800     392.046E-06     404.801E-06
            2304            2816     396.447E-06     403.813E-06
            2304            2817     397.761E-06     408.517E-06
            2305            2800     392.046E-06     404.801E-06
            2305            2801     396.011E-06     400.337E-06
            2305            2817     397.761E-06     408.517E-06
            2305            2818     423.540E-06     392.533E-06
            2306             327     444.605E-06     375.120E-06
            2306             328     398.567E-06     396.516E-06
            2306            2801     396.011E-06     400.337E-06
            2306            2818     423.540E-06     392.533E-06
            2307              39     227.867E-06     234.562E-06
            2307              40     89.9879E-06     209.381E-06
            2307            2802     328.613E-06     346.597E-06
            2307            2819     251.190E-06     292.293E-06
            2308            2802     328.613E-06     346.597E-06
            2308            2803     455.381E-06     463.585E-06
            2308            2819     251.190E-06     292.293E-06
            2308            2820     440.126E-06     399.505E-06
            2309            2803     455.381E-06     463.585E-06
            2309            2804     457.933E-06     457.606E-06
            2309            2820     440.126E-06     399.505E-06
            2309            2821     467.888E-06     426.779E-06
            2310            2804     457.933E-06     457.606E-06
            2310            2805     435.558E-06     443.660E-06
            2310            2821     467.888E-06     426.779E-06
            2310            2822     462.717E-06     425.347E-06
            2311            2805     435.558E-06     443.660E-06
            2311            2806     430.100E-06     435.295E-06
            2311            2822     462.717E-06     425.347E-06
            2311            2823     456.284E-06     420.513E-06
            2312            2806     430.100E-06     435.295E-06
            2312            2807     423.120E-06     429.182E-06
            2312            2823     456.284E-06     420.513E-06
            2312            2824     451.647E-06     418.008E-06
            2313            2807     423.120E-06     429.182E-06
            2313            2808     419.293E-06     425.227E-06
            2313            2824     451.647E-06     418.008E-06
            2313            2825     446.672E-06     415.108E-06
            2314            2808     419.293E-06     425.227E-06
            2314            2809     414.754E-06     420.670E-06
            2314            2825     446.672E-06     415.108E-06
            2314            2826     442.316E-06     412.904E-06
            2315            2809     414.754E-06     420.670E-06
            2315            2810     411.280E-06     417.088E-06
            2315            2826     442.316E-06     412.904E-06
            2315            2827     437.667E-06     410.745E-06
            2316            2810     411.280E-06     417.088E-06
            2316            2811     407.694E-06     413.528E-06
            2316            2827     437.667E-06     410.745E-06
            2316            2828     433.454E-06     409.108E-06
            2317            2811     407.694E-06     413.528E-06
            2317            2812     404.850E-06     410.505E-06
            2317            2828     433.454E-06     409.108E-06
            2317            2829     429.295E-06     407.812E-06
            2318            2812     404.850E-06     410.505E-06
            2318            2813     402.195E-06     407.746E-06
            2318            2829     429.295E-06     407.812E-06
            2318            2830     425.476E-06     407.019E-06
            2319            2813     402.195E-06     407.746E-06
            2319            2814     399.716E-06     405.852E-06
            2319            2830     425.476E-06     407.019E-06
            2319            2831     421.925E-06     406.629E-06
            2320            2814     399.716E-06     405.852E-06
            2320            2815     399.075E-06     402.789E-06
            2320            2831     421.925E-06     406.629E-06
            2320            2832     418.742E-06     406.871E-06
            2321            2815     399.075E-06     402.789E-06
            2321            2816     396.447E-06     403.813E-06
            2321            2832     418.742E-06     406.871E-06
            2321            2833     415.945E-06     407.905E-06
            2322            2816     396.447E-06     403.813E-06
            2322            2817     397.761E-06     408.517E-06
            2322            2833     415.945E-06     407.905E-06
            2322            2834     413.939E-06     410.401E-06
            2323            2817     397.761E-06     408.517E-06
            2323            2818     423.540E-06     392.533E-06
            2323            2834     413.939E-06     410.401E-06
            2323            2835     412.760E-06     412.868E-06
            2324             326     412.427E-06     413.596E-06
            2324             327     444.605E-06     375.120E-06
            2324            2818     423.540E-06     392.533E-06
            2324            2835     412.760E-06     412.868E-06
            2325               4     126.456E-06     275.447E-06
            2325              40     89.9879E-06     209.381E-06
            2325             513     268.860E-06     301.047E-06
            2325            2819     251.190E-06     292.293E-06
            2326             512     419.974E-06     354.583E-06
            2326             513     268.860E-06     301.047E-06
            2326            2819     251.190E-06     292.293E-06
            2326            2820     440.126E-06     399.505E-06
            2327             511     462.833E-06     404.201E-06
            2327             512     419.974E-06     354.583E-06
            2327            2820     440.126E-06     399.505E-06
            2327            2821     467.888E-06     426.779E-06
            2328             510     479.815E-06     416.477E-06
            2328             511     462.833E-06     404.201E-06
            2328            2821     467.888E-06     426.779E-06
            2328            2822     462.717E-06     425.347E-06
            2329             509     469.179E-06     413.608E-06
            2329             510     479.815E-06     416.477E-06
            2329            2822     462.717E-06     425.347E-06
            2329            2823     456.284E-06     420.513E-06
            2330             508     468.212E-06     414.382E-06
            2330             509     469.179E-06     413.608E-06
            2330            2823     456.284E-06     420.513E-06
            2330            2824     451.647E-06     418.008E-06
            2331             507     461.560E-06     411.001E-06
            2331             508     468.212E-06     414.382E-06
            2331            2824     451.647E-06     418.008E-06
            2331            2825     446.672E-06     415.108E-06
            2332             506     458.009E-06     410.776E-06
            2332             507     461.560E-06     411.001E-06
            2332            2825     446.672E-06     415.108E-06
            2332            2826     442.316E-06     412.904E-06
            2333             505     452.531E-06     408.959E-06
            2333             506     458.009E-06     410.776E-06
            2333            2826     442.316E-06     412.904E-06
            2333            2827     437.667E-06     410.745E-06
            2334             504     448.344E-06     408.668E-06
            2334             505     452.531E-06     408.959E-06
            2334            2827     437.667E-06     410.745E-06
            2334            2828     433.454E-06     409.108E-06
            2335             503     443.535E-06     408.171E-06
            2335             504     448.344E-06     408.668E-06
            2335            2828     433.454E-06     409.108E-06
            2335            2829     429.295E-06     407.812E-06
            2336             502     439.349E-06     408.564E-06
            2336             503     443.535E-06     408.171E-06
            2336            2829     429.295E-06     407.812E-06
            2336            2830     425.476E-06     407.019E-06
            2337             501     435.460E-06     408.862E-06
            2337             502     439.349E-06     408.564E-06
            2337            2830     425.476E-06     407.019E-06
            2337            2831     421.925E-06     406.629E-06
            2338             500     430.740E-06     411.416E-06
            2338             501     435.460E-06     408.862E-06
            2338            2831     421.925E-06     406.629E-06
            2338            2832     418.742E-06     406.871E-06
            2339             499     428.791E-06     411.484E-06
            2339             500     430.740E-06     411.416E-06
            2339            2832     418.742E-06     406.871E-06
            2339            2833     415.945E-06     407.905E-06
            2340             498     424.514E-06     411.209E-06
            2340             499     428.791E-06     411.484E-06
            2340            2833     415.945E-06     407.905E-06
            2340            2834     413.939E-06     410.401E-06
            2341             497     397.850E-06     428.792E-06
            2341             498     424.514E-06     411.209E-06
            2341            2834     413.939E-06     410.401E-06
            2341            2835     412.760E-06     412.868E-06
            2342              19     376.823E-06     444.654E-06
            2342             326     412.427E-06     413.596E-06
            2342             497     397.850E-06     428.792E-06
            2342            2835     412.760E-06     412.868E-06
            3393              23     38.4321E-03     64.1644E-03
            3393             570     24.9326E-03     38.9519E-03
            3393             608     25.0335E-03     23.1711E-03
            3393            3784     17.1425E-03     14.8694E-03
            3394             570     24.9326E-03     38.9519E-03
            3394             571     15.1196E-03     11.0956E-03
            3394            3784     17.1425E-03     14.8694E-03
            3394            3785     8.31845E-03     7.93618E-03
            3395             571     15.1196E-03     11.0956E-03
            3395             572     25.2118E-03     14.8694E-03
            3395            3785     8.31845E-03     7.93618E-03
            3395            3786     12.4847E-03     14.9088E-03
            3396             572     25.2118E-03     14.8694E-03
            3396             573     36.5912E-03     26.9720E-03
            3396            3786     12.4847E-03     14.9088E-03
            3396            3787     23.0953E-03     26.1486E-03
            3397             573     36.5912E-03     26.9720E-03
            3397             574     46.6274E-03     38.0321E-03
            3397            3787     23.0953E-03     26.1486E-03
            3397            3788     34.0583E-03     37.2988E-03
            3398             574     46.6274E-03     38.0321E-03
            3398             575     56.5634E-03     48.9384E-03
            3398            3788     34.0583E-03     37.2988E-03
            3398            3789     45.0415E-03     48.4091E-03
            3399             575     56.5634E-03     48.9384E-03
            3399             576     66.4664E-03     59.8802E-03
            3399            3789     45.0415E-03     48.4091E-03
            3399            3790     56.0824E-03     59.5440E-03
            3400             576     66.4664E-03     59.8802E-03
            3400             577     76.3660E-03     70.7957E-03
            3400            3790     56.0824E-03     59.5440E-03
            3400            3791     67.1153E-03     70.6856E-03
            3401             577     76.3660E-03     70.7957E-03
            3401             578     86.2557E-03     81.7238E-03
            3401            3791     67.1153E-03     70.6856E-03
            3401            3792     78.1465E-03     81.8133E-03
            3402             578     86.2557E-03     81.7238E-03
            3402             579     96.0632E-03     92.5866E-03
            3402            3792     78.1465E-03     81.8133E-03
            3402            3793     89.1412E-03     92.9214E-03
            3403             579     96.0632E-03     92.5866E-03
            3403             580     105.844E-03     103.364E-03
            3403            3793     89.1412E-03     92.9214E-03
            3403            3794     100.088E-03     103.954E-03
            3404             580     105.844E-03     103.364E-03
            3404             581     115.433E-03     114.008E-03
            3404            3794     100.088E-03     103.954E-03
            3404            3795     111.006E-03     114.953E-03
            3405             581     115.433E-03     114.008E-03
            3405             582     125.079E-03     124.479E-03
            3405            3795     111.006E-03     114.953E-03
            3405            3796     121.845E-03     125.837E-03
            3406             582     125.079E-03     124.479E-03
            3406             583     134.447E-03     134.791E-03
            3406            3796     121.845E-03     125.837E-03
            3406            3797     132.941E-03     136.886E-03
            3407             583     134.447E-03     134.791E-03
            3407             584     144.404E-03     145.274E-03
            3407            3797     132.941E-03     136.886E-03
            3407            3798     144.117E-03     148.160E-03
            3408             584     144.404E-03     145.274E-03
            3408             585     154.505E-03     156.425E-03
            3408            3798     144.117E-03     148.160E-03
            3408            3799     157.527E-03     161.533E-03
            3409             585     154.505E-03     156.425E-03
            3409             586     170.911E-03     177.293E-03
            3409            3799     157.527E-03     161.533E-03
            3409            3800     176.308E-03     178.998E-03
            3410               8     182.854E-03     192.345E-03
            3410             182     187.143E-03     188.649E-03
            3410             586     170.911E-03     177.293E-03
            3410            3800     176.308E-03     178.998E-03
            3411             607     21.5198E-03     16.0305E-03
            3411             608     25.0335E-03     23.1711E-03
            3411            3784     17.1425E-03     14.8694E-03
            3411            3801     16.9760E-03     12.2941E-03
            3412            3784     17.1425E-03     14.8694E-03
            3412            3785     8.31845E-03     7.93618E-03
            3412            3801     16.9760E-03     12.2941E-03
            3412            3802     11.7905E-03     10.0872E-03
            3413            3785     8.31845E-03     7.93618E-03
            3413            3786     12.4847E-03     14.9088E-03
            3413            3802     11.7905E-03     10.0872E-03
            3413            3803     15.0276E-03     16.4394E-03
            3414            3786     12.4847E-03     14.9088E-03
            3414            3787     23.0953E-03     26.1486E-03
            3414            3803     15.0276E-03     16.4394E-03
            3414            3804     24.1590E-03     26.6163E-03
            3415            3787     23.0953E-03     26.1486E-03
            3415            3788     34.0583E-03     37.2988E-03
            3415            3804     24.1590E-03     26.6163E-03
            3415            3805     34.8274E-03     37.4869E-03
            3416            3788     34.0583E-03     37.2988E-03
            3416            3789     45.0415E-03     48.4091E-03
            3416            3805     34.8274E-03     37.4869E-03
            3416            3806     45.7518E-03     48.5454E-03
            3417            3789     45.0415E-03     48.4091E-03
            3417            3790     56.0824E-03     59.5440E-03
            3417            3806     45.7518E-03     48.5454E-03
            3417            3807     56.8264E-03     59.7157E-03
            3418            3790     56.0824E-03     59.5440E-03
            3418            3791     67.1153E-03     70.6856E-03
            3418            3807     56.8264E-03     59.7157E-03
            3418            3808     67.9876E-03     70.9449E-03
            3419            3791     67.1153E-03     70.6856E-03
            3419            3792     78.1465E-03     81.8133E-03
            3419            3808     67.9876E-03     70.9449E-03
            3419            3809     79.1956E-03     82.2205E-03
            3420            3792     78.1465E-03     81.8133E-03
            3420            3793     89.1412E-03     92.9214E-03
            3420            3809     79.1956E-03     82.2205E-03
            3420            3810     90.4487E-03     93.5271E-03
            3421            3793     89.1412E-03     92.9214E-03
            3421            3794     100.088E-03     103.954E-03
            3421            3810     90.4487E-03     93.5271E-03
            3421            3811     101.740E-03     104.885E-03
            3422            3794     100.088E-03     103.954E-03
            3422            3795     111.006E-03     114.953E-03
            3422            3811     101.740E-03     104.885E-03
            3422            3812     113.084E-03     116.316E-03
            3423            3795     111.006E-03     114.953E-03
            3423            3796     121.845E-03     125.837E-03
            3423            3812     113.084E-03     116.316E-03
            3423            3813     124.514E-03     127.880E-03
            3424            3796     121.845E-03     125.837E-03
            3424            3797     132.941E-03     136.886E-03
            3424            3813     124.514E-03     127.880E-03
            3424            3814     136.226E-03     139.809E-03
            3425            3797     132.941E-03     136.886E-03
            3425            3798     144.117E-03     148.160E-03
            3425            3814     136.226E-03     139.809E-03
            3425            3815     148.413E-03     152.242E-03
            3426            3798     144.117E-03     148.160E-03
            3426            3799     157.527E-03     161.533E-03
            3426            3815     148.413E-03     152.242E-03
            3426            3816     163.125E-03     166.393E-03
            3427            3799     157.527E-03     161.533E-03
            3427            3800     176.308E-03     178.998E-03
            3427            3816     163.125E-03     166.393E-03
            3427            3817     177.495E-03     178.391E-03
            3428             181     183.365E-03     182.600E-03
            3428             182     187.143E-03     188.649E-03
            3428            3800     176.308E-03     178.998E-03
            3428            3817     177.495E-03     178.391E-03
            3429             606     17.5064E-03     13.5742E-03
            3429             607     21.5198E-03     16.0305E-03
            3429            3801     16.9760E-03     12.2941E-03
            3429            3818     15.5002E-03     12.2481E-03
            3430            3801     16.9760E-03     12.2941E-03
            3430            3802     11.7905E-03     10.0872E-03
            3430            3818     15.5002E-03     12.2481E-03
            3430            3819     13.9308E-03     12.9940E-03
            3431            3802     11.7905E-03     10.0872E-03
            3431            3803     15.0276E-03     16.4394E-03
            3431            3819     13.9308E-03     12.9940E-03
            3431            3820     18.0154E-03     19.2041E-03
            3432            3803     15.0276E-03     16.4394E-03
            3432            3804     24.1590E-03     26.6163E-03
            3432            3820     18.0154E-03     19.2041E-03
            3432            3821     26.4122E-03     28.2922E-03
            3433            3804     24.1590E-03     26.6163E-03
            3433            3805     34.8274E-03     37.4869E-03
            3433            3821     26.4122E-03     28.2922E-03
            3433            3822     36.4459E-03     38.5684E-03
            3434            3805     34.8274E-03     37.4869E-03
            3434            3806     45.7518E-03     48.5454E-03
            3434            3822     36.4459E-03     38.5684E-03
            3434            3823     47.1332E-03     49.3642E-03
            3435            3806     45.7518E-03     48.5454E-03
            3435            3807     56.8264E-03     59.7157E-03
            3435            3823     47.1332E-03     49.3642E-03
            3435            3824     58.0563E-03     60.3606E-03
            3436            3807     56.8264E-03     59.7157E-03
            3436            3808     67.9876E-03     70.9449E-03
            3436            3824     58.0563E-03     60.3606E-03
            3436            3825     69.1335E-03     71.4842E-03
            3437            3808     67.9876E-03     70.9449E-03
            3437            3809     79.1956E-03     82.2205E-03
            3437            3825     69.1335E-03     71.4842E-03
            3437            3826     80.3116E-03     82.6809E-03
            3438            3809     79.1956E-03     82.2205E-03
            3438            3810     90.4487E-03     93.5271E-03
            3438            3826     80.3116E-03     82.6809E-03
            3438            3827     91.5671E-03     93.9580E-03
            3439            3810     90.4487E-03     93.5271E-03
            3439            3811     101.740E-03     104.885E-03
            3439            3827     91.5671E-03     93.9580E-03
            3439            3828     102.919E-03     105.331E-03
            3440            3811     101.740E-03     104.885E-03
            3440            3812     113.084E-03     116.316E-03
            3440            3828     102.919E-03     105.331E-03
            3440            3829     114.345E-03     116.826E-03
            3441            3812     113.084E-03     116.316E-03
            3441            3813     124.514E-03     127.880E-03
            3441            3829     114.345E-03     116.826E-03
            3441            3830     125.994E-03     128.596E-03
            3442            3813     124.514E-03     127.880E-03
            3442            3814     136.226E-03     139.809E-03
            3442            3830     125.994E-03     128.596E-03
            3442            3831     137.676E-03     140.618E-03
            3443            3814     136.226E-03     139.809E-03
            3443            3815     148.413E-03     152.242E-03
            3443            3831     137.676E-03     140.618E-03
            3443            3832     150.529E-03     153.403E-03
            3444            3815     148.413E-03     152.242E-03
            3444            3816     163.125E-03     166.393E-03
            3444            3832     150.529E-03     153.403E-03
            3444            3833     163.166E-03     165.961E-03
            3445            3816     163.125E-03     166.393E-03
            3445            3817     177.495E-03     178.391E-03
            3445            3833     163.166E-03     165.961E-03
            3445            3834     172.517E-03     176.273E-03
            3446             180     176.342E-03     180.761E-03
            3446             181     183.365E-03     182.600E-03
            3446            3817     177.495E-03     178.391E-03
            3446            3834     172.517E-03     176.273E-03
            3447             605     17.9197E-03     14.3383E-03
            3447             606     17.5064E-03     13.5742E-03
            3447            3818     15.5002E-03     12.2481E-03
            3447            3835     16.7041E-03     14.8856E-03
            3448            3818     15.5002E-03     12.2481E-03
            3448            3819     13.9308E-03     12.9940E-03
            3448            3835     16.7041E-03     14.8856E-03
            3448            3836     16.5098E-03     17.1460E-03
            3449            3819     13.9308E-03     12.9940E-03
            3449            3820     18.0154E-03     19.2041E-03
            3449            3836     16.5098E-03     17.1460E-03
            3449            3837     21.1186E-03     22.4909E-03
            3450            3820     18.0154E-03     19.2041E-03
            3450            3821     26.4122E-03     28.2922E-03
            3450            3837     21.1186E-03     22.4909E-03
            3450            3838     29.2961E-03     30.7948E-03
            3451            3821     26.4122E-03     28.2922E-03
            3451            3822     36.4459E-03     38.5684E-03
            3451            3838     29.2961E-03     30.7948E-03
            3451            3839     38.8621E-03     40.5140E-03
            3452            3822     36.4459E-03     38.5684E-03
            3452            3823     47.1332E-03     49.3642E-03
            3452            3839     38.8621E-03     40.5140E-03
            3452            3840     49.1126E-03     50.8460E-03
            3453            3823     47.1332E-03     49.3642E-03
            3453            3824     58.0563E-03     60.3606E-03
            3453            3840     49.1126E-03     50.8460E-03
            3453            3841     59.7284E-03     61.4957E-03
            3454            3824     58.0563E-03     60.3606E-03
            3454            3825     69.1335E-03     71.4842E-03
            3454            3841     59.7284E-03     61.4957E-03
            3454            3842     70.5245E-03     72.2882E-03
            3455            3825     69.1335E-03     71.4842E-03
            3455            3826     80.3116E-03     82.6809E-03
            3455            3842     70.5245E-03     72.2882E-03
            3455            3843     81.4401E-03     83.1866E-03
            3456            3826     80.3116E-03     82.6809E-03
            3456            3827     91.5671E-03     93.9580E-03
            3456            3843     81.4401E-03     83.1866E-03
            3456            3844     92.4446E-03     94.1475E-03
            3457            3827     91.5671E-03     93.9580E-03
            3457            3828     102.919E-03     105.331E-03
            3457            3844     92.4446E-03     94.1475E-03
            3457            3845     103.503E-03     105.183E-03
            3458            3828     102.919E-03     105.331E-03
            3458            3829     114.345E-03     116.826E-03
            3458            3845     103.503E-03     105.183E-03
            3458            3846     114.671E-03     116.312E-03
            3459            3829     114.345E-03     116.826E-03
            3459            3830     125.994E-03     128.596E-03
            3459            3846     114.671E-03     116.312E-03
            3459            3847     125.842E-03     127.534E-03
            3460            3830     125.994E-03     128.596E-03
            3460            3831     137.676E-03     140.618E-03
            3460            3847     125.842E-03     127.534E-03
            3460            3848     137.258E-03     138.967E-03
            3461            3831     137.676E-03     140.618E-03
            3461            3832     150.529E-03     153.403E-03
            3461            3848     137.258E-03     138.967E-03
            3461            3849     148.423E-03     150.412E-03
            3462            3832     150.529E-03     153.403E-03
            3462            3833     163.166E-03     165.961E-03
            3462            3849     148.423E-03     150.412E-03
            3462            3850     159.064E-03     161.375E-03
            3463            3833     163.166E-03     165.961E-03
            3463            3834     172.517E-03     176.273E-03
            3463            3850     159.064E-03     161.375E-03
            3463            3851     167.643E-03     168.581E-03
            3464             179     170.849E-03     170.475E-03
            3464             180     176.342E-03     180.761E-03
            3464            3834     172.517E-03     176.273E-03
            3464            3851     167.643E-03     168.581E-03
            3465             604     16.7446E-03     18.2688E-03
            3465             605     17.9197E-03     14.3383E-03
            3465            3835     16.7041E-03     14.8856E-03
            3465            3852     17.2193E-03     18.6412E-03
            3466            3835     16.7041E-03     14.8856E-03
            3466            3836     16.5098E-03     17.1460E-03
            3466            3852     17.2193E-03     18.6412E-03
            3466            3853     19.7723E-03     20.9388E-03
            3467            3836     16.5098E-03     17.1460E-03
            3467            3837     21.1186E-03     22.4909E-03
            3467            3853     19.7723E-03     20.9388E-03
            3467            3854     25.2727E-03     26.3913E-03
            3468            3837     21.1186E-03     22.4909E-03
            3468            3838     29.2961E-03     30.7948E-03
            3468            3854     25.2727E-03     26.3913E-03
            3468            3855     32.9724E-03     34.2350E-03
            3469            3838     29.2961E-03     30.7948E-03
            3469            3839     38.8621E-03     40.5140E-03
            3469            3855     32.9724E-03     34.2350E-03
            3469            3856     42.0342E-03     43.3537E-03
            3470            3839     38.8621E-03     40.5140E-03
            3470            3840     49.1126E-03     50.8460E-03
            3470            3856     42.0342E-03     43.3537E-03
            3470            3857     51.7760E-03     53.1092E-03
            3471            3840     49.1126E-03     50.8460E-03
            3471            3841     59.7284E-03     61.4957E-03
            3471            3857     51.7760E-03     53.1092E-03
            3471            3858     61.8997E-03     63.1946E-03
            3472            3841     59.7284E-03     61.4957E-03
            3472            3842     70.5245E-03     72.2882E-03
            3472            3858     61.8997E-03     63.1946E-03
            3472            3859     72.2500E-03     73.4826E-03
            3473            3842     70.5245E-03     72.2882E-03
            3473            3843     81.4401E-03     83.1866E-03
            3473            3859     72.2500E-03     73.4826E-03
            3473            3860     82.7070E-03     83.8545E-03
            3474            3843     81.4401E-03     83.1866E-03
            3474            3844     92.4446E-03     94.1475E-03
            3474            3860     82.7070E-03     83.8545E-03
            3474            3861     93.2030E-03     94.2709E-03
            3475            3844     92.4446E-03     94.1475E-03
            3475            3845     103.503E-03     105.183E-03
            3475            3861     93.2030E-03     94.2709E-03
            3475            3862     103.706E-03     104.645E-03
            3476            3845     103.503E-03     105.183E-03
            3476            3846     114.671E-03     116.312E-03
            3476            3862     103.706E-03     104.645E-03
            3476            3863     114.130E-03     114.962E-03
            3477            3846     114.671E-03     116.312E-03
            3477            3847     125.842E-03     127.534E-03
            3477            3863     114.130E-03     114.962E-03
            3477            3864     124.452E-03     125.074E-03
            3478            3847     125.842E-03     127.534E-03
            3478            3848     137.258E-03     138.967E-03
            3478            3864     124.452E-03     125.074E-03
            3478            3865     134.547E-03     134.943E-03
            3479            3848     137.258E-03     138.967E-03
            3479            3849     148.423E-03     150.412E-03
            3479            3865     134.547E-03     134.943E-03
            3479            3866     143.807E-03     144.114E-03
            3480            3849     148.423E-03     150.412E-03
            3480            3850     159.064E-03     161.375E-03
            3480            3866     143.807E-03     144.114E-03
            3480            3867     152.273E-03     152.449E-03
            3481            3850     159.064E-03     161.375E-03
            3481            3851     167.643E-03     168.581E-03
            3481            3867     152.273E-03     152.449E-03
            3481            3868     159.420E-03     159.051E-03
            3482             178     162.447E-03     161.588E-03
            3482             179     170.849E-03     170.475E-03
            3482            3851     167.643E-03     168.581E-03
            3482            3868     159.420E-03     159.051E-03
            3483              24     13.6659E-03     15.5984E-03
            3483             603     12.5957E-03     13.5107E-03
            3483             604     16.7446E-03     18.2688E-03
            3483            3852     17.2193E-03     18.6412E-03
            3484             602     13.5144E-03     14.1773E-03
            3484             603     12.5957E-03     13.5107E-03
            3484            3852     17.2193E-03     18.6412E-03
            3484            3853     19.7723E-03     20.9388E-03
            3485             601     19.6684E-03     21.1721E-03
            3485             602     13.5144E-03     14.1773E-03
            3485            3853     19.7723E-03     20.9388E-03
            3485            3854     25.2727E-03     26.3913E-03
            3486             600     28.2511E-03     29.8942E-03
            3486             601     19.6684E-03     21.1721E-03
            3486            3854     25.2727E-03     26.3913E-03
            3486            3855     32.9724E-03     34.2350E-03
            3487             599     37.4376E-03     39.1098E-03
            3487             600     28.2511E-03     29.8942E-03
            3487            3855     32.9724E-03     34.2350E-03
            3487            3856     42.0342E-03     43.3537E-03
            3488             598     47.0326E-03     48.6906E-03
            3488             599     37.4376E-03     39.1098E-03
            3488            3856     42.0342E-03     43.3537E-03
            3488            3857     51.7760E-03     53.1092E-03
            3489             597     56.8051E-03     58.4152E-03
            3489             598     47.0326E-03     48.6906E-03
            3489            3857     51.7760E-03     53.1092E-03
            3489            3858     61.8997E-03     63.1946E-03
            3490             596     66.7033E-03     68.2746E-03
            3490             597     56.8051E-03     58.4152E-03
            3490            3858     61.8997E-03     63.1946E-03
            3490            3859     72.2500E-03     73.4826E-03
            3491             595     76.6536E-03     78.1548E-03
            3491             596     66.7033E-03     68.2746E-03
            3491            3859     72.2500E-03     73.4826E-03
            3491            3860     82.7070E-03     83.8545E-03
            3492             594     86.6070E-03     88.0677E-03
            3492             595     76.6536E-03     78.1548E-03
            3492            3860     82.7070E-03     83.8545E-03
            3492            3861     93.2030E-03     94.2709E-03
            3493             593     96.5400E-03     97.9070E-03
            3493             594     86.6070E-03     88.0677E-03
            3493            3861     93.2030E-03     94.2709E-03
            3493            3862     103.706E-03     104.645E-03
            3494             592     106.381E-03     107.671E-03
            3494             593     96.5400E-03     97.9070E-03
            3494            3862     103.706E-03     104.645E-03
            3494            3863     114.130E-03     114.962E-03
            3495             591     116.137E-03     117.262E-03
            3495             592     106.381E-03     107.671E-03
            3495            3863     114.130E-03     114.962E-03
            3495            3864     124.452E-03     125.074E-03
            3496             590     125.555E-03     126.519E-03
            3496             591     116.137E-03     117.262E-03
            3496            3864     124.452E-03     125.074E-03
            3496            3865     134.547E-03     134.943E-03
            3497             589     134.750E-03     135.360E-03
            3497             590     125.555E-03     126.519E-03
            3497            3865     134.547E-03     134.943E-03
            3497            3866     143.807E-03     144.114E-03
            3498             588     143.019E-03     143.467E-03
            3498             589     134.750E-03     135.360E-03
            3498            3866     143.807E-03     144.114E-03
            3498            3867     152.273E-03     152.449E-03
            3499             587     150.778E-03     152.128E-03
            3499             588     143.019E-03     143.467E-03
            3499            3867     152.273E-03     152.449E-03
            3499            3868     159.420E-03     159.051E-03
            3500              10     154.940E-03     156.918E-03
            3500             178     162.447E-03     161.588E-03
            3500             587     150.778E-03     152.128E-03
            3500            3868     159.420E-03     159.051E-03
            3959              20     47.1967E-03     47.4897E-03
            3959             362     47.6636E-03     48.5096E-03
            3959             548     50.2602E-03     71.6973E-03
            3959            4243     42.5271E-03     60.5930E-03
            3960             361     50.0132E-03     51.6848E-03
            3960             362     47.6636E-03     48.5096E-03
            3960            4243     42.5271E-03     60.5930E-03
            3960            4244     37.2229E-03     50.7628E-03
            3961             360     54.3452E-03     56.4663E-03
            3961             361     50.0132E-03     51.6848E-03
            3961            4244     37.2229E-03     50.7628E-03
            3961            4245     43.0019E-03     55.2123E-03
            3962             359     59.4876E-03     61.9117E-03
            3962             360     54.3452E-03     56.4663E-03
            3962            4245     43.0019E-03     55.2123E-03
            3962            4246     50.1019E-03     61.9691E-03
            3963             358     65.0717E-03     67.6890E-03
            3963             359     59.4876E-03     61.9117E-03
            3963            4246     50.1019E-03     61.9691E-03
            3963            4247     57.5637E-03     69.2686E-03
            3964             357     70.9434E-03     73.6808E-03
            3964             358     65.0717E-03     67.6890E-03
            3964            4247     57.5637E-03     69.2686E-03
            3964            4248     65.2258E-03     76.6353E-03
            3965             356     76.9970E-03     79.7913E-03
            3965             357     70.9434E-03     73.6808E-03
            3965            4248     65.2258E-03     76.6353E-03
            3965            4249     73.2177E-03     84.0713E-03
            3966             355     83.1594E-03     85.9760E-03
            3966             356     76.9970E-03     79.7913E-03
            3966            4249     73.2177E-03     84.0713E-03
            3966            4250     81.3610E-03     91.5586E-03
            3967             354     89.4177E-03     92.1999E-03
            3967             355     83.1594E-03     85.9760E-03
            3967            4250     81.3610E-03     91.5586E-03
            3967            4251     89.6611E-03     99.0905E-03
            3968             353     95.7218E-03     98.4520E-03
            3968             354     89.4177E-03     92.1999E-03
            3968            4251     89.6611E-03     99.0905E-03
            3968            4252     97.9947E-03     106.620E-03
            3969             352     102.127E-03     104.727E-03
            3969             353     95.7218E-03     98.4520E-03
            3969            4252     97.9947E-03     106.620E-03
            3969            4253     106.403E-03     114.161E-03
            3970             351     108.584E-03     111.058E-03
            3970             352     102.127E-03     104.727E-03
            3970            4253     106.403E-03     114.161E-03
            3970            4254     114.708E-03     121.610E-03
            3971             350     115.259E-03     117.498E-03
            3971             351     108.584E-03     111.058E-03
            3971            4254     114.708E-03     121.610E-03
            3971            4255     123.063E-03     128.963E-03
            3972             349     122.089E-03     124.185E-03
            3972             350     115.259E-03     117.498E-03
            3972            4255     123.063E-03     128.963E-03
            3972            4256     131.111E-03     136.128E-03
            3973             348     129.534E-03     131.438E-03
            3973             349     122.089E-03     124.185E-03
            3973            4256     131.111E-03     136.128E-03
            3973            4257     138.964E-03     142.860E-03
            3974             347     137.539E-03     139.669E-03
            3974             348     129.534E-03     131.438E-03
            3974            4257     138.964E-03     142.860E-03
            3974            4258     145.987E-03     148.850E-03
            3975             346     148.769E-03     152.619E-03
            3975             347     137.539E-03     139.669E-03
            3975            4258     145.987E-03     148.850E-03
            3975            4259     152.448E-03     155.676E-03
            3976               6     156.096E-03     161.151E-03
            3976             166     156.013E-03     159.829E-03
            3976             346     148.769E-03     152.619E-03
            3976            4259     152.448E-03     155.676E-03
            3977             548     50.2602E-03     71.6973E-03
            3977             549     55.3839E-03     74.9170E-03
            3977            4243     42.5271E-03     60.5930E-03
            3977            4260     38.9357E-03     58.8462E-03
            3978            4243     42.5271E-03     60.5930E-03
            3978            4244     37.2229E-03     50.7628E-03
            3978            4260     38.9357E-03     58.8462E-03
            3978            4261     23.3125E-03     42.4064E-03
            3979            4244     37.2229E-03     50.7628E-03
            3979            4245     43.0019E-03     55.2123E-03
            3979            4261     23.3125E-03     42.4064E-03
            3979            4262     28.8687E-03     46.0735E-03
            3980            4245     43.0019E-03     55.2123E-03
            3980            4246     50.1019E-03     61.9691E-03
            3980            4262     28.8687E-03     46.0735E-03
            3980            4263     37.7036E-03     54.2684E-03
            3981            4246     50.1019E-03     61.9691E-03
            3981            4247     57.5637E-03     69.2686E-03
            3981            4263     37.7036E-03     54.2684E-03
            3981            4264     46.2724E-03     62.8624E-03
            3982            4247     57.5637E-03     69.2686E-03
            3982            4248     65.2258E-03     76.6353E-03
            3982            4264     46.2724E-03     62.8624E-03
            3982            4265     55.5645E-03     71.6929E-03
            3983            4248     65.2258E-03     76.6353E-03
            3983            4249     73.2177E-03     84.0713E-03
            3983            4265     55.5645E-03     71.6929E-03
            3983            4266     65.2220E-03     80.5048E-03
            3984            4249     73.2177E-03     84.0713E-03
            3984            4250     81.3610E-03     91.5586E-03
            3984            4266     65.2220E-03     80.5048E-03
            3984            4267     75.0667E-03     89.3326E-03
            3985            4250     81.3610E-03     91.5586E-03
            3985            4251     89.6611E-03     99.0905E-03
            3985            4267     75.0667E-03     89.3326E-03
            3985            4268     85.0551E-03     98.1514E-03
            3986            4251     89.6611E-03     99.0905E-03
            3986            4252     97.9947E-03     106.620E-03
            3986            4268     85.0551E-03     98.1514E-03
            3986            4269     95.1150E-03     106.976E-03
            3987            4252     97.9947E-03     106.620E-03
            3987            4253     106.403E-03     114.161E-03
            3987            4269     95.1150E-03     106.976E-03
            3987            4270     105.158E-03     115.742E-03
            3988            4253     106.403E-03     114.161E-03
            3988            4254     114.708E-03     121.610E-03
            3988            4270     105.158E-03     115.742E-03
            3988            4271     115.240E-03     124.450E-03
            3989            4254     114.708E-03     121.610E-03
            3989            4255     123.063E-03     128.963E-03
            3989            4271     115.240E-03     124.450E-03
            3989            4272     125.119E-03     133.040E-03
            3990            4255     123.063E-03     128.963E-03
            3990            4256     131.111E-03     136.128E-03
            3990            4272     125.119E-03     133.040E-03
            3990            4273     135.077E-03     141.467E-03
            3991            4256     131.111E-03     136.128E-03
            3991            4257     138.964E-03     142.860E-03
            3991            4273     135.077E-03     141.467E-03
            3991            4274     144.471E-03     149.481E-03
            3992            4257     138.964E-03     142.860E-03
            3992            4258     145.987E-03     148.850E-03
            3992            4274     144.471E-03     149.481E-03
            3992            4275     152.807E-03     157.026E-03
            3993            4258     145.987E-03     148.850E-03
            3993            4259     152.448E-03     155.676E-03
            3993            4275     152.807E-03     157.026E-03
            3993            4276     160.638E-03     162.417E-03
            3994             165     164.324E-03     164.084E-03
            3994             166     156.013E-03     159.829E-03
            3994            4259     152.448E-03     155.676E-03
            3994            4276     160.638E-03     162.417E-03
            3995             549     55.3839E-03     74.9170E-03
            3995             550     52.7974E-03     42.7268E-03
            3995            4260     38.9357E-03     58.8462E-03
            3995            4277     36.4069E-03     35.1958E-03
            3996            4260     38.9357E-03     58.8462E-03
            3996            4261     23.3125E-03     42.4064E-03
            3996            4277     36.4069E-03     35.1958E-03
            3996            4278     24.4619E-03     30.8308E-03
            3997            4261     23.3125E-03     42.4064E-03
            3997            4262     28.8687E-03     46.0735E-03
            3997            4278     24.4619E-03     30.8308E-03
            3997            4279     32.8275E-03     38.0667E-03
            3998            4262     28.8687E-03     46.0735E-03
            3998            4263     37.7036E-03     54.2684E-03
            3998            4279     32.8275E-03     38.0667E-03
            3998            4280     40.7225E-03     46.5829E-03
            3999            4263     37.7036E-03     54.2684E-03
            3999            4264     46.2724E-03     62.8624E-03
            3999            4280     40.7225E-03     46.5829E-03
            3999            4281     49.2462E-03     55.5663E-03
            4000            4264     46.2724E-03     62.8624E-03
            4000            4265     55.5645E-03     71.6929E-03
            4000            4281     49.2462E-03     55.5663E-03
            4000            4282     58.5214E-03     64.8465E-03
            4001            4265     55.5645E-03     71.6929E-03
            4001            4266     65.2220E-03     80.5048E-03
            4001            4282     58.5214E-03     64.8465E-03
            4001            4283     68.1088E-03     74.2953E-03
            4002            4266     65.2220E-03     80.5048E-03
            4002            4267     75.0667E-03     89.3326E-03
            4002            4283     68.1088E-03     74.2953E-03
            4002            4284     77.8830E-03     83.7826E-03
            4003            4267     75.0667E-03     89.3326E-03
            4003            4268     85.0551E-03     98.1514E-03
            4003            4284     77.8830E-03     83.7826E-03
            4003            4285     87.7674E-03     93.3377E-03
            4004            4268     85.0551E-03     98.1514E-03
            4004            4269     95.1150E-03     106.976E-03
            4004            4285     87.7674E-03     93.3377E-03
            4004            4286     97.7241E-03     102.920E-03
            4005            4269     95.1150E-03     106.976E-03
            4005            4270     105.158E-03     115.742E-03
            4005            4286     97.7241E-03     102.920E-03
            4005            4287     107.755E-03     112.552E-03
            4006            4270     105.158E-03     115.742E-03
            4006            4271     115.240E-03     124.450E-03
            4006            4287     107.755E-03     112.552E-03
            4006            4288     117.833E-03     122.244E-03
            4007            4271     115.240E-03     124.450E-03
            4007            4272     125.119E-03     133.040E-03
            4007            4288     117.833E-03     122.244E-03
            4007            4289     128.043E-03     132.053E-03
            4008            4272     125.119E-03     133.040E-03
            4008            4273     135.077E-03     141.467E-03
            4008            4289     128.043E-03     132.053E-03
            4008            4290     138.275E-03     142.022E-03
            4009            4273     135.077E-03     141.467E-03
            4009            4274     144.471E-03     149.481E-03
            4009            4290     138.275E-03     142.022E-03
            4009            4291     148.996E-03     152.436E-03
            4010            4274     144.471E-03     149.481E-03
            4010            4275     152.807E-03     157.026E-03
            4010            4291     148.996E-03     152.436E-03
            4010            4292     160.123E-03     162.993E-03
            4011            4275     152.807E-03     157.026E-03
            4011            4276     160.638E-03     162.417E-03
            4011            4292     160.123E-03     162.993E-03
            4011            4293     168.087E-03     170.514E-03
            4012             164     170.590E-03     172.861E-03
            4012             165     164.324E-03     164.084E-03
            4012            4276     160.638E-03     162.417E-03
            4012            4293     168.087E-03     170.514E-03
            4013             550     52.7974E-03     42.7268E-03
            4013             551     57.7917E-03     45.2002E-03
            4013            4277     36.4069E-03     35.1958E-03
            4013            4294     34.6323E-03     28.7823E-03
            4014            4277     36.4069E-03     35.1958E-03
            4014            4278     24.4619E-03     30.8308E-03
            4014            4294     34.6323E-03     28.7823E-03
            4014            4295     22.3161E-03     18.8954E-03
            4015            4278     24.4619E-03     30.8308E-03
            4015            4279     32.8275E-03     38.0667E-03
            4015            4295     22.3161E-03     18.8954E-03
            4015            4296     36.3878E-03     29.9075E-03
            4016            4279     32.8275E-03     38.0667E-03
            4016            4280     40.7225E-03     46.5829E-03
            4016            4296     36.3878E-03     29.9075E-03
            4016            4297     44.0799E-03     39.1693E-03
            4017            4280     40.7225E-03     46.5829E-03
            4017            4281     49.2462E-03     55.5663E-03
            4017            4297     44.0799E-03     39.1693E-03
            4017            4298     52.9914E-03     48.7710E-03
            4018            4281     49.2462E-03     55.5663E-03
            4018            4282     58.5214E-03     64.8465E-03
            4018            4298     52.9914E-03     48.7710E-03
            4018            4299     62.0486E-03     58.4864E-03
            4019            4282     58.5214E-03     64.8465E-03
            4019            4283     68.1088E-03     74.2953E-03
            4019            4299     62.0486E-03     58.4864E-03
            4019            4300     71.4079E-03     68.4396E-03
            4020            4283     68.1088E-03     74.2953E-03
            4020            4284     77.8830E-03     83.7826E-03
            4020            4300     71.4079E-03     68.4396E-03
            4020            4301     80.9294E-03     78.5308E-03
            4021            4284     77.8830E-03     83.7826E-03
            4021            4285     87.7674E-03     93.3377E-03
            4021            4301     80.9294E-03     78.5308E-03
            4021            4302     90.5362E-03     88.6754E-03
            4022            4285     87.7674E-03     93.3377E-03
            4022            4286     97.7241E-03     102.920E-03
            4022            4302     90.5362E-03     88.6754E-03
            4022            4303     100.197E-03     98.8673E-03
            4023            4286     97.7241E-03     102.920E-03
            4023            4287     107.755E-03     112.552E-03
            4023            4303     100.197E-03     98.8673E-03
            4023            4304     109.938E-03     109.115E-03
            4024            4287     107.755E-03     112.552E-03
            4024            4288     117.833E-03     122.244E-03
            4024            4304     109.938E-03     109.115E-03
            4024            4305     119.703E-03     119.429E-03
            4025            4288     117.833E-03     122.244E-03
            4025            4289     128.043E-03     132.053E-03
            4025            4305     119.703E-03     119.429E-03
            4025            4306     129.640E-03     129.852E-03
            4026            4289     128.043E-03     132.053E-03
            4026            4290     138.275E-03     142.022E-03
            4026            4306     129.640E-03     129.852E-03
            4026            4307     139.594E-03     140.534E-03
            4027            4290     138.275E-03     142.022E-03
            4027            4291     148.996E-03     152.436E-03
            4027            4307     139.594E-03     140.534E-03
            4027            4308     150.101E-03     151.637E-03
            4028            4291     148.996E-03     152.436E-03
            4028            4292     160.123E-03     162.993E-03
            4028            4308     150.101E-03     151.637E-03
            4028            4309     162.424E-03     163.901E-03
            4029            4292     160.123E-03     162.993E-03
            4029            4293     168.087E-03     170.514E-03
            4029            4309     162.424E-03     163.901E-03
            4029            4310     172.950E-03     173.955E-03
            4030             163     176.795E-03     177.443E-03
            4030             164     170.590E-03     172.861E-03
            4030            4293     168.087E-03     170.514E-03
            4030            4310     172.950E-03     173.955E-03
            4031             551     57.7917E-03     45.2002E-03
            4031             552     58.9316E-03     78.9526E-03
            4031            4294     34.6323E-03     28.7823E-03
            4031            4311     35.9821E-03     47.1991E-03
            4032            4294     34.6323E-03     28.7823E-03
            4032            4295     22.3161E-03     18.8954E-03
            4032            4311     35.9821E-03     47.1991E-03
            4032            4312     22.7358E-03     14.7518E-03
            4033            4295     22.3161E-03     18.8954E-03
            4033            4296     36.3878E-03     29.9075E-03
            4033            4312     22.7358E-03     14.7518E-03
            4033            4313     37.9922E-03     20.1867E-03
            4034            4296     36.3878E-03     29.9075E-03
            4034            4297     44.0799E-03     39.1693E-03
            4034            4313     37.9922E-03     20.1867E-03
            4034            4314     48.1246E-03     31.5829E-03
            4035            4297     44.0799E-03     39.1693E-03
            4035            4298     52.9914E-03     48.7710E-03
            4035            4314     48.1246E-03     31.5829E-03
            4035            4315     57.1539E-03     41.9968E-03
            4036            4298     52.9914E-03     48.7710E-03
            4036            4299     62.0486E-03     58.4864E-03
            4036            4315     57.1539E-03     41.9968E-03
            4036            4316     66.0939E-03     52.3829E-03
            4037            4299     62.0486E-03     58.4864E-03
            4037            4300     71.4079E-03     68.4396E-03
            4037            4316     66.0939E-03     52.3829E-03
            4037            4317     75.1233E-03     62.8770E-03
            4038            4300     71.4079E-03     68.4396E-03
            4038            4301     80.9294E-03     78.5308E-03
            4038            4317     75.1233E-03     62.8770E-03
            4038            4318     84.2439E-03     73.4670E-03
            4039            4301     80.9294E-03     78.5308E-03
            4039            4302     90.5362E-03     88.6754E-03
            4039            4318     84.2439E-03     73.4670E-03
            4039            4319     93.3800E-03     84.0780E-03
            4040            4302     90.5362E-03     88.6754E-03
            4040            4303     100.197E-03     98.8673E-03
            4040            4319     93.3800E-03     84.0780E-03
            4040            4320     102.552E-03     94.7103E-03
            4041            4303     100.197E-03     98.8673E-03
            4041            4304     109.938E-03     109.115E-03
            4041            4320     102.552E-03     94.7103E-03
            4041            4321     111.662E-03     105.301E-03
            4042            4304     109.938E-03     109.115E-03
            4042            4305     119.703E-03     119.429E-03
            4042            4321     111.662E-03     105.301E-03
            4042            4322     120.831E-03     115.881E-03
            4043            4305     119.703E-03     119.429E-03
            4043            4306     129.640E-03     129.852E-03
            4043            4322     120.831E-03     115.881E-03
            4043            4323     129.830E-03     126.381E-03
            4044            4306     129.640E-03     129.852E-03
            4044            4307     139.594E-03     140.534E-03
            4044            4323     129.830E-03     126.381E-03
            4044            4324     139.078E-03     136.930E-03
            4045            4307     139.594E-03     140.534E-03
            4045            4308     150.101E-03     151.637E-03
            4045            4324     139.078E-03     136.930E-03
            4045            4325     148.210E-03     147.470E-03
            4046            4308     150.101E-03     151.637E-03
            4046            4309     162.424E-03     163.901E-03
            4046            4325     148.210E-03     147.470E-03
            4046            4326     158.536E-03     159.452E-03
            4047            4309     162.424E-03     163.901E-03
            4047            4310     172.950E-03     173.955E-03
            4047            4326     158.536E-03     159.452E-03
            4047            4327     172.919E-03     173.528E-03
            4048             162     181.186E-03     180.766E-03
            4048             163     176.795E-03     177.443E-03
            4048            4310     172.950E-03     173.955E-03
            4048            4327     172.919E-03     173.528E-03
            4049              23     38.4321E-03     64.1644E-03
            4049             552     58.9316E-03     78.9526E-03
            4049             570     24.9326E-03     38.9519E-03
            4049            4311     35.9821E-03     47.1991E-03
            4050             570     24.9326E-03     38.9519E-03
            4050             571     15.1196E-03     11.0956E-03
            4050            4311     35.9821E-03     47.1991E-03
            4050            4312     22.7358E-03     14.7518E-03
            4051             571     15.1196E-03     11.0956E-03
            4051             572     25.2118E-03     14.8694E-03
            4051            4312     22.7358E-03     14.7518E-03
            4051            4313     37.9922E-03     20.1867E-03
            4052             572     25.2118E-03     14.8694E-03
            4052             573     36.5912E-03     26.9720E-03
            4052            4313     37.9922E-03     20.1867E-03
            4052            4314     48.1246E-03     31.5829E-03
            4053             573     36.5912E-03     26.9720E-03
            4053             574     46.6274E-03     38.0321E-03
            4053            4314     48.1246E-03     31.5829E-03
            4053            4315     57.1539E-03     41.9968E-03
            4054             574     46.6274E-03     38.0321E-03
            4054             575     56.5634E-03     48.9384E-03
            4054            4315     57.1539E-03     41.9968E-03
            4054            4316     66.0939E-03     52.3829E-03
            4055             575     56.5634E-03     48.9384E-03
            4055             576     66.4664E-03     59.8802E-03
            4055            4316     66.0939E-03     52.3829E-03
            4055            4317     75.1233E-03     62.8770E-03
            4056             576     66.4664E-03     59.8802E-03
            4056             577     76.3660E-03     70.7957E-03
            4056            4317     75.1233E-03     62.8770E-03
            4056            4318     84.2439E-03     73.4670E-03
            4057             577     76.3660E-03     70.7957E-03
            4057             578     86.2557E-03     81.7238E-03
            4057            4318     84.2439E-03     73.4670E-03
            4057            4319     93.3800E-03     84.0780E-03
            4058             578     86.2557E-03     81.7238E-03
            4058             579     96.0632E-03     92.5866E-03
            4058            4319     93.3800E-03     84.0780E-03
            4058            4320     102.552E-03     94.7103E-03
            4059             579     96.0632E-03     92.5866E-03
            4059             580     105.844E-03     103.364E-03
            4059            4320     102.552E-03     94.7103E-03
            4059            4321     111.662E-03     105.301E-03
            4060             580     105.844E-03     103.364E-03
            4060             581     115.433E-03     114.008E-03
            4060            4321     111.662E-03     105.301E-03
            4060            4322     120.831E-03     115.881E-03
            4061             581     115.433E-03     114.008E-03
            4061             582     125.079E-03     124.479E-03
            4061            4322     120.831E-03     115.881E-03
            4061            4323     129.830E-03     126.381E-03
            4062             582     125.079E-03     124.479E-03
            4062             583     134.447E-03     134.791E-03
            4062            4323     129.830E-03     126.381E-03
            4062            4324     139.078E-03     136.930E-03
            4063             583     134.447E-03     134.791E-03
            4063             584     144.404E-03     145.274E-03
            4063            4324     139.078E-03     136.930E-03
            4063            4325     148.210E-03     147.470E-03
            4064             584     144.404E-03     145.274E-03
            4064             585     154.505E-03     156.425E-03
            4064            4325     148.210E-03     147.470E-03
            4064            4326     158.536E-03     159.452E-03
            4065             585     154.505E-03     156.425E-03
            4065             586     170.911E-03     177.293E-03
            4065            4326     158.536E-03     159.452E-03
            4065            4327     172.919E-03     173.528E-03
            4066               8     182.854E-03     192.345E-03
            4066             162     181.186E-03     180.766E-03
            4066             586     170.911E-03     177.293E-03
            4066            4327     172.919E-03     173.528E-03
            5067              26     6.37477E-03     6.74389E-03
            5067             748     6.82821E-03     7.08522E-03
            5067             791     382.495E-06     404.617E-06
            5067            5225     380.773E-06     406.420E-06
            5068             748     6.82821E-03     7.08522E-03
            5068             749     7.39932E-03     7.40142E-03
            5068            5225     380.773E-06     406.420E-06
            5068            5226     382.117E-06     406.036E-06
            5069             749     7.39932E-03     7.40142E-03
            5069             750     7.64913E-03     7.50657E-03
            5069            5226     382.117E-06     406.036E-06
            5069            5227     386.835E-06     407.068E-06
            5070             750     7.64913E-03     7.50657E-03
            5070             751     7.85690E-03     7.67097E-03
            5070            5227     386.835E-06     407.068E-06
            5070            5228     389.235E-06     414.953E-06
            5071             751     7.85690E-03     7.67097E-03
            5071             752     7.98754E-03     7.72911E-03
            5071            5228     389.235E-06     414.953E-06
            5071            5229     392.106E-06     423.583E-06
            5072             752     7.98754E-03     7.72911E-03
            5072             753     8.10720E-03     7.77201E-03
            5072            5229     392.106E-06     423.583E-06
            5072            5230     396.990E-06     432.831E-06
            5073             753     8.10720E-03     7.77201E-03
            5073             754     8.22407E-03     7.81651E-03
            5073            5230     396.990E-06     432.831E-06
            5073            5231     403.207E-06     443.226E-06
            5074             754     8.22407E-03     7.81651E-03
            5074             755     8.34458E-03     7.86029E-03
            5074            5231     403.207E-06     443.226E-06
            5074            5232     411.244E-06     454.623E-06
            5075             755     8.34458E-03     7.86029E-03
            5075             756     8.46890E-03     7.91920E-03
            5075            5232     411.244E-06     454.623E-06
            5075            5233     420.495E-06     466.834E-06
            5076             756     8.46890E-03     7.91920E-03
            5076             757     8.59820E-03     7.97141E-03
            5076            5233     420.495E-06     466.834E-06
            5076            5234     431.341E-06     480.134E-06
            5077             757     8.59820E-03     7.97141E-03
            5077             758     8.72420E-03     8.03743E-03
            5077            5234     431.341E-06     480.134E-06
            5077            5235     442.669E-06     493.513E-06
            5078             758     8.72420E-03     8.03743E-03
            5078             759     8.83102E-03     8.06322E-03
            5078            5235     442.669E-06     493.513E-06
            5078            5236     454.892E-06     507.606E-06
            5079             759     8.83102E-03     8.06322E-03
            5079             760     8.88153E-03     8.04307E-03
            5079            5236     454.892E-06     507.606E-06
            5079            5237     465.902E-06     520.540E-06
            5080             760     8.88153E-03     8.04307E-03
            5080             761     8.76015E-03     7.85899E-03
            5080            5237     465.902E-06     520.540E-06
            5080            5238     477.633E-06     535.462E-06
            5081             761     8.76015E-03     7.85899E-03
            5081             762     8.07213E-03     7.11403E-03
            5081            5238     477.633E-06     535.462E-06
            5081            5239     493.118E-06     553.844E-06
            5082             762     8.07213E-03     7.11403E-03
            5082             763     6.89571E-03     5.77652E-03
            5082            5239     493.118E-06     553.844E-06
            5082            5240     553.762E-06     615.667E-06
            5083             763     6.89571E-03     5.77652E-03
            5083             764     4.81017E-03     5.47790E-03
            5083            5240     553.762E-06     615.667E-06
            5083            5241     732.785E-06     786.443E-06
            5084              15     3.33083E-03     5.96456E-03
            5084             764     4.81017E-03     5.47790E-03
            5084             765     858.854E-06     903.700E-06
            5084            5241     732.785E-06     786.443E-06
            5085             790     429.528E-06     387.928E-06
            5085             791     382.495E-06     404.617E-06
            5085            5225     380.773E-06     406.420E-06
            5085            5242     419.333E-06     396.855E-06
            5086            5225     380.773E-06     406.420E-06
            5086            5226     382.117E-06     406.036E-06
            5086            5242     419.333E-06     396.855E-06
            5086            5243     406.296E-06     410.057E-06
            5087            5226     382.117E-06     406.036E-06
            5087            5227     386.835E-06     407.068E-06
            5087            5243     406.296E-06     410.057E-06
            5087            5244     404.368E-06     416.815E-06
            5088            5227     386.835E-06     407.068E-06
            5088            5228     389.235E-06     414.953E-06
            5088            5244     404.368E-06     416.815E-06
            5088            5245     405.979E-06     422.518E-06
            5089            5228     389.235E-06     414.953E-06
            5089            5229     392.106E-06     423.583E-06
            5089            5245     405.979E-06     422.518E-06
            5089            5246     409.557E-06     429.186E-06
            5090            5229     392.106E-06     423.583E-06
            5090            5230     396.990E-06     432.831E-06
            5090            5246     409.557E-06     429.186E-06
            5090            5247     415.219E-06     436.746E-06
            5091            5230     396.990E-06     432.831E-06
            5091            5231     403.207E-06     443.226E-06
            5091            5247     415.219E-06     436.746E-06
            5091            5248     422.167E-06     445.925E-06
            5092            5231     403.207E-06     443.226E-06
            5092            5232     411.244E-06     454.623E-06
            5092            5248     422.167E-06     445.925E-06
            5092            5249     430.583E-06     456.083E-06
            5093            5232     411.244E-06     454.623E-06
            5093            5233     420.495E-06     466.834E-06
            5093            5249     430.583E-06     456.083E-06
            5093            5250     440.713E-06     467.754E-06
            5094            5233     420.495E-06     466.834E-06
            5094            5234     431.341E-06     480.134E-06
            5094            5250     440.713E-06     467.754E-06
            5094            5251     452.087E-06     480.504E-06
            5095            5234     431.341E-06     480.134E-06
            5095            5235     442.669E-06     493.513E-06
            5095            5251     452.087E-06     480.504E-06
            5095            5252     465.800E-06     495.071E-06
            5096            5235     442.669E-06     493.513E-06
            5096            5236     454.892E-06     507.606E-06
            5096            5252     465.800E-06     495.071E-06
            5096            5253     480.072E-06     510.812E-06
            5097            5236     454.892E-06     507.606E-06
            5097            5237     465.902E-06     520.540E-06
            5097            5253     480.072E-06     510.812E-06
            5097            5254     497.258E-06     527.988E-06
            5098            5237     465.902E-06     520.540E-06
            5098            5238     477.633E-06     535.462E-06
            5098            5254     497.258E-06     527.988E-06
            5098            5255     510.620E-06     544.498E-06
            5099            5238     477.633E-06     535.462E-06
            5099            5239     493.118E-06     553.844E-06
            5099            5255     510.620E-06     544.498E-06
            5099            5256     521.868E-06     556.249E-06
            5100            5239     493.118E-06     553.844E-06
            5100            5240     553.762E-06     615.667E-06
            5100            5256     521.868E-06     556.249E-06
            5100            5257     547.951E-06     573.507E-06
            5101            5240     553.762E-06     615.667E-06
            5101            5241     732.785E-06     786.443E-06
            5101            5257     547.951E-06     573.507E-06
            5101            5258     602.476E-06     608.714E-06
            5102             765     858.854E-06     903.700E-06
            5102             766     639.943E-06     631.737E-06
            5102            5241     732.785E-06     786.443E-06
            5102            5258     602.476E-06     608.714E-06
            5103             789     440.561E-06     387.678E-06
            5103             790     429.528E-06     387.928E-06
            5103            5242     419.333E-06     396.855E-06
            5103            5259     439.862E-06     395.764E-06
            5104            5242     419.333E-06     396.855E-06
            5104            5243     406.296E-06     410.057E-06
            5104            5259     439.862E-06     395.764E-06
            5104            5260     431.378E-06     414.556E-06
            5105            5243     406.296E-06     410.057E-06
            5105            5244     404.368E-06     416.815E-06
            5105            5260     431.378E-06     414.556E-06
            5105            5261     421.835E-06     427.475E-06
            5106            5244     404.368E-06     416.815E-06
            5106            5245     405.979E-06     422.518E-06
            5106            5261     421.835E-06     427.475E-06
            5106            5262     423.275E-06     430.809E-06
            5107            5245     405.979E-06     422.518E-06
            5107            5246     409.557E-06     429.186E-06
            5107            5262     423.275E-06     430.809E-06
            5107            5263     428.457E-06     435.010E-06
            5108            5246     409.557E-06     429.186E-06
            5108            5247     415.219E-06     436.746E-06
            5108            5263     428.457E-06     435.010E-06
            5108            5264     434.306E-06     441.408E-06
            5109            5247     415.219E-06     436.746E-06
            5109            5248     422.167E-06     445.925E-06
            5109            5264     434.306E-06     441.408E-06
            5109            5265     441.777E-06     448.661E-06
            5110            5248     422.167E-06     445.925E-06
            5110            5249     430.583E-06     456.083E-06
            5110            5265     441.777E-06     448.661E-06
            5110            5266     450.414E-06     457.606E-06
            5111            5249     430.583E-06     456.083E-06
            5111            5250     440.713E-06     467.754E-06
            5111            5266     450.414E-06     457.606E-06
            5111            5267     460.349E-06     467.658E-06
            5112            5250     440.713E-06     467.754E-06
            5112            5251     452.087E-06     480.504E-06
            5112            5267     460.349E-06     467.658E-06
            5112            5268     472.281E-06     479.588E-06
            5113            5251     452.087E-06     480.504E-06
            5113            5252     465.800E-06     495.071E-06
            5113            5268     472.281E-06     479.588E-06
            5113            5269     485.642E-06     493.326E-06
            5114            5252     465.800E-06     495.071E-06
            5114            5253     480.072E-06     510.812E-06
            5114            5269     485.642E-06     493.326E-06
            5114            5270     502.334E-06     509.361E-06
            5115            5253     480.072E-06     510.812E-06
            5115            5254     497.258E-06     527.988E-06
            5115            5270     502.334E-06     509.361E-06
            5115            5271     518.503E-06     526.904E-06
            5116            5254     497.258E-06     527.988E-06
            5116            5255     510.620E-06     544.498E-06
            5116            5271     518.503E-06     526.904E-06
            5116            5272     534.192E-06     540.864E-06
            5117            5255     510.620E-06     544.498E-06
            5117            5256     521.868E-06     556.249E-06
            5117            5272     534.192E-06     540.864E-06
            5117            5273     529.949E-06     542.752E-06
            5118            5256     521.868E-06     556.249E-06
            5118            5257     547.951E-06     573.507E-06
            5118            5273     529.949E-06     542.752E-06
            5118            5274     467.916E-06     492.372E-06
            5119            5257     547.951E-06     573.507E-06
            5119            5258     602.476E-06     608.714E-06
            5119            5274     467.916E-06     492.372E-06
            5119            5275     417.907E-06     432.588E-06
            5120             766     639.943E-06     631.737E-06
            5120             767     415.806E-06     419.467E-06
            5120            5258     602.476E-06     608.714E-06
            5120            5275     417.907E-06     432.588E-06
            5121             788     457.962E-06     418.842E-06
            5121             789     440.561E-06     387.678E-06
            5121            5259     439.862E-06     395.764E-06
            5121            5276     447.573E-06     427.544E-06
            5122            5259     439.862E-06     395.764E-06
            5122            5260     431.378E-06     414.556E-06
            5122            5276     447.573E-06     427.544E-06
            5122            5277     436.333E-06     436.524E-06
            5123            5260     431.378E-06     414.556E-06
            5123            5261     421.835E-06     427.475E-06
            5123            5277     436.333E-06     436.524E-06
            5123            5278     438.266E-06     436.810E-06
            5124            5261     421.835E-06     427.475E-06
            5124            5262     423.275E-06     430.809E-06
            5124            5278     438.266E-06     436.810E-06
            5124            5279     442.819E-06     438.590E-06
            5125            5262     423.275E-06     430.809E-06
            5125            5263     428.457E-06     435.010E-06
            5125            5279     442.819E-06     438.590E-06
            5125            5280     448.164E-06     442.065E-06
            5126            5263     428.457E-06     435.010E-06
            5126            5264     434.306E-06     441.408E-06
            5126            5280     448.164E-06     442.065E-06
            5126            5281     454.905E-06     446.445E-06
            5127            5264     434.306E-06     441.408E-06
            5127            5265     441.777E-06     448.661E-06
            5127            5281     454.905E-06     446.445E-06
            5127            5282     462.326E-06     452.412E-06
            5128            5265     441.777E-06     448.661E-06
            5128            5266     450.414E-06     457.606E-06
            5128            5282     462.326E-06     452.412E-06
            5128            5283     470.726E-06     459.215E-06
            5129            5266     450.414E-06     457.606E-06
            5129            5267     460.349E-06     467.658E-06
            5129            5283     470.726E-06     459.215E-06
            5129            5284     480.163E-06     467.309E-06
            5130            5267     460.349E-06     467.658E-06
            5130            5268     472.281E-06     479.588E-06
            5130            5284     480.163E-06     467.309E-06
            5130            5285     490.543E-06     476.428E-06
            5131            5268     472.281E-06     479.588E-06
            5131            5269     485.642E-06     493.326E-06
            5131            5285     490.543E-06     476.428E-06
            5131            5286     502.386E-06     487.040E-06
            5132            5269     485.642E-06     493.326E-06
            5132            5270     502.334E-06     509.361E-06
            5132            5286     502.386E-06     487.040E-06
            5132            5287     514.905E-06     498.533E-06
            5133            5270     502.334E-06     509.361E-06
            5133            5271     518.503E-06     526.904E-06
            5133            5287     514.905E-06     498.533E-06
            5133            5288     527.202E-06     509.346E-06
            5134            5271     518.503E-06     526.904E-06
            5134            5272     534.192E-06     540.864E-06
            5134            5288     527.202E-06     509.346E-06
            5134            5289     532.332E-06     513.944E-06
            5135            5272     534.192E-06     540.864E-06
            5135            5273     529.949E-06     542.752E-06
            5135            5289     532.332E-06     513.944E-06
            5135            5290     511.618E-06     495.393E-06
            5136            5273     529.949E-06     542.752E-06
            5136            5274     467.916E-06     492.372E-06
            5136            5290     511.618E-06     495.393E-06
            5136            5291     409.248E-06     410.428E-06
            5137            5274     467.916E-06     492.372E-06
            5137            5275     417.907E-06     432.588E-06
            5137            5291     409.248E-06     410.428E-06
            5137            5292     278.635E-06     274.808E-06
            5138             767     415.806E-06     419.467E-06
            5138             768     231.083E-06     206.395E-06
            5138            5275     417.907E-06     432.588E-06
            5138            5292     278.635E-06     274.808E-06
            5139             787     435.214E-06     468.982E-06
            5139             788     457.962E-06     418.842E-06
            5139            5276     447.573E-06     427.544E-06
            5139            5293     437.348E-06     464.318E-06
            5140            5276     447.573E-06     427.544E-06
            5140            5277     436.333E-06     436.524E-06
            5140            5293     437.348E-06     464.318E-06
            5140            5294     445.597E-06     453.118E-06
            5141            5277     436.333E-06     436.524E-06
            5141            5278     438.266E-06     436.810E-06
            5141            5294     445.597E-06     453.118E-06
            5141            5295     456.154E-06     446.259E-06
            5142            5278     438.266E-06     436.810E-06
            5142            5279     442.819E-06     438.590E-06
            5142            5295     456.154E-06     446.259E-06
            5142            5296     463.271E-06     447.282E-06
            5143            5279     442.819E-06     438.590E-06
            5143            5280     448.164E-06     442.065E-06
            5143            5296     463.271E-06     447.282E-06
            5143            5297     469.454E-06     449.731E-06
            5144            5280     448.164E-06     442.065E-06
            5144            5281     454.905E-06     446.445E-06
            5144            5297     469.454E-06     449.731E-06
            5144            5298     476.596E-06     452.875E-06
            5145            5281     454.905E-06     446.445E-06
            5145            5282     462.326E-06     452.412E-06
            5145            5298     476.596E-06     452.875E-06
            5145            5299     484.042E-06     457.078E-06
            5146            5282     462.326E-06     452.412E-06
            5146            5283     470.726E-06     459.215E-06
            5146            5299     484.042E-06     457.078E-06
            5146            5300     492.096E-06     461.922E-06
            5147            5283     470.726E-06     459.215E-06
            5147            5284     480.163E-06     467.309E-06
            5147            5300     492.096E-06     461.922E-06
            5147            5301     500.398E-06     467.360E-06
            5148            5284     480.163E-06     467.309E-06
            5148            5285     490.543E-06     476.428E-06
            5148            5301     500.398E-06     467.360E-06
            5148            5302     508.747E-06     473.062E-06
            5149            5285     490.543E-06     476.428E-06
            5149            5286     502.386E-06     487.040E-06
            5149            5302     508.747E-06     473.062E-06
            5149            5303     516.661E-06     478.196E-06
            5150            5286     502.386E-06     487.040E-06
            5150            5287     514.905E-06     498.533E-06
            5150            5303     516.661E-06     478.196E-06
            5150            5304     522.246E-06     481.703E-06
            5151            5287     514.905E-06     498.533E-06
            5151            5288     527.202E-06     509.346E-06
            5151            5304     522.246E-06     481.703E-06
            5151            5305     523.578E-06     479.506E-06
            5152            5288     527.202E-06     509.346E-06
            5152            5289     532.332E-06     513.944E-06
            5152            5305     523.578E-06     479.506E-06
            5152            5306     510.617E-06     465.296E-06
            5153            5289     532.332E-06     513.944E-06
            5153            5290     511.618E-06     495.393E-06
            5153            5306     510.617E-06     465.296E-06
            5153            5307     470.192E-06     420.545E-06
            5154            5290     511.618E-06     495.393E-06
            5154            5291     409.248E-06     410.428E-06
            5154            5307     470.192E-06     420.545E-06
            5154            5308     377.142E-06     324.731E-06
            5155            5291     409.248E-06     410.428E-06
            5155            5292     278.635E-06     274.808E-06
            5155            5308     377.142E-06     324.731E-06
            5155            5309     228.289E-06     244.394E-06
            5156             768     231.083E-06     206.395E-06
            5156             769     144.394E-06     225.818E-06
            5156            5292     278.635E-06     274.808E-06
            5156            5309     228.289E-06     244.394E-06
            5157              28     402.706E-06     490.746E-06
            5157             786     426.643E-06     475.791E-06
            5157             787     435.214E-06     468.982E-06
            5157            5293     437.348E-06     464.318E-06
            5158             785     457.106E-06     455.547E-06
            5158             786     426.643E-06     475.791E-06
            5158            5293     437.348E-06     464.318E-06
            5158            5294     445.597E-06     453.118E-06
            5159             784     465.963E-06     451.206E-06
            5159             785     457.106E-06     455.547E-06
            5159            5294     445.597E-06     453.118E-06
            5159            5295     456.154E-06     446.259E-06
            5160             783     473.349E-06     452.291E-06
            5160             784     465.963E-06     451.206E-06
            5160            5295     456.154E-06     446.259E-06
            5160            5296     463.271E-06     447.282E-06
            5161             782     480.639E-06     453.508E-06
            5161             783     473.349E-06     452.291E-06
            5161            5296     463.271E-06     447.282E-06
            5161            5297     469.454E-06     449.731E-06
            5162             781     487.650E-06     456.670E-06
            5162             782     480.639E-06     453.508E-06
            5162            5297     469.454E-06     449.731E-06
            5162            5298     476.596E-06     452.875E-06
            5163             780     495.146E-06     459.498E-06
            5163             781     487.650E-06     456.670E-06
            5163            5298     476.596E-06     452.875E-06
            5163            5299     484.042E-06     457.078E-06
            5164             779     503.236E-06     463.841E-06
            5164             780     495.146E-06     459.498E-06
            5164            5299     484.042E-06     457.078E-06
            5164            5300     492.096E-06     461.922E-06
            5165             778     510.494E-06     467.410E-06
            5165             779     503.236E-06     463.841E-06
            5165            5300     492.096E-06     461.922E-06
            5165            5301     500.398E-06     467.360E-06
            5166             777     518.516E-06     471.979E-06
            5166             778     510.494E-06     467.410E-06
            5166            5301     500.398E-06     467.360E-06
            5166            5302     508.747E-06     473.062E-06
            5167             776     522.895E-06     473.425E-06
            5167             777     518.516E-06     471.979E-06
            5167            5302     508.747E-06     473.062E-06
            5167            5303     516.661E-06     478.196E-06
            5168             775     526.689E-06     472.999E-06
            5168             776     522.895E-06     473.425E-06
            5168            5303     516.661E-06     478.196E-06
            5168            5304     522.246E-06     481.703E-06
            5169             774     517.696E-06     462.730E-06
            5169             775     526.689E-06     472.999E-06
            5169            5304     522.246E-06     481.703E-06
            5169            5305     523.578E-06     479.506E-06
            5170             773     498.795E-06     436.970E-06
            5170             774     517.696E-06     462.730E-06
            5170            5305     523.578E-06     479.506E-06
            5170            5306     510.617E-06     465.296E-06
            5171             772     442.254E-06     377.919E-06
            5171             773     498.795E-06     436.970E-06
            5171            5306     510.617E-06     465.296E-06
            5171            5307     470.192E-06     420.545E-06
            5172             771     352.824E-06     277.960E-06
            5172             772     442.254E-06     377.919E-06
            5172            5307     470.192E-06     420.545E-06
            5172            5308     377.142E-06     324.731E-06
            5173             770     241.863E-06     272.674E-06
            5173             771     352.824E-06     277.960E-06
            5173            5308     377.142E-06     324.731E-06
            5173            5309     228.289E-06     244.394E-06
            5174              27     168.150E-06     321.065E-06
            5174             769     144.394E-06     225.818E-06
            5174             770     241.863E-06     272.674E-06
            5174            5309     228.289E-06     244.394E-06
            5847              24     13.6659E-03     15.5984E-03
            5847             603     12.5957E-03     13.5107E-03
            5847             692     15.0081E-03     15.5145E-03
            5847            5862     9.55700E-03     9.47512E-03
            5848             602     13.5144E-03     14.1773E-03
            5848             603     12.5957E-03     13.5107E-03
            5848            5862     9.55700E-03     9.47512E-03
            5848            5863     5.49980E-03     6.24935E-03
            5849             601     19.6684E-03     21.1721E-03
            5849             602     13.5144E-03     14.1773E-03
            5849            5863     5.49980E-03     6.24935E-03
            5849            5864     11.2921E-03     13.6670E-03
            5850             600     28.2511E-03     29.8942E-03
            5850             601     19.6684E-03     21.1721E-03
            5850            5864     11.2921E-03     13.6670E-03
            5850            5865     20.1888E-03     22.8908E-03
            5851             599     37.4376E-03     39.1098E-03
            5851             600     28.2511E-03     29.8942E-03
            5851            5865     20.1888E-03     22.8908E-03
            5851            5866     29.2416E-03     32.1049E-03
            5852             598     47.0326E-03     48.6906E-03
            5852             599     37.4376E-03     39.1098E-03
            5852            5866     29.2416E-03     32.1049E-03
            5852            5867     38.2952E-03     41.2380E-03
            5853             597     56.8051E-03     58.4152E-03
            5853             598     47.0326E-03     48.6906E-03
            5853            5867     38.2952E-03     41.2380E-03
            5853            5868     47.3483E-03     50.3176E-03
            5854             596     66.7033E-03     68.2746E-03
            5854             597     56.8051E-03     58.4152E-03
            5854            5868     47.3483E-03     50.3176E-03
            5854            5869     56.3979E-03     59.3567E-03
            5855             595     76.6536E-03     78.1548E-03
            5855             596     66.7033E-03     68.2746E-03
            5855            5869     56.3979E-03     59.3567E-03
            5855            5870     65.4678E-03     68.3695E-03
            5856             594     86.6070E-03     88.0677E-03
            5856             595     76.6536E-03     78.1548E-03
            5856            5870     65.4678E-03     68.3695E-03
            5856            5871     74.5554E-03     77.3857E-03
            5857             593     96.5400E-03     97.9070E-03
            5857             594     86.6070E-03     88.0677E-03
            5857            5871     74.5554E-03     77.3857E-03
            5857            5872     83.7264E-03     86.4220E-03
            5858             592     106.381E-03     107.671E-03
            5858             593     96.5400E-03     97.9070E-03
            5858            5872     83.7264E-03     86.4220E-03
            5858            5873     92.9783E-03     95.5570E-03
            5859             591     116.137E-03     117.262E-03
            5859             592     106.381E-03     107.671E-03
            5859            5873     92.9783E-03     95.5570E-03
            5859            5874     102.481E-03     104.861E-03
            5860             590     125.555E-03     126.519E-03
            5860             591     116.137E-03     117.262E-03
            5860            5874     102.481E-03     104.861E-03
            5860            5875     112.238E-03     114.534E-03
            5861             589     134.750E-03     135.360E-03
            5861             590     125.555E-03     126.519E-03
            5861            5875     112.238E-03     114.534E-03
            5861            5876     122.748E-03     124.949E-03
            5862             588     143.019E-03     143.467E-03
            5862             589     134.750E-03     135.360E-03
            5862            5876     122.748E-03     124.949E-03
            5862            5877     134.064E-03     136.612E-03
            5863             587     150.778E-03     152.128E-03
            5863             588     143.019E-03     143.467E-03
            5863            5877     134.064E-03     136.612E-03
            5863            5878     149.435E-03     153.925E-03
            5864              10     154.940E-03     156.918E-03
            5864             288     159.150E-03     165.020E-03
            5864             587     150.778E-03     152.128E-03
            5864            5878     149.435E-03     153.925E-03
            5865             692     15.0081E-03     15.5145E-03
            5865             693     17.9320E-03     16.7949E-03
            5865            5862     9.55700E-03     9.47512E-03
            5865            5879     11.9958E-03     10.8260E-03
            5866            5862     9.55700E-03     9.47512E-03
            5866            5863     5.49980E-03     6.24935E-03
            5866            5879     11.9958E-03     10.8260E-03
            5866            5880     6.10485E-03     6.63526E-03
            5867            5863     5.49980E-03     6.24935E-03
            5867            5864     11.2921E-03     13.6670E-03
            5867            5880     6.10485E-03     6.63526E-03
            5867            5881     10.2846E-03     12.8967E-03
            5868            5864     11.2921E-03     13.6670E-03
            5868            5865     20.1888E-03     22.8908E-03
            5868            5881     10.2846E-03     12.8967E-03
            5868            5882     18.8492E-03     21.9653E-03
            5869            5865     20.1888E-03     22.8908E-03
            5869            5866     29.2416E-03     32.1049E-03
            5869            5882     18.8492E-03     21.9653E-03
            5869            5883     27.5458E-03     30.9220E-03
            5870            5866     29.2416E-03     32.1049E-03
            5870            5867     38.2952E-03     41.2380E-03
            5870            5883     27.5458E-03     30.9220E-03
            5870            5884     36.1451E-03     39.6651E-03
            5871            5867     38.2952E-03     41.2380E-03
            5871            5868     47.3483E-03     50.3176E-03
            5871            5884     36.1451E-03     39.6651E-03
            5871            5885     44.7266E-03     48.3030E-03
            5872            5868     47.3483E-03     50.3176E-03
            5872            5869     56.3979E-03     59.3567E-03
            5872            5885     44.7266E-03     48.3030E-03
            5872            5886     53.2950E-03     56.8606E-03
            5873            5869     56.3979E-03     59.3567E-03
            5873            5870     65.4678E-03     68.3695E-03
            5873            5886     53.2950E-03     56.8606E-03
            5873            5887     61.8814E-03     65.3830E-03
            5874            5870     65.4678E-03     68.3695E-03
            5874            5871     74.5554E-03     77.3857E-03
            5874            5887     61.8814E-03     65.3830E-03
            5874            5888     70.5430E-03     73.9289E-03
            5875            5871     74.5554E-03     77.3857E-03
            5875            5872     83.7264E-03     86.4220E-03
            5875            5888     70.5430E-03     73.9289E-03
            5875            5889     79.3151E-03     82.5454E-03
            5876            5872     83.7264E-03     86.4220E-03
            5876            5873     92.9783E-03     95.5570E-03
            5876            5889     79.3151E-03     82.5454E-03
            5876            5890     88.3704E-03     91.4050E-03
            5877            5873     92.9783E-03     95.5570E-03
            5877            5874     102.481E-03     104.861E-03
            5877            5890     88.3704E-03     91.4050E-03
            5877            5891     97.7864E-03     100.626E-03
            5878            5874     102.481E-03     104.861E-03
            5878            5875     112.238E-03     114.534E-03
            5878            5891     97.7864E-03     100.626E-03
            5878            5892     108.094E-03     110.751E-03
            5879            5875     112.238E-03     114.534E-03
            5879            5876     122.748E-03     124.949E-03
            5879            5892     108.094E-03     110.751E-03
            5879            5893     119.487E-03     122.130E-03
            5880            5876     122.748E-03     124.949E-03
            5880            5877     134.064E-03     136.612E-03
            5880            5893     119.487E-03     122.130E-03
            5880            5894     134.139E-03     136.959E-03
            5881            5877     134.064E-03     136.612E-03
            5881            5878     149.435E-03     153.925E-03
            5881            5894     134.139E-03     136.959E-03
            5881            5895     154.899E-03     156.799E-03
            5882             287     166.829E-03     167.728E-03
            5882             288     159.150E-03     165.020E-03
            5882            5878     149.435E-03     153.925E-03
            5882            5895     154.899E-03     156.799E-03
            5883             693     17.9320E-03     16.7949E-03
            5883             694     16.4178E-03     12.5015E-03
            5883            5879     11.9958E-03     10.8260E-03
            5883            5896     11.9481E-03     8.45466E-03
            5884            5879     11.9958E-03     10.8260E-03
            5884            5880     6.10485E-03     6.63526E-03
            5884            5896     11.9481E-03     8.45466E-03
            5884            5897     6.86181E-03     6.12897E-03
            5885            5880     6.10485E-03     6.63526E-03
            5885            5881     10.2846E-03     12.8967E-03
            5885            5897     6.86181E-03     6.12897E-03
            5885            5898     10.4420E-03     12.5873E-03
            5886            5881     10.2846E-03     12.8967E-03
            5886            5882     18.8492E-03     21.9653E-03
            5886            5898     10.4420E-03     12.5873E-03
            5886            5899     19.1239E-03     21.9284E-03
            5887            5882     18.8492E-03     21.9653E-03
            5887            5883     27.5458E-03     30.9220E-03
            5887            5899     19.1239E-03     21.9284E-03
            5887            5900     28.1017E-03     31.1002E-03
            5888            5883     27.5458E-03     30.9220E-03
            5888            5884     36.1451E-03     39.6651E-03
            5888            5900     28.1017E-03     31.1002E-03
            5888            5901     37.0070E-03     40.1318E-03
            5889            5884     36.1451E-03     39.6651E-03
            5889            5885     44.7266E-03     48.3030E-03
            5889            5901     37.0070E-03     40.1318E-03
            5889            5902     45.8825E-03     49.0676E-03
            5890            5885     44.7266E-03     48.3030E-03
            5890            5886     53.2950E-03     56.8606E-03
            5890            5902     45.8825E-03     49.0676E-03
            5890            5903     54.7520E-03     57.9664E-03
            5891            5886     53.2950E-03     56.8606E-03
            5891            5887     61.8814E-03     65.3830E-03
            5891            5903     54.7520E-03     57.9664E-03
            5891            5904     63.6601E-03     66.8698E-03
            5892            5887     61.8814E-03     65.3830E-03
            5892            5888     70.5430E-03     73.9289E-03
            5892            5904     63.6601E-03     66.8698E-03
            5892            5905     72.6317E-03     75.8339E-03
            5893            5888     70.5430E-03     73.9289E-03
            5893            5889     79.3151E-03     82.5454E-03
            5893            5905     72.6317E-03     75.8339E-03
            5893            5906     81.7787E-03     84.9399E-03
            5894            5889     79.3151E-03     82.5454E-03
            5894            5890     88.3704E-03     91.4050E-03
            5894            5906     81.7787E-03     84.9399E-03
            5894            5907     91.1646E-03     94.3149E-03
            5895            5890     88.3704E-03     91.4050E-03
            5895            5891     97.7864E-03     100.626E-03
            5895            5907     91.1646E-03     94.3149E-03
            5895            5908     101.083E-03     104.166E-03
            5896            5891     97.7864E-03     100.626E-03
            5896            5892     108.094E-03     110.751E-03
            5896            5908     101.083E-03     104.166E-03
            5896            5909     111.799E-03     114.869E-03
            5897            5892     108.094E-03     110.751E-03
            5897            5893     119.487E-03     122.130E-03
            5897            5909     111.799E-03     114.869E-03
            5897            5910     123.984E-03     126.904E-03
            5898            5893     119.487E-03     122.130E-03
            5898            5894     134.139E-03     136.959E-03
            5898            5910     123.984E-03     126.904E-03
            5898            5911     139.692E-03     141.635E-03
            5899            5894     134.139E-03     136.959E-03
            5899            5895     154.899E-03     156.799E-03
            5899            5911     139.692E-03     141.635E-03
            5899            5912     155.693E-03     156.180E-03
            5900             286     162.662E-03     162.421E-03
            5900             287     166.829E-03     167.728E-03
            5900            5895     154.899E-03     156.799E-03
            5900            5912     155.693E-03     156.180E-03
            5901             694     16.4178E-03     12.5015E-03
            5901             695     14.3655E-03     11.0359E-03
            5901            5896     11.9481E-03     8.45466E-03
            5901            5913     10.9838E-03     7.79887E-03
            5902            5896     11.9481E-03     8.45466E-03
            5902            5897     6.86181E-03     6.12897E-03
            5902            5913     10.9838E-03     7.79887E-03
            5902            5914     7.73328E-03     6.86408E-03
            5903            5897     6.86181E-03     6.12897E-03
            5903            5898     10.4420E-03     12.5873E-03
            5903            5914     7.73328E-03     6.86408E-03
            5903            5915     11.8635E-03     13.6472E-03
            5904            5898     10.4420E-03     12.5873E-03
            5904            5899     19.1239E-03     21.9284E-03
            5904            5915     11.8635E-03     13.6472E-03
            5904            5916     20.2407E-03     22.6976E-03
            5905            5899     19.1239E-03     21.9284E-03
            5905            5900     28.1017E-03     31.1002E-03
            5905            5916     20.2407E-03     22.6976E-03
            5905            5917     29.1191E-03     31.8193E-03
            5906            5900     28.1017E-03     31.1002E-03
            5906            5901     37.0070E-03     40.1318E-03
            5906            5917     29.1191E-03     31.8193E-03
            5906            5918     38.1475E-03     40.9342E-03
            5907            5901     37.0070E-03     40.1318E-03
            5907            5902     45.8825E-03     49.0676E-03
            5907            5918     38.1475E-03     40.9342E-03
            5907            5919     47.1838E-03     50.0424E-03
            5908            5902     45.8825E-03     49.0676E-03
            5908            5903     54.7520E-03     57.9664E-03
            5908            5919     47.1838E-03     50.0424E-03
            5908            5920     56.2672E-03     59.1704E-03
            5909            5903     54.7520E-03     57.9664E-03
            5909            5904     63.6601E-03     66.8698E-03
            5909            5920     56.2672E-03     59.1704E-03
            5909            5921     65.3976E-03     68.3594E-03
            5910            5904     63.6601E-03     66.8698E-03
            5910            5905     72.6317E-03     75.8339E-03
            5910            5921     65.3976E-03     68.3594E-03
            5910            5922     74.6378E-03     77.6467E-03
            5911            5905     72.6317E-03     75.8339E-03
            5911            5906     81.7787E-03     84.9399E-03
            5911            5922     74.6378E-03     77.6467E-03
            5911            5923     84.0297E-03     87.1196E-03
            5912            5906     81.7787E-03     84.9399E-03
            5912            5907     91.1646E-03     94.3149E-03
            5912            5923     84.0297E-03     87.1196E-03
            5912            5924     93.7082E-03     96.8475E-03
            5913            5907     91.1646E-03     94.3149E-03
            5913            5908     101.083E-03     104.166E-03
            5913            5924     93.7082E-03     96.8475E-03
            5913            5925     103.866E-03     107.049E-03
            5914            5908     101.083E-03     104.166E-03
            5914            5909     111.799E-03     114.869E-03
            5914            5925     103.866E-03     107.049E-03
            5914            5926     114.681E-03     117.841E-03
            5915            5909     111.799E-03     114.869E-03
            5915            5910     123.984E-03     126.904E-03
            5915            5926     114.681E-03     117.841E-03
            5915            5927     127.070E-03     129.745E-03
            5916            5910     123.984E-03     126.904E-03
            5916            5911     139.692E-03     141.635E-03
            5916            5927     127.070E-03     129.745E-03
            5916            5928     140.038E-03     142.306E-03
            5917            5911     139.692E-03     141.635E-03
            5917            5912     155.693E-03     156.180E-03
            5917            5928     140.038E-03     142.306E-03
            5917            5929     151.646E-03     154.127E-03
            5918             285     157.047E-03     159.765E-03
            5918             286     162.662E-03     162.421E-03
            5918            5912     155.693E-03     156.180E-03
            5918            5929     151.646E-03     154.127E-03
            5919             695     14.3655E-03     11.0359E-03
            5919             696     14.4937E-03     10.7454E-03
            5919            5913     10.9838E-03     7.79887E-03
            5919            5930     11.7091E-03     8.77661E-03
            5920            5913     10.9838E-03     7.79887E-03
            5920            5914     7.73328E-03     6.86408E-03
            5920            5930     11.7091E-03     8.77661E-03
            5920            5931     9.61894E-03     9.14329E-03
            5921            5914     7.73328E-03     6.86408E-03
            5921            5915     11.8635E-03     13.6472E-03
            5921            5931     9.61894E-03     9.14329E-03
            5921            5932     13.8673E-03     15.5177E-03
            5922            5915     11.8635E-03     13.6472E-03
            5922            5916     20.2407E-03     22.6976E-03
            5922            5932     13.8673E-03     15.5177E-03
            5922            5933     21.7019E-03     23.9479E-03
            5923            5916     20.2407E-03     22.6976E-03
            5923            5917     29.1191E-03     31.8193E-03
            5923            5933     21.7019E-03     23.9479E-03
            5923            5934     30.4087E-03     32.8281E-03
            5924            5917     29.1191E-03     31.8193E-03
            5924            5918     38.1475E-03     40.9342E-03
            5924            5934     30.4087E-03     32.8281E-03
            5924            5935     39.3572E-03     41.8630E-03
            5925            5918     38.1475E-03     40.9342E-03
            5925            5919     47.1838E-03     50.0424E-03
            5925            5935     39.3572E-03     41.8630E-03
            5925            5936     48.4589E-03     51.0039E-03
            5926            5919     47.1838E-03     50.0424E-03
            5926            5920     56.2672E-03     59.1704E-03
            5926            5936     48.4589E-03     51.0039E-03
            5926            5937     57.6352E-03     60.2427E-03
            5927            5920     56.2672E-03     59.1704E-03
            5927            5921     65.3976E-03     68.3594E-03
            5927            5937     57.6352E-03     60.2427E-03
            5927            5938     66.9075E-03     69.5874E-03
            5928            5921     65.3976E-03     68.3594E-03
            5928            5922     74.6378E-03     77.6467E-03
            5928            5938     66.9075E-03     69.5874E-03
            5928            5939     76.2845E-03     79.0772E-03
            5929            5922     74.6378E-03     77.6467E-03
            5929            5923     84.0297E-03     87.1196E-03
            5929            5939     76.2845E-03     79.0772E-03
            5929            5940     85.8176E-03     88.7279E-03
            5930            5923     84.0297E-03     87.1196E-03
            5930            5924     93.7082E-03     96.8475E-03
            5930            5940     85.8176E-03     88.7279E-03
            5930            5941     95.6002E-03     98.6353E-03
            5931            5924     93.7082E-03     96.8475E-03
            5931            5925     103.866E-03     107.049E-03
            5931            5941     95.6002E-03     98.6353E-03
            5931            5942     105.657E-03     108.800E-03
            5932            5925     103.866E-03     107.049E-03
            5932            5926     114.681E-03     117.841E-03
            5932            5942     105.657E-03     108.800E-03
            5932            5943     116.341E-03     119.350E-03
            5933            5926     114.681E-03     117.841E-03
            5933            5927     127.070E-03     129.745E-03
            5933            5943     116.341E-03     119.350E-03
            5933            5944     127.266E-03     130.151E-03
            5934            5927     127.070E-03     129.745E-03
            5934            5928     140.038E-03     142.306E-03
            5934            5944     127.266E-03     130.151E-03
            5934            5945     137.923E-03     140.572E-03
            5935            5928     140.038E-03     142.306E-03
            5935            5929     151.646E-03     154.127E-03
            5935            5945     137.923E-03     140.572E-03
            5935            5946     148.054E-03     149.727E-03
            5936             284     152.873E-03     153.833E-03
            5936             285     157.047E-03     159.765E-03
            5936            5929     151.646E-03     154.127E-03
            5936            5946     148.054E-03     149.727E-03
            5937             696     14.4937E-03     10.7454E-03
            5937             697     15.2423E-03     12.1527E-03
            5937            5930     11.7091E-03     8.77661E-03
            5937            5947     13.2904E-03     10.9733E-03
            5938            5930     11.7091E-03     8.77661E-03
            5938            5931     9.61894E-03     9.14329E-03
            5938            5947     13.2904E-03     10.9733E-03
            5938            5948     12.2757E-03     11.9691E-03
            5939            5931     9.61894E-03     9.14329E-03
            5939            5932     13.8673E-03     15.5177E-03
            5939            5948     12.2757E-03     11.9691E-03
            5939            5949     16.3290E-03     17.7601E-03
            5940            5932     13.8673E-03     15.5177E-03
            5940            5933     21.7019E-03     23.9479E-03
            5940            5949     16.3290E-03     17.7601E-03
            5940            5950     23.4433E-03     25.4925E-03
            5941            5933     21.7019E-03     23.9479E-03
            5941            5934     30.4087E-03     32.8281E-03
            5941            5950     23.4433E-03     25.4925E-03
            5941            5951     31.7704E-03     33.9573E-03
            5942            5934     30.4087E-03     32.8281E-03
            5942            5935     39.3572E-03     41.8630E-03
            5942            5951     31.7704E-03     33.9573E-03
            5942            5952     40.5624E-03     42.7696E-03
            5943            5935     39.3572E-03     41.8630E-03
            5943            5936     48.4589E-03     51.0039E-03
            5943            5952     40.5624E-03     42.7696E-03
            5943            5953     49.5797E-03     51.8048E-03
            5944            5936     48.4589E-03     51.0039E-03
            5944            5937     57.6352E-03     60.2427E-03
            5944            5953     49.5797E-03     51.8048E-03
            5944            5954     58.7467E-03     61.0152E-03
            5945            5937     57.6352E-03     60.2427E-03
            5945            5938     66.9075E-03     69.5874E-03
            5945            5954     58.7467E-03     61.0152E-03
            5945            5955     68.0232E-03     70.3812E-03
            5946            5938     66.9075E-03     69.5874E-03
            5946            5939     76.2845E-03     79.0772E-03
            5946            5955     68.0232E-03     70.3812E-03
            5946            5956     77.4109E-03     79.8924E-03
            5947            5939     76.2845E-03     79.0772E-03
            5947            5940     85.8176E-03     88.7279E-03
            5947            5956     77.4109E-03     79.8924E-03
            5947            5957     86.9330E-03     89.5720E-03
            5948            5940     85.8176E-03     88.7279E-03
            5948            5941     95.6002E-03     98.6353E-03
            5948            5957     86.9330E-03     89.5720E-03
            5948            5958     96.5708E-03     99.3895E-03
            5949            5941     95.6002E-03     98.6353E-03
            5949            5942     105.657E-03     108.800E-03
            5949            5958     96.5708E-03     99.3895E-03
            5949            5959     106.416E-03     109.339E-03
            5950            5942     105.657E-03     108.800E-03
            5950            5943     116.341E-03     119.350E-03
            5950            5959     106.416E-03     109.339E-03
            5950            5960     116.275E-03     119.281E-03
            5951            5943     116.341E-03     119.350E-03
            5951            5944     127.266E-03     130.151E-03
            5951            5960     116.275E-03     119.281E-03
            5951            5961     125.971E-03     128.847E-03
            5952            5944     127.266E-03     130.151E-03
            5952            5945     137.923E-03     140.572E-03
            5952            5961     125.971E-03     128.847E-03
            5952            5962     135.260E-03     137.639E-03
            5953            5945     137.923E-03     140.572E-03
            5953            5946     148.054E-03     149.727E-03
            5953            5962     135.260E-03     137.639E-03
            5953            5963     143.734E-03     145.628E-03
            5954             283     147.762E-03     149.475E-03
            5954             284     152.873E-03     153.833E-03
            5954            5946     148.054E-03     149.727E-03
            5954            5963     143.734E-03     145.628E-03
            5955             697     15.2423E-03     12.1527E-03
            5955             698     17.0136E-03     14.1774E-03
            5955            5947     13.2904E-03     10.9733E-03
            5955            5964     15.6595E-03     13.7925E-03
            5956            5947     13.2904E-03     10.9733E-03
            5956            5948     12.2757E-03     11.9691E-03
            5956            5964     15.6595E-03     13.7925E-03
            5956            5965     15.1676E-03     15.2086E-03
            5957            5948     12.2757E-03     11.9691E-03
            5957            5949     16.3290E-03     17.7601E-03
            5957            5965     15.1676E-03     15.2086E-03
            5957            5966     18.8500E-03     20.2083E-03
            5958            5949     16.3290E-03     17.7601E-03
            5958            5950     23.4433E-03     25.4925E-03
            5958            5966     18.8500E-03     20.2083E-03
            5958            5967     25.3616E-03     27.2120E-03
            5959            5950     23.4433E-03     25.4925E-03
            5959            5951     31.7704E-03     33.9573E-03
            5959            5967     25.3616E-03     27.2120E-03
            5959            5968     33.1969E-03     35.1260E-03
            5960            5951     31.7704E-03     33.9573E-03
            5960            5952     40.5624E-03     42.7696E-03
            5960            5968     33.1969E-03     35.1260E-03
            5960            5969     41.7047E-03     43.5764E-03
            5961            5952     40.5624E-03     42.7696E-03
            5961            5953     49.5797E-03     51.8048E-03
            5961            5969     41.7047E-03     43.5764E-03
            5961            5970     50.5235E-03     52.3768E-03
            5962            5953     49.5797E-03     51.8048E-03
            5962            5954     58.7467E-03     61.0152E-03
            5962            5970     50.5235E-03     52.3768E-03
            5962            5971     59.5319E-03     61.4120E-03
            5963            5954     58.7467E-03     61.0152E-03
            5963            5955     68.0232E-03     70.3812E-03
            5963            5971     59.5319E-03     61.4120E-03
            5963            5972     68.6735E-03     70.6312E-03
            5964            5955     68.0232E-03     70.3812E-03
            5964            5956     77.4109E-03     79.8924E-03
            5964            5972     68.6735E-03     70.6312E-03
            5964            5973     77.9243E-03     80.0038E-03
            5965            5956     77.4109E-03     79.8924E-03
            5965            5957     86.9330E-03     89.5720E-03
            5965            5973     77.9243E-03     80.0038E-03
            5965            5974     87.2438E-03     89.4967E-03
            5966            5957     86.9330E-03     89.5720E-03
            5966            5958     96.5708E-03     99.3895E-03
            5966            5974     87.2438E-03     89.4967E-03
            5966            5975     96.6259E-03     99.0662E-03
            5967            5958     96.5708E-03     99.3895E-03
            5967            5959     106.416E-03     109.339E-03
            5967            5975     96.6259E-03     99.0662E-03
            5967            5976     105.959E-03     108.607E-03
            5968            5959     106.416E-03     109.339E-03
            5968            5960     116.275E-03     119.281E-03
            5968            5976     105.959E-03     108.607E-03
            5968            5977     115.081E-03     117.878E-03
            5969            5960     116.275E-03     119.281E-03
            5969            5961     125.971E-03     128.847E-03
            5969            5977     115.081E-03     117.878E-03
            5969            5978     123.809E-03     126.535E-03
            5970            5961     125.971E-03     128.847E-03
            5970            5962     135.260E-03     137.639E-03
            5970            5978     123.809E-03     126.535E-03
            5970            5979     131.856E-03     134.259E-03
            5971            5962     135.260E-03     137.639E-03
            5971            5963     143.734E-03     145.628E-03
            5971            5979     131.856E-03     134.259E-03
            5971            5980     139.363E-03     141.051E-03
            5972             282     143.036E-03     144.238E-03
            5972             283     147.762E-03     149.475E-03
            5972            5963     143.734E-03     145.628E-03
            5972            5980     139.363E-03     141.051E-03
            5973             698     17.0136E-03     14.1774E-03
            5973             699     19.3723E-03     17.3527E-03
            5973            5964     15.6595E-03     13.7925E-03
            5973            5981     18.3475E-03     17.1401E-03
            5974            5964     15.6595E-03     13.7925E-03
            5974            5965     15.1676E-03     15.2086E-03
            5974            5981     18.3475E-03     17.1401E-03
            5974            5982     18.2162E-03     18.5399E-03
            5975            5965     15.1676E-03     15.2086E-03
            5975            5966     18.8500E-03     20.2083E-03
            5975            5982     18.2162E-03     18.5399E-03
            5975            5983     21.4929E-03     22.9030E-03
            5976            5966     18.8500E-03     20.2083E-03
            5976            5967     25.3616E-03     27.2120E-03
            5976            5983     21.4929E-03     22.9030E-03
            5976            5984     27.3334E-03     29.0456E-03
            5977            5967     25.3616E-03     27.2120E-03
            5977            5968     33.1969E-03     35.1260E-03
            5977            5984     27.3334E-03     29.0456E-03
            5977            5985     34.7340E-03     36.3141E-03
            5978            5968     33.1969E-03     35.1260E-03
            5978            5969     41.7047E-03     43.5764E-03
            5978            5985     34.7340E-03     36.3141E-03
            5978            5986     42.8269E-03     44.3085E-03
            5979            5969     41.7047E-03     43.5764E-03
            5979            5970     50.5235E-03     52.3768E-03
            5979            5986     42.8269E-03     44.3085E-03
            5979            5987     51.3045E-03     52.7321E-03
            5980            5970     50.5235E-03     52.3768E-03
            5980            5971     59.5319E-03     61.4120E-03
            5980            5987     51.3045E-03     52.7321E-03
            5980            5988     60.0061E-03     61.4417E-03
            5981            5971     59.5319E-03     61.4120E-03
            5981            5972     68.6735E-03     70.6312E-03
            5981            5988     60.0061E-03     61.4417E-03
            5981            5989     68.8567E-03     70.3424E-03
            5982            5972     68.6735E-03     70.6312E-03
            5982            5973     77.9243E-03     80.0038E-03
            5982            5989     68.8567E-03     70.3424E-03
            5982            5990     77.7929E-03     79.3828E-03
            5983            5973     77.9243E-03     80.0038E-03
            5983            5974     87.2438E-03     89.4967E-03
            5983            5990     77.7929E-03     79.3828E-03
            5983            5991     86.7777E-03     88.5027E-03
            5984            5974     87.2438E-03     89.4967E-03
            5984            5975     96.6259E-03     99.0662E-03
            5984            5991     86.7777E-03     88.5027E-03
            5984            5992     95.7178E-03     97.6415E-03
            5985            5975     96.6259E-03     99.0662E-03
            5985            5976     105.959E-03     108.607E-03
            5985            5992     95.7178E-03     97.6415E-03
            5985            5993     104.486E-03     106.650E-03
            5986            5976     105.959E-03     108.607E-03
            5986            5977     115.081E-03     117.878E-03
            5986            5993     104.486E-03     106.650E-03
            5986            5994     112.971E-03     115.325E-03
            5987            5977     115.081E-03     117.878E-03
            5987            5978     123.809E-03     126.535E-03
            5987            5994     112.971E-03     115.325E-03
            5987            5995     120.811E-03     123.341E-03
            5988            5978     123.809E-03     126.535E-03
            5988            5979     131.856E-03     134.259E-03
            5988            5995     120.811E-03     123.341E-03
            5988            5996     127.984E-03     130.303E-03
            5989            5979     131.856E-03     134.259E-03
            5989            5980     139.363E-03     141.051E-03
            5989            5996     127.984E-03     130.303E-03
            5989            5997     134.552E-03     136.065E-03
            5990             281     137.655E-03     138.654E-03
            5990             282     143.036E-03     144.238E-03
            5990            5980     139.363E-03     141.051E-03
            5990            5997     134.552E-03     136.065E-03
            5991             699     19.3723E-03     17.3527E-03
            5991             700     21.8357E-03     20.4233E-03
            5991            5981     18.3475E-03     17.1401E-03
            5991            5998     21.3227E-03     20.6407E-03
            5992            5981     18.3475E-03     17.1401E-03
            5992            5982     18.2162E-03     18.5399E-03
            5992            5998     21.3227E-03     20.6407E-03
            5992            5999     21.3111E-03     22.2174E-03
            5993            5982     18.2162E-03     18.5399E-03
            5993            5983     21.4929E-03     22.9030E-03
            5993            5999     21.3111E-03     22.2174E-03
            5993            6000     24.0685E-03     25.7505E-03
            5994            5983     21.4929E-03     22.9030E-03
            5994            5984     27.3334E-03     29.0456E-03
            5994            6000     24.0685E-03     25.7505E-03
            5994            6001     29.5702E-03     30.9929E-03
            5995            5984     27.3334E-03     29.0456E-03
            5995            5985     34.7340E-03     36.3141E-03
            5995            6001     29.5702E-03     30.9929E-03
            5995            6002     36.4513E-03     37.6222E-03
            5996            5985     34.7340E-03     36.3141E-03
            5996            5986     42.8269E-03     44.3085E-03
            5996            6002     36.4513E-03     37.6222E-03
            5996            6003     44.0295E-03     45.0633E-03
            5997            5986     42.8269E-03     44.3085E-03
            5997            5987     51.3045E-03     52.7321E-03
            5997            6003     44.0295E-03     45.0633E-03
            5997            6004     52.0159E-03     52.9905E-03
            5998            5987     51.3045E-03     52.7321E-03
            5998            5988     60.0061E-03     61.4417E-03
            5998            6004     52.0159E-03     52.9905E-03
            5998            6005     60.2509E-03     61.2096E-03
            5999            5988     60.0061E-03     61.4417E-03
            5999            5989     68.8567E-03     70.3424E-03
            5999            6005     60.2509E-03     61.2096E-03
            5999            6006     68.6348E-03     69.6145E-03
            6000            5989     68.8567E-03     70.3424E-03
            6000            5990     77.7929E-03     79.3828E-03
            6000            6006     68.6348E-03     69.6145E-03
            6000            6007     77.1059E-03     78.1196E-03
            6001            5990     77.7929E-03     79.3828E-03
            6001            5991     86.7777E-03     88.5027E-03
            6001            6007     77.1059E-03     78.1196E-03
            6001            6008     85.5713E-03     86.6719E-03
            6002            5991     86.7777E-03     88.5027E-03
            6002            5992     95.7178E-03     97.6415E-03
            6002            6008     85.5713E-03     86.6719E-03
            6002            6009     93.9529E-03     95.1687E-03
            6003            5992     95.7178E-03     97.6415E-03
            6003            5993     104.486E-03     106.650E-03
            6003            6009     93.9529E-03     95.1687E-03
            6003            6010     102.125E-03     103.525E-03
            6004            5993     104.486E-03     106.650E-03
            6004            5994     112.971E-03     115.325E-03
            6004            6010     102.125E-03     103.525E-03
            6004            6011     109.858E-03     111.548E-03
            6005            5994     112.971E-03     115.325E-03
            6005            5995     120.811E-03     123.341E-03
            6005            6011     109.858E-03     111.548E-03
            6005            6012     117.128E-03     118.988E-03
            6006            5995     120.811E-03     123.341E-03
            6006            5996     127.984E-03     130.303E-03
            6006            6012     117.128E-03     118.988E-03
            6006            6013     123.455E-03     125.431E-03
            6007            5996     127.984E-03     130.303E-03
            6007            5997     134.552E-03     136.065E-03
            6007            6013     123.455E-03     125.431E-03
            6007            6014     129.053E-03     130.711E-03
            6008             280     131.837E-03     133.103E-03
            6008             281     137.655E-03     138.654E-03
            6008            5997     134.552E-03     136.065E-03
            6008            6014     129.053E-03     130.711E-03
            6009             700     21.8357E-03     20.4233E-03
            6009             701     25.6557E-03     24.6754E-03
            6009            5998     21.3227E-03     20.6407E-03
            6009            6015     24.3684E-03     25.0534E-03
            6010            5998     21.3227E-03     20.6407E-03
            6010            5999     21.3111E-03     22.2174E-03
            6010            6015     24.3684E-03     25.0534E-03
            6010            6016     23.8505E-03     26.0654E-03
            6011            5999     21.3111E-03     22.2174E-03
            6011            6000     24.0685E-03     25.7505E-03
            6011            6016     23.8505E-03     26.0654E-03
            6011            6017     26.9908E-03     28.5736E-03
            6012            6000     24.0685E-03     25.7505E-03
            6012            6001     29.5702E-03     30.9929E-03
            6012            6017     26.9908E-03     28.5736E-03
            6012            6018     32.2591E-03     33.1999E-03
            6013            6001     29.5702E-03     30.9929E-03
            6013            6002     36.4513E-03     37.6222E-03
            6013            6018     32.2591E-03     33.1999E-03
            6013            6019     38.5277E-03     39.2261E-03
            6014            6002     36.4513E-03     37.6222E-03
            6014            6003     44.0295E-03     45.0633E-03
            6014            6019     38.5277E-03     39.2261E-03
            6014            6020     45.4693E-03     46.0568E-03
            6015            6003     44.0295E-03     45.0633E-03
            6015            6004     52.0159E-03     52.9905E-03
            6015            6020     45.4693E-03     46.0568E-03
            6015            6021     52.8183E-03     53.3594E-03
            6016            6004     52.0159E-03     52.9905E-03
            6016            6005     60.2509E-03     61.2096E-03
            6016            6021     52.8183E-03     53.3594E-03
            6016            6022     60.4240E-03     60.9367E-03
            6017            6005     60.2509E-03     61.2096E-03
            6017            6006     68.6348E-03     69.6145E-03
            6017            6022     60.4240E-03     60.9367E-03
            6017            6023     68.1867E-03     68.6575E-03
            6018            6006     68.6348E-03     69.6145E-03
            6018            6007     77.1059E-03     78.1196E-03
            6018            6023     68.1867E-03     68.6575E-03
            6018            6024     76.0022E-03     76.4408E-03
            6019            6007     77.1059E-03     78.1196E-03
            6019            6008     85.5713E-03     86.6719E-03
            6019            6024     76.0022E-03     76.4408E-03
            6019            6025     83.8051E-03     84.1923E-03
            6020            6008     85.5713E-03     86.6719E-03
            6020            6009     93.9529E-03     95.1687E-03
            6020            6025     83.8051E-03     84.1923E-03
            6020            6026     91.4752E-03     91.8497E-03
            6021            6009     93.9529E-03     95.1687E-03
            6021            6010     102.125E-03     103.525E-03
            6021            6026     91.4752E-03     91.8497E-03
            6021            6027     98.9105E-03     99.2984E-03
            6022            6010     102.125E-03     103.525E-03
            6022            6011     109.858E-03     111.548E-03
            6022            6027     98.9105E-03     99.2984E-03
            6022            6028     105.951E-03     106.448E-03
            6023            6011     109.858E-03     111.548E-03
            6023            6012     117.128E-03     118.988E-03
            6023            6028     105.951E-03     106.448E-03
            6023            6029     112.368E-03     113.134E-03
            6024            6012     117.128E-03     118.988E-03
            6024            6013     123.455E-03     125.431E-03
            6024            6029     112.368E-03     113.134E-03
            6024            6030     118.198E-03     119.081E-03
            6025            6013     123.455E-03     125.431E-03
            6025            6014     129.053E-03     130.711E-03
            6025            6030     118.198E-03     119.081E-03
            6025            6031     122.982E-03     123.466E-03
            6026             279     124.998E-03     125.088E-03
            6026             280     131.837E-03     133.103E-03
            6026            6014     129.053E-03     130.711E-03
            6026            6031     122.982E-03     123.466E-03
            6027             701     25.6557E-03     24.6754E-03
            6027             702     25.5480E-03     30.5679E-03
            6027            6015     24.3684E-03     25.0534E-03
            6027            6032     25.4535E-03     29.5763E-03
            6028            6015     24.3684E-03     25.0534E-03
            6028            6016     23.8505E-03     26.0654E-03
            6028            6032     25.4535E-03     29.5763E-03
            6028            6033     27.0358E-03     29.1722E-03
            6029            6016     23.8505E-03     26.0654E-03
            6029            6017     26.9908E-03     28.5736E-03
            6029            6033     27.0358E-03     29.1722E-03
            6029            6034     30.8437E-03     31.5615E-03
            6030            6017     26.9908E-03     28.5736E-03
            6030            6018     32.2591E-03     33.1999E-03
            6030            6034     30.8437E-03     31.5615E-03
            6030            6035     35.5830E-03     35.9133E-03
            6031            6018     32.2591E-03     33.1999E-03
            6031            6019     38.5277E-03     39.2261E-03
            6031            6035     35.5830E-03     35.9133E-03
            6031            6036     41.1594E-03     41.4015E-03
            6032            6019     38.5277E-03     39.2261E-03
            6032            6020     45.4693E-03     46.0568E-03
            6032            6036     41.1594E-03     41.4015E-03
            6032            6037     47.3520E-03     47.5682E-03
            6033            6020     45.4693E-03     46.0568E-03
            6033            6021     52.8183E-03     53.3594E-03
            6033            6037     47.3520E-03     47.5682E-03
            6033            6038     53.9390E-03     54.1459E-03
            6034            6021     52.8183E-03     53.3594E-03
            6034            6022     60.4240E-03     60.9367E-03
            6034            6038     53.9390E-03     54.1459E-03
            6034            6039     60.7931E-03     60.9393E-03
            6035            6022     60.4240E-03     60.9367E-03
            6035            6023     68.1867E-03     68.6575E-03
            6035            6039     60.7931E-03     60.9393E-03
            6035            6040     67.7701E-03     67.8316E-03
            6036            6023     68.1867E-03     68.6575E-03
            6036            6024     76.0022E-03     76.4408E-03
            6036            6040     67.7701E-03     67.8316E-03
            6036            6041     74.7924E-03     74.7038E-03
            6037            6024     76.0022E-03     76.4408E-03
            6037            6025     83.8051E-03     84.1923E-03
            6037            6041     74.7924E-03     74.7038E-03
            6037            6042     81.7456E-03     81.4749E-03
            6038            6025     83.8051E-03     84.1923E-03
            6038            6026     91.4752E-03     91.8497E-03
            6038            6042     81.7456E-03     81.4749E-03
            6038            6043     88.5587E-03     88.0446E-03
            6039            6026     91.4752E-03     91.8497E-03
            6039            6027     98.9105E-03     99.2984E-03
            6039            6043     88.5587E-03     88.0446E-03
            6039            6044     95.1019E-03     94.3160E-03
            6040            6027     98.9105E-03     99.2984E-03
            6040            6028     105.951E-03     106.448E-03
            6040            6044     95.1019E-03     94.3160E-03
            6040            6045     101.292E-03     100.230E-03
            6041            6028     105.951E-03     106.448E-03
            6041            6029     112.368E-03     113.134E-03
            6041            6045     101.292E-03     100.230E-03
            6041            6046     106.894E-03     105.614E-03
            6042            6029     112.368E-03     113.134E-03
            6042            6030     118.198E-03     119.081E-03
            6042            6046     106.894E-03     105.614E-03
            6042            6047     111.817E-03     110.583E-03
            6043            6030     118.198E-03     119.081E-03
            6043            6031     122.982E-03     123.466E-03
            6043            6047     111.817E-03     110.583E-03
            6043            6048     115.757E-03     114.148E-03
            6044             278     117.333E-03     115.262E-03
            6044             279     124.998E-03     125.088E-03
            6044            6031     122.982E-03     123.466E-03
            6044            6048     115.757E-03     114.148E-03
            6045             702     25.5480E-03     30.5679E-03
            6045             703     18.4674E-03     23.5474E-03
            6045            6032     25.4535E-03     29.5763E-03
            6045            6049     17.3350E-03     19.9865E-03
            6046            6032     25.4535E-03     29.5763E-03
            6046            6033     27.0358E-03     29.1722E-03
            6046            6049     17.3350E-03     19.9865E-03
            6046            6050     16.6091E-03     17.3061E-03
            6047            6033     27.0358E-03     29.1722E-03
            6047            6034     30.8437E-03     31.5615E-03
            6047            6050     16.6091E-03     17.3061E-03
            6047            6051     19.5240E-03     20.7916E-03
            6048            6034     30.8437E-03     31.5615E-03
            6048            6035     35.5830E-03     35.9133E-03
            6048            6051     19.5240E-03     20.7916E-03
            6048            6052     24.7049E-03     26.1303E-03
            6049            6035     35.5830E-03     35.9133E-03
            6049            6036     41.1594E-03     41.4015E-03
            6049            6052     24.7049E-03     26.1303E-03
            6049            6053     30.2592E-03     31.7894E-03
            6050            6036     41.1594E-03     41.4015E-03
            6050            6037     47.3520E-03     47.5682E-03
            6050            6053     30.2592E-03     31.7894E-03
            6050            6054     36.0748E-03     37.6795E-03
            6051            6037     47.3520E-03     47.5682E-03
            6051            6038     53.9390E-03     54.1459E-03
            6051            6054     36.0748E-03     37.6795E-03
            6051            6055     42.0886E-03     43.7013E-03
            6052            6038     53.9390E-03     54.1459E-03
            6052            6039     60.7931E-03     60.9393E-03
            6052            6055     42.0886E-03     43.7013E-03
            6052            6056     48.2107E-03     49.7880E-03
            6053            6039     60.7931E-03     60.9393E-03
            6053            6040     67.7701E-03     67.8316E-03
            6053            6056     48.2107E-03     49.7880E-03
            6053            6057     54.4347E-03     55.9023E-03
            6054            6040     67.7701E-03     67.8316E-03
            6054            6041     74.7924E-03     74.7038E-03
            6054            6057     54.4347E-03     55.9023E-03
            6054            6058     60.6893E-03     62.0211E-03
            6055            6041     74.7924E-03     74.7038E-03
            6055            6042     81.7456E-03     81.4749E-03
            6055            6058     60.6893E-03     62.0211E-03
            6055            6059     67.0196E-03     68.1150E-03
            6056            6042     81.7456E-03     81.4749E-03
            6056            6043     88.5587E-03     88.0446E-03
            6056            6059     67.0196E-03     68.1150E-03
            6056            6060     73.3639E-03     74.2299E-03
            6057            6043     88.5587E-03     88.0446E-03
            6057            6044     95.1019E-03     94.3160E-03
            6057            6060     73.3639E-03     74.2299E-03
            6057            6061     79.8646E-03     80.3709E-03
            6058            6044     95.1019E-03     94.3160E-03
            6058            6045     101.292E-03     100.230E-03
            6058            6061     79.8646E-03     80.3709E-03
            6058            6062     86.4529E-03     86.7064E-03
            6059            6045     101.292E-03     100.230E-03
            6059            6046     106.894E-03     105.614E-03
            6059            6062     86.4529E-03     86.7064E-03
            6059            6063     93.5712E-03     93.5207E-03
            6060            6046     106.894E-03     105.614E-03
            6060            6047     111.817E-03     110.583E-03
            6060            6063     93.5712E-03     93.5207E-03
            6060            6064     101.106E-03     101.222E-03
            6061            6047     111.817E-03     110.583E-03
            6061            6048     115.757E-03     114.148E-03
            6061            6064     101.106E-03     101.222E-03
            6061            6065     111.724E-03     113.984E-03
            6062             277     118.752E-03     122.609E-03
            6062             278     117.333E-03     115.262E-03
            6062            6048     115.757E-03     114.148E-03
            6062            6065     111.724E-03     113.984E-03
            6063             703     18.4674E-03     23.5474E-03
            6063             704     13.8771E-03     11.8863E-03
            6063            6049     17.3350E-03     19.9865E-03
            6063            6066     10.2134E-03     8.19762E-03
            6064            6049     17.3350E-03     19.9865E-03
            6064            6050     16.6091E-03     17.3061E-03
            6064            6066     10.2134E-03     8.19762E-03
            6064            6067     5.54648E-03     5.24249E-03
            6065            6050     16.6091E-03     17.3061E-03
            6065            6051     19.5240E-03     20.7916E-03
            6065            6067     5.54648E-03     5.24249E-03
            6065            6068     7.11538E-03     9.01293E-03
            6066            6051     19.5240E-03     20.7916E-03
            6066            6052     24.7049E-03     26.1303E-03
            6066            6068     7.11538E-03     9.01293E-03
            6066            6069     12.6350E-03     15.1602E-03
            6067            6052     24.7049E-03     26.1303E-03
            6067            6053     30.2592E-03     31.7894E-03
            6067            6069     12.6350E-03     15.1602E-03
            6067            6070     18.4864E-03     21.2652E-03
            6068            6053     30.2592E-03     31.7894E-03
            6068            6054     36.0748E-03     37.6795E-03
            6068            6070     18.4864E-03     21.2652E-03
            6068            6071     24.3395E-03     27.2473E-03
            6069            6054     36.0748E-03     37.6795E-03
            6069            6055     42.0886E-03     43.7013E-03
            6069            6071     24.3395E-03     27.2473E-03
            6069            6072     30.2006E-03     33.1575E-03
            6070            6055     42.0886E-03     43.7013E-03
            6070            6056     48.2107E-03     49.7880E-03
            6070            6072     30.2006E-03     33.1575E-03
            6070            6073     36.0720E-03     39.0318E-03
            6071            6056     48.2107E-03     49.7880E-03
            6071            6057     54.4347E-03     55.9023E-03
            6071            6073     36.0720E-03     39.0318E-03
            6071            6074     41.9911E-03     44.9082E-03
            6072            6057     54.4347E-03     55.9023E-03
            6072            6058     60.6893E-03     62.0211E-03
            6072            6074     41.9911E-03     44.9082E-03
            6072            6075     48.0203E-03     50.8632E-03
            6073            6058     60.6893E-03     62.0211E-03
            6073            6059     67.0196E-03     68.1150E-03
            6073            6075     48.0203E-03     50.8632E-03
            6073            6076     54.2083E-03     56.9495E-03
            6074            6059     67.0196E-03     68.1150E-03
            6074            6060     73.3639E-03     74.2299E-03
            6074            6076     54.2083E-03     56.9495E-03
            6074            6077     60.7295E-03     63.3498E-03
            6075            6060     73.3639E-03     74.2299E-03
            6075            6061     79.8646E-03     80.3709E-03
            6075            6077     60.7295E-03     63.3498E-03
            6075            6078     67.6760E-03     70.1926E-03
            6076            6061     79.8646E-03     80.3709E-03
            6076            6062     86.4529E-03     86.7064E-03
            6076            6078     67.6760E-03     70.1926E-03
            6076            6079     75.5466E-03     77.9770E-03
            6077            6062     86.4529E-03     86.7064E-03
            6077            6063     93.5712E-03     93.5207E-03
            6077            6079     75.5466E-03     77.9770E-03
            6077            6080     84.5544E-03     87.0549E-03
            6078            6063     93.5712E-03     93.5207E-03
            6078            6064     101.106E-03     101.222E-03
            6078            6080     84.5544E-03     87.0549E-03
            6078            6081     96.6520E-03     99.3413E-03
            6079            6064     101.106E-03     101.222E-03
            6079            6065     111.724E-03     113.984E-03
            6079            6081     96.6520E-03     99.3413E-03
            6079            6082     114.515E-03     116.513E-03
            6080             276     124.961E-03     126.191E-03
            6080             277     118.752E-03     122.609E-03
            6080            6065     111.724E-03     113.984E-03
            6080            6082     114.515E-03     116.513E-03
            6081             704     13.8771E-03     11.8863E-03
            6081             705     12.4035E-03     9.59252E-03
            6081            6066     10.2134E-03     8.19762E-03
            6081            6083     10.2030E-03     7.68904E-03
            6082            6066     10.2134E-03     8.19762E-03
            6082            6067     5.54648E-03     5.24249E-03
            6082            6083     10.2030E-03     7.68904E-03
            6082            6084     7.63942E-03     6.70039E-03
            6083            6067     5.54648E-03     5.24249E-03
            6083            6068     7.11538E-03     9.01293E-03
            6083            6084     7.63942E-03     6.70039E-03
            6083            6085     9.29406E-03     10.3419E-03
            6084            6068     7.11538E-03     9.01293E-03
            6084            6069     12.6350E-03     15.1602E-03
            6084            6085     9.29406E-03     10.3419E-03
            6084            6086     14.1095E-03     16.0853E-03
            6085            6069     12.6350E-03     15.1602E-03
            6085            6070     18.4864E-03     21.2652E-03
            6085            6086     14.1095E-03     16.0853E-03
            6085            6087     19.8136E-03     22.1205E-03
            6086            6070     18.4864E-03     21.2652E-03
            6086            6071     24.3395E-03     27.2473E-03
            6086            6087     19.8136E-03     22.1205E-03
            6086            6088     25.6528E-03     28.1334E-03
            6087            6071     24.3395E-03     27.2473E-03
            6087            6072     30.2006E-03     33.1575E-03
            6087            6088     25.6528E-03     28.1334E-03
            6087            6089     31.5617E-03     34.1343E-03
            6088            6072     30.2006E-03     33.1575E-03
            6088            6073     36.0720E-03     39.0318E-03
            6088            6089     31.5617E-03     34.1343E-03
            6088            6090     37.5151E-03     40.1326E-03
            6089            6073     36.0720E-03     39.0318E-03
            6089            6074     41.9911E-03     44.9082E-03
            6089            6090     37.5151E-03     40.1326E-03
            6089            6091     43.5474E-03     46.1778E-03
            6090            6074     41.9911E-03     44.9082E-03
            6090            6075     48.0203E-03     50.8632E-03
            6090            6091     43.5474E-03     46.1778E-03
            6090            6092     49.6848E-03     52.3146E-03
            6091            6075     48.0203E-03     50.8632E-03
            6091            6076     54.2083E-03     56.9495E-03
            6091            6092     49.6848E-03     52.3146E-03
            6091            6093     56.0394E-03     58.6392E-03
            6092            6076     54.2083E-03     56.9495E-03
            6092            6077     60.7295E-03     63.3498E-03
            6092            6093     56.0394E-03     58.6392E-03
            6092            6094     62.6864E-03     65.2735E-03
            6093            6077     60.7295E-03     63.3498E-03
            6093            6078     67.6760E-03     70.1926E-03
            6093            6094     62.6864E-03     65.2735E-03
            6093            6095     69.9163E-03     72.4335E-03
            6094            6078     67.6760E-03     70.1926E-03
            6094            6079     75.5466E-03     77.9770E-03
            6094            6095     69.9163E-03     72.4335E-03
            6094            6096     77.9815E-03     80.4741E-03
            6095            6079     75.5466E-03     77.9770E-03
            6095            6080     84.5544E-03     87.0549E-03
            6095            6096     77.9815E-03     80.4741E-03
            6095            6097     87.5399E-03     89.8587E-03
            6096            6080     84.5544E-03     87.0549E-03
            6096            6081     96.6520E-03     99.3413E-03
            6096            6097     87.5399E-03     89.8587E-03
            6096            6098     100.391E-03     101.875E-03
            6097            6081     96.6520E-03     99.3413E-03
            6097            6082     114.515E-03     116.513E-03
            6097            6098     100.391E-03     101.875E-03
            6097            6099     113.942E-03     114.253E-03
            6098             275     119.991E-03     119.723E-03
            6098             276     124.961E-03     126.191E-03
            6098            6082     114.515E-03     116.513E-03
            6098            6099     113.942E-03     114.253E-03
            6099             705     12.4035E-03     9.59252E-03
            6099             706     11.6982E-03     9.28570E-03
            6099            6083     10.2030E-03     7.68904E-03
            6099            6100     10.1046E-03     8.01398E-03
            6100            6083     10.2030E-03     7.68904E-03
            6100            6084     7.63942E-03     6.70039E-03
            6100            6100     10.1046E-03     8.01398E-03
            6100            6101     8.80807E-03     7.98641E-03
            6101            6084     7.63942E-03     6.70039E-03
            6101            6085     9.29406E-03     10.3419E-03
            6101            6101     8.80807E-03     7.98641E-03
            6101            6102     11.1487E-03     11.8524E-03
            6102            6085     9.29406E-03     10.3419E-03
            6102            6086     14.1095E-03     16.0853E-03
            6102            6102     11.1487E-03     11.8524E-03
            6102            6103     15.7909E-03     17.3410E-03
            6103            6086     14.1095E-03     16.0853E-03
            6103            6087     19.8136E-03     22.1205E-03
            6103            6103     15.7909E-03     17.3410E-03
            6103            6104     21.2597E-03     23.1951E-03
            6104            6087     19.8136E-03     22.1205E-03
            6104            6088     25.6528E-03     28.1334E-03
            6104            6104     21.2597E-03     23.1951E-03
            6104            6105     27.0603E-03     29.1854E-03
            6105            6088     25.6528E-03     28.1334E-03
            6105            6089     31.5617E-03     34.1343E-03
            6105            6105     27.0603E-03     29.1854E-03
            6105            6106     32.9706E-03     35.2124E-03
            6106            6089     31.5617E-03     34.1343E-03
            6106            6090     37.5151E-03     40.1326E-03
            6106            6106     32.9706E-03     35.2124E-03
            6106            6107     38.9869E-03     41.3003E-03
            6107            6090     37.5151E-03     40.1326E-03
            6107            6091     43.5474E-03     46.1778E-03
            6107            6107     38.9869E-03     41.3003E-03
            6107            6108     45.0905E-03     47.4625E-03
            6108            6091     43.5474E-03     46.1778E-03
            6108            6092     49.6848E-03     52.3146E-03
            6108            6108     45.0905E-03     47.4625E-03
            6108            6109     51.3372E-03     53.7456E-03
            6109            6092     49.6848E-03     52.3146E-03
            6109            6093     56.0394E-03     58.6392E-03
            6109            6109     51.3372E-03     53.7456E-03
            6109            6110     57.7729E-03     60.2256E-03
            6110            6093     56.0394E-03     58.6392E-03
            6110            6094     62.6864E-03     65.2735E-03
            6110            6110     57.7729E-03     60.2256E-03
            6110            6111     64.5349E-03     66.9898E-03
            6111            6094     62.6864E-03     65.2735E-03
            6111            6095     69.9163E-03     72.4335E-03
            6111            6111     64.5349E-03     66.9898E-03
            6111            6112     71.8099E-03     74.2524E-03
            6112            6095     69.9163E-03     72.4335E-03
            6112            6096     77.9815E-03     80.4741E-03
            6112            6112     71.8099E-03     74.2524E-03
            6112            6113     79.8143E-03     82.1613E-03
            6113            6096     77.9815E-03     80.4741E-03
            6113            6097     87.5399E-03     89.8587E-03
            6113            6113     79.8143E-03     82.1613E-03
            6113            6114     89.3516E-03     91.2580E-03
            6114            6097     87.5399E-03     89.8587E-03
            6114            6098     100.391E-03     101.875E-03
            6114            6114     89.3516E-03     91.2580E-03
            6114            6115     99.6946E-03     101.254E-03
            6115            6098     100.391E-03     101.875E-03
            6115            6099     113.942E-03     114.253E-03
            6115            6115     99.6946E-03     101.254E-03
            6115            6116     109.284E-03     111.143E-03
            6116             274     113.833E-03     116.019E-03
            6116             275     119.991E-03     119.723E-03
            6116            6099     113.942E-03     114.253E-03
            6116            6116     109.284E-03     111.143E-03
            6117             706     11.6982E-03     9.28570E-03
            6117             707     12.1797E-03     9.77968E-03
            6117            6100     10.1046E-03     8.01398E-03
            6117            6117     11.0494E-03     9.14077E-03
            6118            6100     10.1046E-03     8.01398E-03
            6118            6101     8.80807E-03     7.98641E-03
            6118            6117     11.0494E-03     9.14077E-03
            6118            6118     10.4359E-03     9.82005E-03
            6119            6101     8.80807E-03     7.98641E-03
            6119            6102     11.1487E-03     11.8524E-03
            6119            6118     10.4359E-03     9.82005E-03
            6119            6119     12.8948E-03     13.5199E-03
            6120            6102     11.1487E-03     11.8524E-03
            6120            6103     15.7909E-03     17.3410E-03
            6120            6119     12.8948E-03     13.5199E-03
            6120            6120     17.4023E-03     18.6930E-03
            6121            6103     15.7909E-03     17.3410E-03
            6121            6104     21.2597E-03     23.1951E-03
            6121            6120     17.4023E-03     18.6930E-03
            6121            6121     22.7286E-03     24.3721E-03
            6122            6104     21.2597E-03     23.1951E-03
            6122            6105     27.0603E-03     29.1854E-03
            6122            6121     22.7286E-03     24.3721E-03
            6122            6122     28.4110E-03     30.2433E-03
            6123            6105     27.0603E-03     29.1854E-03
            6123            6106     32.9706E-03     35.2124E-03
            6123            6122     28.4110E-03     30.2433E-03
            6123            6123     34.3130E-03     36.2549E-03
            6124            6106     32.9706E-03     35.2124E-03
            6124            6107     38.9869E-03     41.3003E-03
            6124            6123     34.3130E-03     36.2549E-03
            6124            6124     40.3358E-03     42.3649E-03
            6125            6107     38.9869E-03     41.3003E-03
            6125            6108     45.0905E-03     47.4625E-03
            6125            6124     40.3358E-03     42.3649E-03
            6125            6125     46.4866E-03     48.5865E-03
            6126            6108     45.0905E-03     47.4625E-03
            6126            6109     51.3372E-03     53.7456E-03
            6126            6125     46.4866E-03     48.5865E-03
            6126            6126     52.7672E-03     54.9449E-03
            6127            6109     51.3372E-03     53.7456E-03
            6127            6110     57.7729E-03     60.2256E-03
            6127            6126     52.7672E-03     54.9449E-03
            6127            6127     59.2207E-03     61.4641E-03
            6128            6110     57.7729E-03     60.2256E-03
            6128            6111     64.5349E-03     66.9898E-03
            6128            6127     59.2207E-03     61.4641E-03
            6128            6128     65.9472E-03     68.2351E-03
            6129            6111     64.5349E-03     66.9898E-03
            6129            6112     71.8099E-03     74.2524E-03
            6129            6128     65.9472E-03     68.2351E-03
            6129            6129     72.9925E-03     75.2937E-03
            6130            6112     71.8099E-03     74.2524E-03
            6130            6113     79.8143E-03     82.1613E-03
            6130            6129     72.9925E-03     75.2937E-03
            6130            6130     80.6976E-03     82.8195E-03
            6131            6113     79.8143E-03     82.1613E-03
            6131            6114     89.3516E-03     91.2580E-03
            6131            6130     80.6976E-03     82.8195E-03
            6131            6131     88.8197E-03     90.7827E-03
            6132            6114     89.3516E-03     91.2580E-03
            6132            6115     99.6946E-03     101.254E-03
            6132            6131     88.8197E-03     90.7827E-03
            6132            6132     96.9893E-03     98.8200E-03
            6133            6115     99.6946E-03     101.254E-03
            6133            6116     109.284E-03     111.143E-03
            6133            6132     96.9893E-03     98.8200E-03
            6133            6133     105.167E-03     106.322E-03
            6134             273     109.192E-03     109.812E-03
            6134             274     113.833E-03     116.019E-03
            6134            6116     109.284E-03     111.143E-03
            6134            6133     105.167E-03     106.322E-03
            6135             707     12.1797E-03     9.77968E-03
            6135             708     13.0659E-03     10.9490E-03
            6135            6117     11.0494E-03     9.14077E-03
            6135            6134     12.3300E-03     10.7242E-03
            6136            6117     11.0494E-03     9.14077E-03
            6136            6118     10.4359E-03     9.82005E-03
            6136            6134     12.3300E-03     10.7242E-03
            6136            6135     12.2956E-03     11.7981E-03
            6137            6118     10.4359E-03     9.82005E-03
            6137            6119     12.8948E-03     13.5199E-03
            6137            6135     12.2956E-03     11.7981E-03
            6137            6136     14.7974E-03     15.3181E-03
            6138            6119     12.8948E-03     13.5199E-03
            6138            6120     17.4023E-03     18.6930E-03
            6138            6136     14.7974E-03     15.3181E-03
            6138            6137     18.9923E-03     20.1268E-03
            6139            6120     17.4023E-03     18.6930E-03
            6139            6121     22.7286E-03     24.3721E-03
            6139            6137     18.9923E-03     20.1268E-03
            6139            6138     24.1043E-03     25.5215E-03
            6140            6121     22.7286E-03     24.3721E-03
            6140            6122     28.4110E-03     30.2433E-03
            6140            6138     24.1043E-03     25.5215E-03
            6140            6139     29.6671E-03     31.2335E-03
            6141            6122     28.4110E-03     30.2433E-03
            6141            6123     34.3130E-03     36.2549E-03
            6141            6139     29.6671E-03     31.2335E-03
            6141            6140     35.4816E-03     37.1399E-03
            6142            6123     34.3130E-03     36.2549E-03
            6142            6124     40.3358E-03     42.3649E-03
            6142            6140     35.4816E-03     37.1399E-03
            6142            6141     41.4780E-03     43.2068E-03
            6143            6124     40.3358E-03     42.3649E-03
            6143            6125     46.4866E-03     48.5865E-03
            6143            6141     41.4780E-03     43.2068E-03
            6143            6142     47.6033E-03     49.4128E-03
            6144            6125     46.4866E-03     48.5865E-03
            6144            6126     52.7672E-03     54.9449E-03
            6144            6142     47.6033E-03     49.4128E-03
            6144            6143     53.8444E-03     55.7441E-03
            6145            6126     52.7672E-03     54.9449E-03
            6145            6127     59.2207E-03     61.4641E-03
            6145            6143     53.8444E-03     55.7441E-03
            6145            6144     60.2275E-03     62.2156E-03
            6146            6127     59.2207E-03     61.4641E-03
            6146            6128     65.9472E-03     68.2351E-03
            6146            6144     60.2275E-03     62.2156E-03
            6146            6145     66.7212E-03     68.8063E-03
            6147            6128     65.9472E-03     68.2351E-03
            6147            6129     72.9925E-03     75.2937E-03
            6147            6145     66.7212E-03     68.8063E-03
            6147            6146     73.4493E-03     75.5342E-03
            6148            6129     72.9925E-03     75.2937E-03
            6148            6130     80.6976E-03     82.8195E-03
            6148            6146     73.4493E-03     75.5342E-03
            6148            6147     80.2756E-03     82.3475E-03
            6149            6130     80.6976E-03     82.8195E-03
            6149            6131     88.8197E-03     90.7827E-03
            6149            6147     80.2756E-03     82.3475E-03
            6149            6148     87.1431E-03     89.0785E-03
            6150            6131     88.8197E-03     90.7827E-03
            6150            6132     96.9893E-03     98.8200E-03
            6150            6148     87.1431E-03     89.0785E-03
            6150            6149     94.0107E-03     95.5385E-03
            6151            6132     96.9893E-03     98.8200E-03
            6151            6133     105.167E-03     106.322E-03
            6151            6149     94.0107E-03     95.5385E-03
            6151            6150     100.551E-03     101.886E-03
            6152             272     103.740E-03     105.109E-03
            6152             273     109.192E-03     109.812E-03
            6152            6133     105.167E-03     106.322E-03
            6152            6150     100.551E-03     101.886E-03
            6153             708     13.0659E-03     10.9490E-03
            6153             709     14.3630E-03     12.5673E-03
            6153            6134     12.3300E-03     10.7242E-03
            6153            6151     13.9321E-03     12.5881E-03
            6154            6134     12.3300E-03     10.7242E-03
            6154            6135     12.2956E-03     11.7981E-03
            6154            6151     13.9321E-03     12.5881E-03
            6154            6152     14.2369E-03     13.8930E-03
            6155            6135     12.2956E-03     11.7981E-03
            6155            6136     14.7974E-03     15.3181E-03
            6155            6152     14.2369E-03     13.8930E-03
            6155            6153     16.6438E-03     17.1667E-03
            6156            6136     14.7974E-03     15.3181E-03
            6156            6137     18.9923E-03     20.1268E-03
            6156            6153     16.6438E-03     17.1667E-03
            6156            6154     20.5717E-03     21.5708E-03
            6157            6137     18.9923E-03     20.1268E-03
            6157            6138     24.1043E-03     25.5215E-03
            6157            6154     20.5717E-03     21.5708E-03
            6157            6155     25.4018E-03     26.6273E-03
            6158            6138     24.1043E-03     25.5215E-03
            6158            6139     29.6671E-03     31.2335E-03
            6158            6155     25.4018E-03     26.6273E-03
            6158            6156     30.7687E-03     32.0795E-03
            6159            6139     29.6671E-03     31.2335E-03
            6159            6140     35.4816E-03     37.1399E-03
            6159            6156     30.7687E-03     32.0795E-03
            6159            6157     36.4567E-03     37.8098E-03
            6160            6140     35.4816E-03     37.1399E-03
            6160            6141     41.4780E-03     43.2068E-03
            6160            6157     36.4567E-03     37.8098E-03
            6160            6158     42.3453E-03     43.7495E-03
            6161            6141     41.4780E-03     43.2068E-03
            6161            6142     47.6033E-03     49.4128E-03
            6161            6158     42.3453E-03     43.7495E-03
            6161            6159     48.3697E-03     49.8451E-03
            6162            6142     47.6033E-03     49.4128E-03
            6162            6143     53.8444E-03     55.7441E-03
            6162            6159     48.3697E-03     49.8451E-03
            6162            6160     54.5023E-03     56.0663E-03
            6163            6143     53.8444E-03     55.7441E-03
            6163            6144     60.2275E-03     62.2156E-03
            6163            6160     54.5023E-03     56.0663E-03
            6163            6161     60.6768E-03     62.3654E-03
            6164            6144     60.2275E-03     62.2156E-03
            6164            6145     66.7212E-03     68.8063E-03
            6164            6161     60.6768E-03     62.3654E-03
            6164            6162     66.9080E-03     68.6941E-03
            6165            6145     66.7212E-03     68.8063E-03
            6165            6146     73.4493E-03     75.5342E-03
            6165            6162     66.9080E-03     68.6941E-03
            6165            6163     73.0588E-03     74.9671E-03
            6166            6146     73.4493E-03     75.5342E-03
            6166            6147     80.2756E-03     82.3475E-03
            6166            6163     73.0588E-03     74.9671E-03
            6166            6164     79.0962E-03     81.0242E-03
            6167            6147     80.2756E-03     82.3475E-03
            6167            6148     87.1431E-03     89.0785E-03
            6167            6164     79.0962E-03     81.0242E-03
            6167            6165     84.9385E-03     86.7207E-03
            6168            6148     87.1431E-03     89.0785E-03
            6168            6149     94.0107E-03     95.5385E-03
            6168            6165     84.9385E-03     86.7207E-03
            6168            6166     90.4819E-03     92.0650E-03
            6169            6149     94.0107E-03     95.5385E-03
            6169            6150     100.551E-03     101.886E-03
            6169            6166     90.4819E-03     92.0650E-03
            6169            6167     96.1096E-03     97.1565E-03
            6170             271     98.9902E-03     99.6415E-03
            6170             272     103.740E-03     105.109E-03
            6170            6150     100.551E-03     101.886E-03
            6170            6167     96.1096E-03     97.1565E-03
            6171             709     14.3630E-03     12.5673E-03
            6171             710     15.8791E-03     14.2754E-03
            6171            6151     13.9321E-03     12.5881E-03
            6171            6168     15.7016E-03     14.6152E-03
            6172            6151     13.9321E-03     12.5881E-03
            6172            6152     14.2369E-03     13.8930E-03
            6172            6168     15.7016E-03     14.6152E-03
            6172            6169     16.2344E-03     16.1051E-03
            6173            6152     14.2369E-03     13.8930E-03
            6173            6153     16.6438E-03     17.1667E-03
            6173            6169     16.2344E-03     16.1051E-03
            6173            6170     18.4768E-03     19.0442E-03
            6174            6153     16.6438E-03     17.1667E-03
            6174            6154     20.5717E-03     21.5708E-03
            6174            6170     18.4768E-03     19.0442E-03
            6174            6171     22.0872E-03     23.0199E-03
            6175            6154     20.5717E-03     21.5708E-03
            6175            6155     25.4018E-03     26.6273E-03
            6175            6171     22.0872E-03     23.0199E-03
            6175            6172     26.6216E-03     27.6580E-03
            6176            6155     25.4018E-03     26.6273E-03
            6176            6156     30.7687E-03     32.0795E-03
            6176            6172     26.6216E-03     27.6580E-03
            6176            6173     31.7449E-03     32.7713E-03
            6177            6156     30.7687E-03     32.0795E-03
            6177            6157     36.4567E-03     37.8098E-03
            6177            6173     31.7449E-03     32.7713E-03
            6177            6174     37.2266E-03     38.2453E-03
            6178            6157     36.4567E-03     37.8098E-03
            6178            6158     42.3453E-03     43.7495E-03
            6178            6174     37.2266E-03     38.2453E-03
            6178            6175     42.9259E-03     43.9640E-03
            6179            6158     42.3453E-03     43.7495E-03
            6179            6159     48.3697E-03     49.8451E-03
            6179            6175     42.9259E-03     43.9640E-03
            6179            6176     48.7731E-03     49.8595E-03
            6180            6159     48.3697E-03     49.8451E-03
            6180            6160     54.5023E-03     56.0663E-03
            6180            6176     48.7731E-03     49.8595E-03
            6180            6177     54.6817E-03     55.8606E-03
            6181            6160     54.5023E-03     56.0663E-03
            6181            6161     60.6768E-03     62.3654E-03
            6181            6177     54.6817E-03     55.8606E-03
            6181            6178     60.6155E-03     61.9010E-03
            6182            6161     60.6768E-03     62.3654E-03
            6182            6162     66.9080E-03     68.6941E-03
            6182            6178     60.6155E-03     61.9010E-03
            6182            6179     66.4426E-03     67.8907E-03
            6183            6162     66.9080E-03     68.6941E-03
            6183            6163     73.0588E-03     74.9671E-03
            6183            6179     66.4426E-03     67.8907E-03
            6183            6180     72.0843E-03     73.6765E-03
            6184            6163     73.0588E-03     74.9671E-03
            6184            6164     79.0962E-03     81.0242E-03
            6184            6180     72.0843E-03     73.6765E-03
            6184            6181     77.3743E-03     79.0890E-03
            6185            6164     79.0962E-03     81.0242E-03
            6185            6165     84.9385E-03     86.7207E-03
            6185            6181     77.3743E-03     79.0890E-03
            6185            6182     82.2264E-03     83.9580E-03
            6186            6165     84.9385E-03     86.7207E-03
            6186            6166     90.4819E-03     92.0650E-03
            6186            6182     82.2264E-03     83.9580E-03
            6186            6183     86.8061E-03     88.2210E-03
            6187            6166     90.4819E-03     92.0650E-03
            6187            6167     96.1096E-03     97.1565E-03
            6187            6183     86.8061E-03     88.2210E-03
            6187            6184     91.2556E-03     92.3016E-03
            6188             270     93.4899E-03     94.4001E-03
            6188             271     98.9902E-03     99.6415E-03
            6188            6167     96.1096E-03     97.1565E-03
            6188            6184     91.2556E-03     92.3016E-03
            6189             710     15.8791E-03     14.2754E-03
            6189             711     17.6664E-03     16.5742E-03
            6189            6168     15.7016E-03     14.6152E-03
            6189            6185     17.5910E-03     16.9308E-03
            6190            6168     15.7016E-03     14.6152E-03
            6190            6169     16.2344E-03     16.1051E-03
            6190            6185     17.5910E-03     16.9308E-03
            6190            6186     18.2362E-03     18.3693E-03
            6191            6169     16.2344E-03     16.1051E-03
            6191            6170     18.4768E-03     19.0442E-03
            6191            6186     18.2362E-03     18.3693E-03
            6191            6187     20.2964E-03     21.0196E-03
            6192            6170     18.4768E-03     19.0442E-03
            6192            6171     22.0872E-03     23.0199E-03
            6192            6187     20.2964E-03     21.0196E-03
            6192            6188     23.5685E-03     24.4784E-03
            6193            6171     22.0872E-03     23.0199E-03
            6193            6172     26.6216E-03     27.6580E-03
            6193            6188     23.5685E-03     24.4784E-03
            6193            6189     27.8129E-03     28.6163E-03
            6194            6172     26.6216E-03     27.6580E-03
            6194            6173     31.7449E-03     32.7713E-03
            6194            6189     27.8129E-03     28.6163E-03
            6194            6190     32.6458E-03     33.3479E-03
            6195            6173     31.7449E-03     32.7713E-03
            6195            6174     37.2266E-03     38.2453E-03
            6195            6190     32.6458E-03     33.3479E-03
            6195            6191     37.8308E-03     38.4784E-03
            6196            6174     37.2266E-03     38.2453E-03
            6196            6175     42.9259E-03     43.9640E-03
            6196            6191     37.8308E-03     38.4784E-03
            6196            6192     43.2581E-03     43.8886E-03
            6197            6175     42.9259E-03     43.9640E-03
            6197            6176     48.7731E-03     49.8595E-03
            6197            6192     43.2581E-03     43.8886E-03
            6197            6193     48.8120E-03     49.4724E-03
            6198            6176     48.7731E-03     49.8595E-03
            6198            6177     54.6817E-03     55.8606E-03
            6198            6193     48.8120E-03     49.4724E-03
            6198            6194     54.4343E-03     55.1489E-03
            6199            6177     54.6817E-03     55.8606E-03
            6199            6178     60.6155E-03     61.9010E-03
            6199            6194     54.4343E-03     55.1489E-03
            6199            6195     60.0090E-03     60.8316E-03
            6200            6178     60.6155E-03     61.9010E-03
            6200            6179     66.4426E-03     67.8907E-03
            6200            6195     60.0090E-03     60.8316E-03
            6200            6196     65.4462E-03     66.4032E-03
            6201            6179     66.4426E-03     67.8907E-03
            6201            6180     72.0843E-03     73.6765E-03
            6201            6196     65.4462E-03     66.4032E-03
            6201            6197     70.5707E-03     71.7244E-03
            6202            6180     72.0843E-03     73.6765E-03
            6202            6181     77.3743E-03     79.0890E-03
            6202            6197     70.5707E-03     71.7244E-03
            6202            6198     75.2053E-03     76.5710E-03
            6203            6181     77.3743E-03     79.0890E-03
            6203            6182     82.2264E-03     83.9580E-03
            6203            6198     75.2053E-03     76.5710E-03
            6203            6199     79.2195E-03     80.7199E-03
            6204            6182     82.2264E-03     83.9580E-03
            6204            6183     86.8061E-03     88.2210E-03
            6204            6199     79.2195E-03     80.7199E-03
            6204            6200     82.7089E-03     84.1435E-03
            6205            6183     86.8061E-03     88.2210E-03
            6205            6184     91.2556E-03     92.3016E-03
            6205            6200     82.7089E-03     84.1435E-03
            6205            6201     86.2506E-03     87.0950E-03
            6206             269     88.1126E-03     88.5010E-03
            6206             270     93.4899E-03     94.4001E-03
            6206            6184     91.2556E-03     92.3016E-03
            6206            6201     86.2506E-03     87.0950E-03
            6207             711     17.6664E-03     16.5742E-03
            6207             712     19.4016E-03     18.6265E-03
            6207            6185     17.5910E-03     16.9308E-03
            6207            6202     19.6100E-03     19.2755E-03
            6208            6185     17.5910E-03     16.9308E-03
            6208            6186     18.2362E-03     18.3693E-03
            6208            6202     19.6100E-03     19.2755E-03
            6208            6203     20.2866E-03     20.9294E-03
            6209            6186     18.2362E-03     18.3693E-03
            6209            6187     20.2964E-03     21.0196E-03
            6209            6203     20.2866E-03     20.9294E-03
            6209            6204     22.0229E-03     23.0962E-03
            6210            6187     20.2964E-03     21.0196E-03
            6210            6188     23.5685E-03     24.4784E-03
            6210            6204     22.0229E-03     23.0962E-03
            6210            6205     25.1390E-03     25.9143E-03
            6211            6188     23.5685E-03     24.4784E-03
            6211            6189     27.8129E-03     28.6163E-03
            6211            6205     25.1390E-03     25.9143E-03
            6211            6206     29.0957E-03     29.5944E-03
            6212            6189     27.8129E-03     28.6163E-03
            6212            6190     32.6458E-03     33.3479E-03
            6212            6206     29.0957E-03     29.5944E-03
            6212            6207     33.5489E-03     33.8934E-03
            6213            6190     32.6458E-03     33.3479E-03
            6213            6191     37.8308E-03     38.4784E-03
            6213            6207     33.5489E-03     33.8934E-03
            6213            6208     38.3687E-03     38.6184E-03
            6214            6191     37.8308E-03     38.4784E-03
            6214            6192     43.2581E-03     43.8886E-03
            6214            6208     38.3687E-03     38.6184E-03
            6214            6209     43.4017E-03     43.6164E-03
            6215            6192     43.2581E-03     43.8886E-03
            6215            6193     48.8120E-03     49.4724E-03
            6215            6209     43.4017E-03     43.6164E-03
            6215            6210     48.5764E-03     48.7764E-03
            6216            6193     48.8120E-03     49.4724E-03
            6216            6194     54.4343E-03     55.1489E-03
            6216            6210     48.5764E-03     48.7764E-03
            6216            6211     53.7850E-03     54.0052E-03
            6217            6194     54.4343E-03     55.1489E-03
            6217            6195     60.0090E-03     60.8316E-03
            6217            6211     53.7850E-03     54.0052E-03
            6217            6212     58.9442E-03     59.2067E-03
            6218            6195     60.0090E-03     60.8316E-03
            6218            6196     65.4462E-03     66.4032E-03
            6218            6212     58.9442E-03     59.2067E-03
            6218            6213     63.9216E-03     64.2748E-03
            6219            6196     65.4462E-03     66.4032E-03
            6219            6197     70.5707E-03     71.7244E-03
            6219            6213     63.9216E-03     64.2748E-03
            6219            6214     68.5542E-03     69.0601E-03
            6220            6197     70.5707E-03     71.7244E-03
            6220            6198     75.2053E-03     76.5710E-03
            6220            6214     68.5542E-03     69.0601E-03
            6220            6215     72.6405E-03     73.3762E-03
            6221            6198     75.2053E-03     76.5710E-03
            6221            6199     79.2195E-03     80.7199E-03
            6221            6215     72.6405E-03     73.3762E-03
            6221            6216     75.9088E-03     76.9357E-03
            6222            6199     79.2195E-03     80.7199E-03
            6222            6200     82.7089E-03     84.1435E-03
            6222            6216     75.9088E-03     76.9357E-03
            6222            6217     78.3386E-03     79.5096E-03
            6223            6200     82.7089E-03     84.1435E-03
            6223            6201     86.2506E-03     87.0950E-03
            6223            6217     78.3386E-03     79.5096E-03
            6223            6218     80.7369E-03     81.6192E-03
            6224             268     82.1102E-03     82.7003E-03
            6224             269     88.1126E-03     88.5010E-03
            6224            6201     86.2506E-03     87.0950E-03
            6224            6218     80.7369E-03     81.6192E-03
            6225             712     19.4016E-03     18.6265E-03
            6225             713     22.0255E-03     21.7207E-03
            6225            6202     19.6100E-03     19.2755E-03
            6225            6219     21.6586E-03     22.4986E-03
            6226            6202     19.6100E-03     19.2755E-03
            6226            6203     20.2866E-03     20.9294E-03
            6226            6219     21.6586E-03     22.4986E-03
            6226            6220     21.9255E-03     23.6925E-03
            6227            6203     20.2866E-03     20.9294E-03
            6227            6204     22.0229E-03     23.0962E-03
            6227            6220     21.9255E-03     23.6925E-03
            6227            6221     23.9640E-03     25.0375E-03
            6228            6204     22.0229E-03     23.0962E-03
            6228            6205     25.1390E-03     25.9143E-03
            6228            6221     23.9640E-03     25.0375E-03
            6228            6222     27.0071E-03     27.4393E-03
            6229            6205     25.1390E-03     25.9143E-03
            6229            6206     29.0957E-03     29.5944E-03
            6229            6222     27.0071E-03     27.4393E-03
            6229            6223     30.5799E-03     30.7216E-03
            6230            6206     29.0957E-03     29.5944E-03
            6230            6207     33.5489E-03     33.8934E-03
            6230            6223     30.5799E-03     30.7216E-03
            6230            6224     34.6167E-03     34.5843E-03
            6231            6207     33.5489E-03     33.8934E-03
            6231            6208     38.3687E-03     38.6184E-03
            6231            6224     34.6167E-03     34.5843E-03
            6231            6225     38.9542E-03     38.8364E-03
            6232            6208     38.3687E-03     38.6184E-03
            6232            6209     43.4017E-03     43.6164E-03
            6232            6225     38.9542E-03     38.8364E-03
            6232            6226     43.5100E-03     43.3263E-03
            6233            6209     43.4017E-03     43.6164E-03
            6233            6210     48.5764E-03     48.7764E-03
            6233            6226     43.5100E-03     43.3263E-03
            6233            6227     48.1762E-03     47.9429E-03
            6234            6210     48.5764E-03     48.7764E-03
            6234            6211     53.7850E-03     54.0052E-03
            6234            6227     48.1762E-03     47.9429E-03
            6234            6228     52.8723E-03     52.5871E-03
            6235            6211     53.7850E-03     54.0052E-03
            6235            6212     58.9442E-03     59.2067E-03
            6235            6228     52.8723E-03     52.5871E-03
            6235            6229     57.4981E-03     57.1692E-03
            6236            6212     58.9442E-03     59.2067E-03
            6236            6213     63.9216E-03     64.2748E-03
            6236            6229     57.4981E-03     57.1692E-03
            6236            6230     61.9336E-03     61.5810E-03
            6237            6213     63.9216E-03     64.2748E-03
            6237            6214     68.5542E-03     69.0601E-03
            6237            6230     61.9336E-03     61.5810E-03
            6237            6231     66.0441E-03     65.6976E-03
            6238            6214     68.5542E-03     69.0601E-03
            6238            6215     72.6405E-03     73.3762E-03
            6238            6231     66.0441E-03     65.6976E-03
            6238            6232     69.5959E-03     69.3572E-03
            6239            6215     72.6405E-03     73.3762E-03
            6239            6216     75.9088E-03     76.9357E-03
            6239            6232     69.5959E-03     69.3572E-03
            6239            6233     72.3368E-03     72.3218E-03
            6240            6216     75.9088E-03     76.9357E-03
            6240            6217     78.3386E-03     79.5096E-03
            6240            6233     72.3368E-03     72.3218E-03
            6240            6234     73.8279E-03     74.1557E-03
            6241            6217     78.3386E-03     79.5096E-03
            6241            6218     80.7369E-03     81.6192E-03
            6241            6234     73.8279E-03     74.1557E-03
            6241            6235     74.6937E-03     74.9416E-03
            6242             267     75.2075E-03     75.1669E-03
            6242             268     82.1102E-03     82.7003E-03
            6242            6218     80.7369E-03     81.6192E-03
            6242            6235     74.6937E-03     74.9416E-03
            6243             713     22.0255E-03     21.7207E-03
            6243             714     22.0154E-03     26.0407E-03
            6243            6219     21.6586E-03     22.4986E-03
            6243            6236     22.4916E-03     25.7670E-03
            6244            6219     21.6586E-03     22.4986E-03
            6244            6220     21.9255E-03     23.6925E-03
            6244            6236     22.4916E-03     25.7670E-03
            6244            6237     24.1183E-03     25.7362E-03
            6245            6220     21.9255E-03     23.6925E-03
            6245            6221     23.9640E-03     25.0375E-03
            6245            6237     24.1183E-03     25.7362E-03
            6245            6238     26.5461E-03     26.9328E-03
            6246            6221     23.9640E-03     25.0375E-03
            6246            6222     27.0071E-03     27.4393E-03
            6246            6238     26.5461E-03     26.9328E-03
            6246            6239     29.2898E-03     29.2403E-03
            6247            6222     27.0071E-03     27.4393E-03
            6247            6223     30.5799E-03     30.7216E-03
            6247            6239     29.2898E-03     29.2403E-03
            6247            6240     32.4530E-03     32.2130E-03
            6248            6223     30.5799E-03     30.7216E-03
            6248            6224     34.6167E-03     34.5843E-03
            6248            6240     32.4530E-03     32.2130E-03
            6248            6241     35.9878E-03     35.6432E-03
            6249            6224     34.6167E-03     34.5843E-03
            6249            6225     38.9542E-03     38.8364E-03
            6249            6241     35.9878E-03     35.6432E-03
            6249            6242     39.7899E-03     39.3748E-03
            6250            6225     38.9542E-03     38.8364E-03
            6250            6226     43.5100E-03     43.3263E-03
            6250            6242     39.7899E-03     39.3748E-03
            6250            6243     43.7716E-03     43.2758E-03
            6251            6226     43.5100E-03     43.3263E-03
            6251            6227     48.1762E-03     47.9429E-03
            6251            6243     43.7716E-03     43.2758E-03
            6251            6244     47.8374E-03     47.2422E-03
            6252            6227     48.1762E-03     47.9429E-03
            6252            6228     52.8723E-03     52.5871E-03
            6252            6244     47.8374E-03     47.2422E-03
            6252            6245     51.9032E-03     51.1816E-03
            6253            6228     52.8723E-03     52.5871E-03
            6253            6229     57.4981E-03     57.1692E-03
            6253            6245     51.9032E-03     51.1816E-03
            6253            6246     55.8705E-03     54.9922E-03
            6254            6229     57.4981E-03     57.1692E-03
            6254            6230     61.9336E-03     61.5810E-03
            6254            6246     55.8705E-03     54.9922E-03
            6254            6247     59.6512E-03     58.5810E-03
            6255            6230     61.9336E-03     61.5810E-03
            6255            6231     66.0441E-03     65.6976E-03
            6255            6247     59.6512E-03     58.5810E-03
            6255            6248     63.1023E-03     61.8231E-03
            6256            6231     66.0441E-03     65.6976E-03
            6256            6232     69.5959E-03     69.3572E-03
            6256            6248     63.1023E-03     61.8231E-03
            6256            6249     66.0900E-03     64.5789E-03
            6257            6232     69.5959E-03     69.3572E-03
            6257            6233     72.3368E-03     72.3218E-03
            6257            6249     66.0900E-03     64.5789E-03
            6257            6250     68.3395E-03     66.6534E-03
            6258            6233     72.3368E-03     72.3218E-03
            6258            6234     73.8279E-03     74.1557E-03
            6258            6250     68.3395E-03     66.6534E-03
            6258            6251     69.4016E-03     67.6976E-03
            6259            6234     73.8279E-03     74.1557E-03
            6259            6235     74.6937E-03     74.9416E-03
            6259            6251     69.4016E-03     67.6976E-03
            6259            6252     68.6325E-03     66.8241E-03
            6260             266     67.6831E-03     65.7354E-03
            6260             267     75.2075E-03     75.1669E-03
            6260            6235     74.6937E-03     74.9416E-03
            6260            6252     68.6325E-03     66.8241E-03
            6261             714     22.0154E-03     26.0407E-03
            6261             715     16.7652E-03     19.4700E-03
            6261            6236     22.4916E-03     25.7670E-03
            6261            6253     17.0044E-03     18.6010E-03
            6262            6236     22.4916E-03     25.7670E-03
            6262            6237     24.1183E-03     25.7362E-03
            6262            6253     17.0044E-03     18.6010E-03
            6262            6254     17.4858E-03     17.8143E-03
            6263            6237     24.1183E-03     25.7362E-03
            6263            6238     26.5461E-03     26.9328E-03
            6263            6254     17.4858E-03     17.8143E-03
            6263            6255     18.5730E-03     18.9148E-03
            6264            6238     26.5461E-03     26.9328E-03
            6264            6239     29.2898E-03     29.2403E-03
            6264            6255     18.5730E-03     18.9148E-03
            6264            6256     20.4766E-03     21.0720E-03
            6265            6239     29.2898E-03     29.2403E-03
            6265            6240     32.4530E-03     32.2130E-03
            6265            6256     20.4766E-03     21.0720E-03
            6265            6257     22.8639E-03     23.6163E-03
            6266            6240     32.4530E-03     32.2130E-03
            6266            6241     35.9878E-03     35.6432E-03
            6266            6257     22.8639E-03     23.6163E-03
            6266            6258     25.6267E-03     26.4937E-03
            6267            6241     35.9878E-03     35.6432E-03
            6267            6242     39.7899E-03     39.3748E-03
            6267            6258     25.6267E-03     26.4937E-03
            6267            6259     28.5907E-03     29.5037E-03
            6268            6242     39.7899E-03     39.3748E-03
            6268            6243     43.7716E-03     43.2758E-03
            6268            6259     28.5907E-03     29.5037E-03
            6268            6260     31.7090E-03     32.6260E-03
            6269            6243     43.7716E-03     43.2758E-03
            6269            6244     47.8374E-03     47.2422E-03
            6269            6260     31.7090E-03     32.6260E-03
            6269            6261     34.9064E-03     35.7791E-03
            6270            6244     47.8374E-03     47.2422E-03
            6270            6245     51.9032E-03     51.1816E-03
            6270            6261     34.9064E-03     35.7791E-03
            6270            6262     38.1535E-03     38.9505E-03
            6271            6245     51.9032E-03     51.1816E-03
            6271            6246     55.8705E-03     54.9922E-03
            6271            6262     38.1535E-03     38.9505E-03
            6271            6263     41.4394E-03     42.1056E-03
            6272            6246     55.8705E-03     54.9922E-03
            6272            6247     59.6512E-03     58.5810E-03
            6272            6263     41.4394E-03     42.1056E-03
            6272            6264     44.7373E-03     45.2597E-03
            6273            6247     59.6512E-03     58.5810E-03
            6273            6248     63.1023E-03     61.8231E-03
            6273            6264     44.7373E-03     45.2597E-03
            6273            6265     48.1271E-03     48.4321E-03
            6274            6248     63.1023E-03     61.8231E-03
            6274            6249     66.0900E-03     64.5789E-03
            6274            6265     48.1271E-03     48.4321E-03
            6274            6266     51.5853E-03     51.7270E-03
            6275            6249     66.0900E-03     64.5789E-03
            6275            6250     68.3395E-03     66.6534E-03
            6275            6266     51.5853E-03     51.7270E-03
            6275            6267     55.4020E-03     55.3470E-03
            6276            6250     68.3395E-03     66.6534E-03
            6276            6251     69.4016E-03     67.6976E-03
            6276            6267     55.4020E-03     55.3470E-03
            6276            6268     59.5410E-03     59.6007E-03
            6277            6251     69.4016E-03     67.6976E-03
            6277            6252     68.6325E-03     66.8241E-03
            6277            6268     59.5410E-03     59.6007E-03
            6277            6269     65.7927E-03     67.1761E-03
            6278             265     70.0034E-03     72.3935E-03
            6278             266     67.6831E-03     65.7354E-03
            6278            6252     68.6325E-03     66.8241E-03
            6278            6269     65.7927E-03     67.1761E-03
            6279             715     16.7652E-03     19.4700E-03
            6279             716     12.0899E-03     10.7915E-03
            6279            6253     17.0044E-03     18.6010E-03
            6279            6270     11.3249E-03     10.3853E-03
            6280            6253     17.0044E-03     18.6010E-03
            6280            6254     17.4858E-03     17.8143E-03
            6280            6270     11.3249E-03     10.3853E-03
            6280            6271     10.0884E-03     9.94126E-03
            6281            6254     17.4858E-03     17.8143E-03
            6281            6255     18.5730E-03     18.9148E-03
            6281            6271     10.0884E-03     9.94126E-03
            6281            6272     10.0489E-03     10.6910E-03
            6282            6255     18.5730E-03     18.9148E-03
            6282            6256     20.4766E-03     21.0720E-03
            6282            6272     10.0489E-03     10.6910E-03
            6282            6273     11.2588E-03     12.5267E-03
            6283            6256     20.4766E-03     21.0720E-03
            6283            6257     22.8639E-03     23.6163E-03
            6283            6273     11.2588E-03     12.5267E-03
            6283            6274     13.0579E-03     14.7518E-03
            6284            6257     22.8639E-03     23.6163E-03
            6284            6258     25.6267E-03     26.4937E-03
            6284            6274     13.0579E-03     14.7518E-03
            6284            6275     15.2322E-03     17.1924E-03
            6285            6258     25.6267E-03     26.4937E-03
            6285            6259     28.5907E-03     29.5037E-03
            6285            6275     15.2322E-03     17.1924E-03
            6285            6276     17.6054E-03     19.7342E-03
            6286            6259     28.5907E-03     29.5037E-03
            6286            6260     31.7090E-03     32.6260E-03
            6286            6276     17.6054E-03     19.7342E-03
            6286            6277     20.1201E-03     22.3529E-03
            6287            6260     31.7090E-03     32.6260E-03
            6287            6261     34.9064E-03     35.7791E-03
            6287            6277     20.1201E-03     22.3529E-03
            6287            6278     22.7465E-03     25.0330E-03
            6288            6261     34.9064E-03     35.7791E-03
            6288            6262     38.1535E-03     38.9505E-03
            6288            6278     22.7465E-03     25.0330E-03
            6288            6279     25.5072E-03     27.8191E-03
            6289            6262     38.1535E-03     38.9505E-03
            6289            6263     41.4394E-03     42.1056E-03
            6289            6279     25.5072E-03     27.8191E-03
            6289            6280     28.4298E-03     30.7364E-03
            6290            6263     41.4394E-03     42.1056E-03
            6290            6264     44.7373E-03     45.2597E-03
            6290            6280     28.4298E-03     30.7364E-03
            6290            6281     31.6482E-03     33.9361E-03
            6291            6264     44.7373E-03     45.2597E-03
            6291            6265     48.1271E-03     48.4321E-03
            6291            6281     31.6482E-03     33.9361E-03
            6291            6282     35.2617E-03     37.5294E-03
            6292            6265     48.1271E-03     48.4321E-03
            6292            6266     51.5853E-03     51.7270E-03
            6292            6282     35.2617E-03     37.5294E-03
            6292            6283     39.6987E-03     41.9541E-03
            6293            6266     51.5853E-03     51.7270E-03
            6293            6267     55.4020E-03     55.3470E-03
            6293            6283     39.6987E-03     41.9541E-03
            6293            6284     45.2070E-03     47.5520E-03
            6294            6267     55.4020E-03     55.3470E-03
            6294            6268     59.5410E-03     59.6007E-03
            6294            6284     45.2070E-03     47.5520E-03
            6294            6285     53.4768E-03     55.9592E-03
            6295            6268     59.5410E-03     59.6007E-03
            6295            6269     65.7927E-03     67.1761E-03
            6295            6285     53.4768E-03     55.9592E-03
            6295            6286     66.9959E-03     69.0231E-03
            6296             264     75.2053E-03     76.7174E-03
            6296             265     70.0034E-03     72.3935E-03
            6296            6269     65.7927E-03     67.1761E-03
            6296            6286     66.9959E-03     69.0231E-03
            6297             716     12.0899E-03     10.7915E-03
            6297             717     11.0975E-03     9.91642E-03
            6297            6270     11.3249E-03     10.3853E-03
            6297            6287     11.1130E-03     10.2032E-03
            6298            6270     11.3249E-03     10.3853E-03
            6298            6271     10.0884E-03     9.94126E-03
            6298            6287     11.1130E-03     10.2032E-03
            6298            6288     11.2128E-03     10.9187E-03
            6299            6271     10.0884E-03     9.94126E-03
            6299            6272     10.0489E-03     10.6910E-03
            6299            6288     11.2128E-03     10.9187E-03
            6299            6289     11.6890E-03     12.0320E-03
            6300            6272     10.0489E-03     10.6910E-03
            6300            6273     11.2588E-03     12.5267E-03
            6300            6289     11.6890E-03     12.0320E-03
            6300            6290     12.8728E-03     13.7343E-03
            6301            6273     11.2588E-03     12.5267E-03
            6301            6274     13.0579E-03     14.7518E-03
            6301            6290     12.8728E-03     13.7343E-03
            6301            6291     14.6293E-03     15.8770E-03
            6302            6274     13.0579E-03     14.7518E-03
            6302            6275     15.2322E-03     17.1924E-03
            6302            6291     14.6293E-03     15.8770E-03
            6302            6292     16.6993E-03     18.2103E-03
            6303            6275     15.2322E-03     17.1924E-03
            6303            6276     17.6054E-03     19.7342E-03
            6303            6292     16.6993E-03     18.2103E-03
            6303            6293     19.0047E-03     20.6917E-03
            6304            6276     17.6054E-03     19.7342E-03
            6304            6277     20.1201E-03     22.3529E-03
            6304            6293     19.0047E-03     20.6917E-03
            6304            6294     21.4602E-03     23.2658E-03
            6305            6277     20.1201E-03     22.3529E-03
            6305            6278     22.7465E-03     25.0330E-03
            6305            6294     21.4602E-03     23.2658E-03
            6305            6295     24.0573E-03     25.9415E-03
            6306            6278     22.7465E-03     25.0330E-03
            6306            6279     25.5072E-03     27.8191E-03
            6306            6295     24.0573E-03     25.9415E-03
            6306            6296     26.7799E-03     28.7200E-03
            6307            6279     25.5072E-03     27.8191E-03
            6307            6280     28.4298E-03     30.7364E-03
            6307            6296     26.7799E-03     28.7200E-03
            6307            6297     29.6985E-03     31.6654E-03
            6308            6280     28.4298E-03     30.7364E-03
            6308            6281     31.6482E-03     33.9361E-03
            6308            6297     29.6985E-03     31.6654E-03
            6308            6298     32.8591E-03     34.8507E-03
            6309            6281     31.6482E-03     33.9361E-03
            6309            6282     35.2617E-03     37.5294E-03
            6309            6298     32.8591E-03     34.8507E-03
            6309            6299     36.5054E-03     38.4607E-03
            6310            6282     35.2617E-03     37.5294E-03
            6310            6283     39.6987E-03     41.9541E-03
            6310            6299     36.5054E-03     38.4607E-03
            6310            6300     40.8499E-03     42.7773E-03
            6311            6283     39.6987E-03     41.9541E-03
            6311            6284     45.2070E-03     47.5520E-03
            6311            6300     40.8499E-03     42.7773E-03
            6311            6301     46.5201E-03     48.2472E-03
            6312            6284     45.2070E-03     47.5520E-03
            6312            6285     53.4768E-03     55.9592E-03
            6312            6301     46.5201E-03     48.2472E-03
            6312            6302     55.0301E-03     56.0461E-03
            6313            6285     53.4768E-03     55.9592E-03
            6313            6286     66.9959E-03     69.0231E-03
            6313            6302     55.0301E-03     56.0461E-03
            6313            6303     64.7307E-03     64.8497E-03
            6314             263     69.2701E-03     68.9741E-03
            6314             264     75.2053E-03     76.7174E-03
            6314            6286     66.9959E-03     69.0231E-03
            6314            6303     64.7307E-03     64.8497E-03
            6315             717     11.0975E-03     9.91642E-03
            6315             718     11.3686E-03     10.0003E-03
            6315            6287     11.1130E-03     10.2032E-03
            6315            6304     11.4728E-03     10.3359E-03
            6316            6287     11.1130E-03     10.2032E-03
            6316            6288     11.2128E-03     10.9187E-03
            6316            6304     11.4728E-03     10.3359E-03
            6316            6305     11.9723E-03     11.4141E-03
            6317            6288     11.2128E-03     10.9187E-03
            6317            6289     11.6890E-03     12.0320E-03
            6317            6305     11.9723E-03     11.4141E-03
            6317            6306     12.9442E-03     13.0060E-03
            6318            6289     11.6890E-03     12.0320E-03
            6318            6290     12.8728E-03     13.7343E-03
            6318            6306     12.9442E-03     13.0060E-03
            6318            6307     14.2846E-03     14.8229E-03
            6319            6290     12.8728E-03     13.7343E-03
            6319            6291     14.6293E-03     15.8770E-03
            6319            6307     14.2846E-03     14.8229E-03
            6319            6308     16.0114E-03     16.9003E-03
            6320            6291     14.6293E-03     15.8770E-03
            6320            6292     16.6993E-03     18.2103E-03
            6320            6308     16.0114E-03     16.9003E-03
            6320            6309     18.0526E-03     19.1859E-03
            6321            6292     16.6993E-03     18.2103E-03
            6321            6293     19.0047E-03     20.6917E-03
            6321            6309     18.0526E-03     19.1859E-03
            6321            6310     20.3060E-03     21.6072E-03
            6322            6293     19.0047E-03     20.6917E-03
            6322            6294     21.4602E-03     23.2658E-03
            6322            6310     20.3060E-03     21.6072E-03
            6322            6311     22.7421E-03     24.1600E-03
            6323            6294     21.4602E-03     23.2658E-03
            6323            6295     24.0573E-03     25.9415E-03
            6323            6311     22.7421E-03     24.1600E-03
            6323            6312     25.3125E-03     26.8221E-03
            6324            6295     24.0573E-03     25.9415E-03
            6324            6296     26.7799E-03     28.7200E-03
            6324            6312     25.3125E-03     26.8221E-03
            6324            6313     28.0337E-03     29.6076E-03
            6325            6296     26.7799E-03     28.7200E-03
            6325            6297     29.6985E-03     31.6654E-03
            6325            6313     28.0337E-03     29.6076E-03
            6325            6314     30.9028E-03     32.5412E-03
            6326            6297     29.6985E-03     31.6654E-03
            6326            6298     32.8591E-03     34.8507E-03
            6326            6314     30.9028E-03     32.5412E-03
            6326            6315     34.0184E-03     35.6749E-03
            6327            6298     32.8591E-03     34.8507E-03
            6327            6299     36.5054E-03     38.4607E-03
            6327            6315     34.0184E-03     35.6749E-03
            6327            6316     37.4927E-03     39.1532E-03
            6328            6299     36.5054E-03     38.4607E-03
            6328            6300     40.8499E-03     42.7773E-03
            6328            6316     37.4927E-03     39.1532E-03
            6328            6317     41.5467E-03     43.1059E-03
            6329            6300     40.8499E-03     42.7773E-03
            6329            6301     46.5201E-03     48.2472E-03
            6329            6317     41.5467E-03     43.1059E-03
            6329            6318     46.8508E-03     48.0418E-03
            6330            6301     46.5201E-03     48.2472E-03
            6330            6302     55.0301E-03     56.0461E-03
            6330            6318     46.8508E-03     48.0418E-03
            6330            6319     53.0406E-03     53.9351E-03
            6331            6302     55.0301E-03     56.0461E-03
            6331            6303     64.7307E-03     64.8497E-03
            6331            6319     53.0406E-03     53.9351E-03
            6331            6320     59.3396E-03     60.4593E-03
            6332             262     62.5145E-03     63.9207E-03
            6332             263     69.2701E-03     68.9741E-03
            6332            6303     64.7307E-03     64.8497E-03
            6332            6320     59.3396E-03     60.4593E-03
            6333             718     11.3686E-03     10.0003E-03
            6333             719     11.9493E-03     10.6423E-03
            6333            6304     11.4728E-03     10.3359E-03
            6333            6321     12.1956E-03     11.0947E-03
            6334            6304     11.4728E-03     10.3359E-03
            6334            6305     11.9723E-03     11.4141E-03
            6334            6321     12.1956E-03     11.0947E-03
            6334            6322     12.8979E-03     12.2484E-03
            6335            6305     11.9723E-03     11.4141E-03
            6335            6306     12.9442E-03     13.0060E-03
            6335            6322     12.8979E-03     12.2484E-03
            6335            6323     14.0207E-03     13.8757E-03
            6336            6306     12.9442E-03     13.0060E-03
            6336            6307     14.2846E-03     14.8229E-03
            6336            6323     14.0207E-03     13.8757E-03
            6336            6324     15.4891E-03     15.7901E-03
            6337            6307     14.2846E-03     14.8229E-03
            6337            6308     16.0114E-03     16.9003E-03
            6337            6324     15.4891E-03     15.7901E-03
            6337            6325     17.2287E-03     17.8367E-03
            6338            6308     16.0114E-03     16.9003E-03
            6338            6309     18.0526E-03     19.1859E-03
            6338            6325     17.2287E-03     17.8367E-03
            6338            6326     19.2336E-03     20.0490E-03
            6339            6309     18.0526E-03     19.1859E-03
            6339            6310     20.3060E-03     21.6072E-03
            6339            6326     19.2336E-03     20.0490E-03
            6339            6327     21.4644E-03     22.4203E-03
            6340            6310     20.3060E-03     21.6072E-03
            6340            6311     22.7421E-03     24.1600E-03
            6340            6327     21.4644E-03     22.4203E-03
            6340            6328     23.8690E-03     24.9280E-03
            6341            6311     22.7421E-03     24.1600E-03
            6341            6312     25.3125E-03     26.8221E-03
            6341            6328     23.8690E-03     24.9280E-03
            6341            6329     26.4281E-03     27.5675E-03
            6342            6312     25.3125E-03     26.8221E-03
            6342            6313     28.0337E-03     29.6076E-03
            6342            6329     26.4281E-03     27.5675E-03
            6342            6330     29.1087E-03     30.3280E-03
            6343            6313     28.0337E-03     29.6076E-03
            6343            6314     30.9028E-03     32.5412E-03
            6343            6330     29.1087E-03     30.3280E-03
            6343            6331     31.9151E-03     33.1990E-03
            6344            6314     30.9028E-03     32.5412E-03
            6344            6315     34.0184E-03     35.6749E-03
            6344            6331     31.9151E-03     33.1990E-03
            6344            6332     34.8679E-03     36.2107E-03
            6345            6315     34.0184E-03     35.6749E-03
            6345            6316     37.4927E-03     39.1532E-03
            6345            6332     34.8679E-03     36.2107E-03
            6345            6333     37.9916E-03     39.3598E-03
            6346            6316     37.4927E-03     39.1532E-03
            6346            6317     41.5467E-03     43.1059E-03
            6346            6333     37.9916E-03     39.3598E-03
            6346            6334     41.5326E-03     42.7914E-03
            6347            6317     41.5467E-03     43.1059E-03
            6347            6318     46.8508E-03     48.0418E-03
            6347            6334     41.5326E-03     42.7914E-03
            6347            6335     45.3971E-03     46.5524E-03
            6348            6318     46.8508E-03     48.0418E-03
            6348            6319     53.0406E-03     53.9351E-03
            6348            6335     45.3971E-03     46.5524E-03
            6348            6336     49.6068E-03     50.6432E-03
            6349            6319     53.0406E-03     53.9351E-03
            6349            6320     59.3396E-03     60.4593E-03
            6349            6336     49.6068E-03     50.6432E-03
            6349            6337     54.5530E-03     55.1364E-03
            6350             261     57.2282E-03     57.4652E-03
            6350             262     62.5145E-03     63.9207E-03
            6350            6320     59.3396E-03     60.4593E-03
            6350            6337     54.5530E-03     55.1364E-03
            6351             719     11.9493E-03     10.6423E-03
            6351             720     12.7217E-03     11.5188E-03
            6351            6321     12.1956E-03     11.0947E-03
            6351            6338     13.0552E-03     12.0153E-03
            6352            6321     12.1956E-03     11.0947E-03
            6352            6322     12.8979E-03     12.2484E-03
            6352            6338     13.0552E-03     12.0153E-03
            6352            6339     13.9216E-03     13.2861E-03
            6353            6322     12.8979E-03     12.2484E-03
            6353            6323     14.0207E-03     13.8757E-03
            6353            6339     13.9216E-03     13.2861E-03
            6353            6340     15.1041E-03     14.9107E-03
            6354            6323     14.0207E-03     13.8757E-03
            6354            6324     15.4891E-03     15.7901E-03
            6354            6340     15.1041E-03     14.9107E-03
            6354            6341     16.5570E-03     16.7104E-03
            6355            6324     15.4891E-03     15.7901E-03
            6355            6325     17.2287E-03     17.8367E-03
            6355            6341     16.5570E-03     16.7104E-03
            6355            6342     18.2837E-03     18.6813E-03
            6356            6325     17.2287E-03     17.8367E-03
            6356            6326     19.2336E-03     20.0490E-03
            6356            6342     18.2837E-03     18.6813E-03
            6356            6343     20.2453E-03     20.7917E-03
            6357            6326     19.2336E-03     20.0490E-03
            6357            6327     21.4644E-03     22.4203E-03
            6357            6343     20.2453E-03     20.7917E-03
            6357            6344     22.4291E-03     23.0671E-03
            6358            6327     21.4644E-03     22.4203E-03
            6358            6328     23.8690E-03     24.9280E-03
            6358            6344     22.4291E-03     23.0671E-03
            6358            6345     24.7973E-03     25.5049E-03
            6359            6328     23.8690E-03     24.9280E-03
            6359            6329     26.4281E-03     27.5675E-03
            6359            6345     24.7973E-03     25.5049E-03
            6359            6346     27.3074E-03     28.0824E-03
            6360            6329     26.4281E-03     27.5675E-03
            6360            6330     29.1087E-03     30.3280E-03
            6360            6346     27.3074E-03     28.0824E-03
            6360            6347     29.9222E-03     30.7658E-03
            6361            6330     29.1087E-03     30.3280E-03
            6361            6331     31.9151E-03     33.1990E-03
            6361            6347     29.9222E-03     30.7658E-03
            6361            6348     32.6110E-03     33.5319E-03
            6362            6331     31.9151E-03     33.1990E-03
            6362            6332     34.8679E-03     36.2107E-03
            6362            6348     32.6110E-03     33.5319E-03
            6362            6349     35.3012E-03     36.3135E-03
            6363            6332     34.8679E-03     36.2107E-03
            6363            6333     37.9916E-03     39.3598E-03
            6363            6349     35.3012E-03     36.3135E-03
            6363            6350     38.0131E-03     39.0781E-03
            6364            6333     37.9916E-03     39.3598E-03
            6364            6334     41.5326E-03     42.7914E-03
            6364            6350     38.0131E-03     39.0781E-03
            6364            6351     40.6299E-03     41.7556E-03
            6365            6334     41.5326E-03     42.7914E-03
            6365            6335     45.3971E-03     46.5524E-03
            6365            6351     40.6299E-03     41.7556E-03
            6365            6352     43.2188E-03     44.2997E-03
            6366            6335     45.3971E-03     46.5524E-03
            6366            6336     49.6068E-03     50.6432E-03
            6366            6352     43.2188E-03     44.2997E-03
            6366            6353     46.0818E-03     46.8932E-03
            6367            6336     49.6068E-03     50.6432E-03
            6367            6337     54.5530E-03     55.1364E-03
            6367            6353     46.0818E-03     46.8932E-03
            6367            6354     49.5090E-03     50.1793E-03
            6368             260     51.4279E-03     52.1302E-03
            6368             261     57.2282E-03     57.4652E-03
            6368            6337     54.5530E-03     55.1364E-03
            6368            6354     49.5090E-03     50.1793E-03
            6369             720     12.7217E-03     11.5188E-03
            6369             721     13.6094E-03     12.4458E-03
            6369            6338     13.0552E-03     12.0153E-03
            6369            6355     14.0405E-03     13.1011E-03
            6370            6338     13.0552E-03     12.0153E-03
            6370            6339     13.9216E-03     13.2861E-03
            6370            6355     14.0405E-03     13.1011E-03
            6370            6356     14.9866E-03     14.4787E-03
            6371            6339     13.9216E-03     13.2861E-03
            6371            6340     15.1041E-03     14.9107E-03
            6371            6356     14.9866E-03     14.4787E-03
            6371            6357     16.1572E-03     16.0067E-03
            6372            6340     15.1041E-03     14.9107E-03
            6372            6341     16.5570E-03     16.7104E-03
            6372            6357     16.1572E-03     16.0067E-03
            6372            6358     17.5640E-03     17.6719E-03
            6373            6341     16.5570E-03     16.7104E-03
            6373            6342     18.2837E-03     18.6813E-03
            6373            6358     17.5640E-03     17.6719E-03
            6373            6359     19.2007E-03     19.4519E-03
            6374            6342     18.2837E-03     18.6813E-03
            6374            6343     20.2453E-03     20.7917E-03
            6374            6359     19.2007E-03     19.4519E-03
            6374            6360     21.0964E-03     21.3984E-03
            6375            6343     20.2453E-03     20.7917E-03
            6375            6344     22.4291E-03     23.0671E-03
            6375            6360     21.0964E-03     21.3984E-03
            6375            6361     23.2056E-03     23.5364E-03
            6376            6344     22.4291E-03     23.0671E-03
            6376            6345     24.7973E-03     25.5049E-03
            6376            6361     23.2056E-03     23.5364E-03
            6376            6362     25.4938E-03     25.8531E-03
            6377            6345     24.7973E-03     25.5049E-03
            6377            6346     27.3074E-03     28.0824E-03
            6377            6362     25.4938E-03     25.8531E-03
            6377            6363     27.9141E-03     28.3107E-03
            6378            6346     27.3074E-03     28.0824E-03
            6378            6347     29.9222E-03     30.7658E-03
            6378            6363     27.9141E-03     28.3107E-03
            6378            6364     30.4216E-03     30.8694E-03
            6379            6347     29.9222E-03     30.7658E-03
            6379            6348     32.6110E-03     33.5319E-03
            6379            6364     30.4216E-03     30.8694E-03
            6379            6365     32.9225E-03     33.4514E-03
            6380            6348     32.6110E-03     33.5319E-03
            6380            6349     35.3012E-03     36.3135E-03
            6380            6365     32.9225E-03     33.4514E-03
            6380            6366     35.3598E-03     35.9764E-03
            6381            6349     35.3012E-03     36.3135E-03
            6381            6350     38.0131E-03     39.0781E-03
            6381            6366     35.3598E-03     35.9764E-03
            6381            6367     37.5313E-03     38.3005E-03
            6382            6350     38.0131E-03     39.0781E-03
            6382            6351     40.6299E-03     41.7556E-03
            6382            6367     37.5313E-03     38.3005E-03
            6382            6368     39.3364E-03     40.2320E-03
            6383            6351     40.6299E-03     41.7556E-03
            6383            6352     43.2188E-03     44.2997E-03
            6383            6368     39.3364E-03     40.2320E-03
            6383            6369     40.8123E-03     41.7268E-03
            6384            6352     43.2188E-03     44.2997E-03
            6384            6353     46.0818E-03     46.8932E-03
            6384            6369     40.8123E-03     41.7268E-03
            6384            6370     42.2379E-03     43.0743E-03
            6385            6353     46.0818E-03     46.8932E-03
            6385            6354     49.5090E-03     50.1793E-03
            6385            6370     42.2379E-03     43.0743E-03
            6385            6371     44.6063E-03     45.0410E-03
            6386             259     46.1784E-03     46.2989E-03
            6386             260     51.4279E-03     52.1302E-03
            6386            6354     49.5090E-03     50.1793E-03
            6386            6371     44.6063E-03     45.0410E-03
            6387             721     13.6094E-03     12.4458E-03
            6387             722     14.5858E-03     13.7810E-03
            6387            6355     14.0405E-03     13.1011E-03
            6387            6372     15.0547E-03     14.4119E-03
            6388            6355     14.0405E-03     13.1011E-03
            6388            6356     14.9866E-03     14.4787E-03
            6388            6372     15.0547E-03     14.4119E-03
            6388            6373     16.0785E-03     15.7638E-03
            6389            6356     14.9866E-03     14.4787E-03
            6389            6357     16.1572E-03     16.0067E-03
            6389            6373     16.0785E-03     15.7638E-03
            6389            6374     17.2051E-03     17.2115E-03
            6390            6357     16.1572E-03     16.0067E-03
            6390            6358     17.5640E-03     17.6719E-03
            6390            6374     17.2051E-03     17.2115E-03
            6390            6375     18.4846E-03     18.6422E-03
            6391            6358     17.5640E-03     17.6719E-03
            6391            6359     19.2007E-03     19.4519E-03
            6391            6375     18.4846E-03     18.6422E-03
            6391            6376     20.0398E-03     20.1561E-03
            6392            6359     19.2007E-03     19.4519E-03
            6392            6360     21.0964E-03     21.3984E-03
            6392            6376     20.0398E-03     20.1561E-03
            6392            6377     21.8284E-03     21.8903E-03
            6393            6360     21.0964E-03     21.3984E-03
            6393            6361     23.2056E-03     23.5364E-03
            6393            6377     21.8284E-03     21.8903E-03
            6393            6378     23.8189E-03     23.8442E-03
            6394            6361     23.2056E-03     23.5364E-03
            6394            6362     25.4938E-03     25.8531E-03
            6394            6378     23.8189E-03     23.8442E-03
            6394            6379     25.9749E-03     25.9797E-03
            6395            6362     25.4938E-03     25.8531E-03
            6395            6363     27.9141E-03     28.3107E-03
            6395            6379     25.9749E-03     25.9797E-03
            6395            6380     28.2530E-03     28.2588E-03
            6396            6363     27.9141E-03     28.3107E-03
            6396            6364     30.4216E-03     30.8694E-03
            6396            6380     28.2530E-03     28.2588E-03
            6396            6381     30.5771E-03     30.6092E-03
            6397            6364     30.4216E-03     30.8694E-03
            6397            6365     32.9225E-03     33.4514E-03
            6397            6381     30.5771E-03     30.6092E-03
            6397            6382     32.8811E-03     32.9575E-03
            6398            6365     32.9225E-03     33.4514E-03
            6398            6366     35.3598E-03     35.9764E-03
            6398            6382     32.8811E-03     32.9575E-03
            6398            6383     34.9916E-03     35.1714E-03
            6399            6366     35.3598E-03     35.9764E-03
            6399            6367     37.5313E-03     38.3005E-03
            6399            6383     34.9916E-03     35.1714E-03
            6399            6384     36.7591E-03     37.0752E-03
            6400            6367     37.5313E-03     38.3005E-03
            6400            6368     39.3364E-03     40.2320E-03
            6400            6384     36.7591E-03     37.0752E-03
            6400            6385     37.8849E-03     38.4209E-03
            6401            6368     39.3364E-03     40.2320E-03
            6401            6369     40.8123E-03     41.7268E-03
            6401            6385     37.8849E-03     38.4209E-03
            6401            6386     38.2299E-03     38.9887E-03
            6402            6369     40.8123E-03     41.7268E-03
            6402            6370     42.2379E-03     43.0743E-03
            6402            6386     38.2299E-03     38.9887E-03
            6402            6387     38.3831E-03     39.0477E-03
            6403            6370     42.2379E-03     43.0743E-03
            6403            6371     44.6063E-03     45.0410E-03
            6403            6387     38.3831E-03     39.0477E-03
            6403            6388     39.4159E-03     39.7965E-03
            6404             258     40.3232E-03     40.5690E-03
            6404             259     46.1784E-03     46.2989E-03
            6404            6371     44.6063E-03     45.0410E-03
            6404            6388     39.4159E-03     39.7965E-03
            6405             722     14.5858E-03     13.7810E-03
            6405             723     15.5629E-03     14.8856E-03
            6405            6372     15.0547E-03     14.4119E-03
            6405            6389     16.1776E-03     15.7343E-03
            6406            6372     15.0547E-03     14.4119E-03
            6406            6373     16.0785E-03     15.7638E-03
            6406            6389     16.1776E-03     15.7343E-03
            6406            6390     17.2030E-03     17.3132E-03
            6407            6373     16.0785E-03     15.7638E-03
            6407            6374     17.2051E-03     17.2115E-03
            6407            6390     17.2030E-03     17.3132E-03
            6407            6391     18.1571E-03     18.5200E-03
            6408            6374     17.2051E-03     17.2115E-03
            6408            6375     18.4846E-03     18.6422E-03
            6408            6391     18.1571E-03     18.5200E-03
            6408            6392     19.3966E-03     19.5519E-03
            6409            6375     18.4846E-03     18.6422E-03
            6409            6376     20.0398E-03     20.1561E-03
            6409            6392     19.3966E-03     19.5519E-03
            6409            6393     20.8616E-03     20.8104E-03
            6410            6376     20.0398E-03     20.1561E-03
            6410            6377     21.8284E-03     21.8903E-03
            6410            6393     20.8616E-03     20.8104E-03
            6410            6394     22.5091E-03     22.3232E-03
            6411            6377     21.8284E-03     21.8903E-03
            6411            6378     23.8189E-03     23.8442E-03
            6411            6394     22.5091E-03     22.3232E-03
            6411            6395     24.3339E-03     24.0486E-03
            6412            6378     23.8189E-03     23.8442E-03
            6412            6379     25.9749E-03     25.9797E-03
            6412            6395     24.3339E-03     24.0486E-03
            6412            6396     26.3003E-03     25.9540E-03
            6413            6379     25.9749E-03     25.9797E-03
            6413            6380     28.2530E-03     28.2588E-03
            6413            6396     26.3003E-03     25.9540E-03
            6413            6397     28.3554E-03     27.9709E-03
            6414            6380     28.2530E-03     28.2588E-03
            6414            6381     30.5771E-03     30.6092E-03
            6414            6397     28.3554E-03     27.9709E-03
            6414            6398     30.4461E-03     30.0386E-03
            6415            6381     30.5771E-03     30.6092E-03
            6415            6382     32.8811E-03     32.9575E-03
            6415            6398     30.4461E-03     30.0386E-03
            6415            6399     32.4581E-03     32.0604E-03
            6416            6382     32.8811E-03     32.9575E-03
            6416            6383     34.9916E-03     35.1714E-03
            6416            6399     32.4581E-03     32.0604E-03
            6416            6400     34.2764E-03     33.9121E-03
            6417            6383     34.9916E-03     35.1714E-03
            6417            6384     36.7591E-03     37.0752E-03
            6417            6400     34.2764E-03     33.9121E-03
            6417            6401     35.6565E-03     35.4000E-03
            6418            6384     36.7591E-03     37.0752E-03
            6418            6385     37.8849E-03     38.4209E-03
            6418            6401     35.6565E-03     35.4000E-03
            6418            6402     36.3395E-03     36.2745E-03
            6419            6385     37.8849E-03     38.4209E-03
            6419            6386     38.2299E-03     38.9887E-03
            6419            6402     36.3395E-03     36.2745E-03
            6419            6403     35.8547E-03     36.1259E-03
            6420            6386     38.2299E-03     38.9887E-03
            6420            6387     38.3831E-03     39.0477E-03
            6420            6403     35.8547E-03     36.1259E-03
            6420            6404     34.3542E-03     34.9172E-03
            6421            6387     38.3831E-03     39.0477E-03
            6421            6388     39.4159E-03     39.7965E-03
            6421            6404     34.3542E-03     34.9172E-03
            6421            6405     34.0113E-03     34.1746E-03
            6422             257     34.5189E-03     34.2348E-03
            6422             258     40.3232E-03     40.5690E-03
            6422            6388     39.4159E-03     39.7965E-03
            6422            6405     34.0113E-03     34.1746E-03
            6423             723     15.5629E-03     14.8856E-03
            6423             724     16.9587E-03     16.8550E-03
            6423            6389     16.1776E-03     15.7343E-03
            6423            6406     17.2874E-03     17.8178E-03
            6424            6389     16.1776E-03     15.7343E-03
            6424            6390     17.2030E-03     17.3132E-03
            6424            6406     17.2874E-03     17.8178E-03
            6424            6407     18.0822E-03     19.0756E-03
            6425            6390     17.2030E-03     17.3132E-03
            6425            6391     18.1571E-03     18.5200E-03
            6425            6407     18.0822E-03     19.0756E-03
            6425            6408     19.1623E-03     19.6412E-03
            6426            6391     18.1571E-03     18.5200E-03
            6426            6392     19.3966E-03     19.5519E-03
            6426            6408     19.1623E-03     19.6412E-03
            6426            6409     20.4094E-03     20.4056E-03
            6427            6392     19.3966E-03     19.5519E-03
            6427            6393     20.8616E-03     20.8104E-03
            6427            6409     20.4094E-03     20.4056E-03
            6427            6410     21.7503E-03     21.4866E-03
            6428            6393     20.8616E-03     20.8104E-03
            6428            6394     22.5091E-03     22.3232E-03
            6428            6410     21.7503E-03     21.4866E-03
            6428            6411     23.2369E-03     22.7837E-03
            6429            6394     22.5091E-03     22.3232E-03
            6429            6395     24.3339E-03     24.0486E-03
            6429            6411     23.2369E-03     22.7837E-03
            6429            6412     24.8536E-03     24.2756E-03
            6430            6395     24.3339E-03     24.0486E-03
            6430            6396     26.3003E-03     25.9540E-03
            6430            6412     24.8536E-03     24.2756E-03
            6430            6413     26.5654E-03     25.8909E-03
            6431            6396     26.3003E-03     25.9540E-03
            6431            6397     28.3554E-03     27.9709E-03
            6431            6413     26.5654E-03     25.8909E-03
            6431            6414     28.3357E-03     27.5785E-03
            6432            6397     28.3554E-03     27.9709E-03
            6432            6398     30.4461E-03     30.0386E-03
            6432            6414     28.3357E-03     27.5785E-03
            6432            6415     30.0906E-03     29.2645E-03
            6433            6398     30.4461E-03     30.0386E-03
            6433            6399     32.4581E-03     32.0604E-03
            6433            6415     30.0906E-03     29.2645E-03
            6433            6416     31.7524E-03     30.8599E-03
            6434            6399     32.4581E-03     32.0604E-03
            6434            6400     34.2764E-03     33.9121E-03
            6434            6416     31.7524E-03     30.8599E-03
            6434            6417     33.1861E-03     32.2455E-03
            6435            6400     34.2764E-03     33.9121E-03
            6435            6401     35.6565E-03     35.4000E-03
            6435            6417     33.1861E-03     32.2455E-03
            6435            6418     34.2076E-03     33.2505E-03
            6436            6401     35.6565E-03     35.4000E-03
            6436            6402     36.3395E-03     36.2745E-03
            6436            6418     34.2076E-03     33.2505E-03
            6436            6419     34.5234E-03     33.6104E-03
            6437            6402     36.3395E-03     36.2745E-03
            6437            6403     35.8547E-03     36.1259E-03
            6437            6419     34.5234E-03     33.6104E-03
            6437            6420     33.7135E-03     33.0001E-03
            6438            6403     35.8547E-03     36.1259E-03
            6438            6404     34.3542E-03     34.9172E-03
            6438            6420     33.7135E-03     33.0001E-03
            6438            6421     30.8874E-03     30.6686E-03
            6439            6404     34.3542E-03     34.9172E-03
            6439            6405     34.0113E-03     34.1746E-03
            6439            6421     30.8874E-03     30.6686E-03
            6439            6422     28.1572E-03     28.1740E-03
            6440             256     27.5188E-03     27.4237E-03
            6440             257     34.5189E-03     34.2348E-03
            6440            6405     34.0113E-03     34.1746E-03
            6440            6422     28.1572E-03     28.1740E-03
            6441             724     16.9587E-03     16.8550E-03
            6441             725     17.2179E-03     19.5971E-03
            6441            6406     17.2874E-03     17.8178E-03
            6441            6423     17.9285E-03     19.8733E-03
            6442            6406     17.2874E-03     17.8178E-03
            6442            6407     18.0822E-03     19.0756E-03
            6442            6423     17.9285E-03     19.8733E-03
            6442            6424     19.2393E-03     20.1585E-03
            6443            6407     18.0822E-03     19.0756E-03
            6443            6408     19.1623E-03     19.6412E-03
            6443            6424     19.2393E-03     20.1585E-03
            6443            6425     20.4441E-03     20.5193E-03
            6444            6408     19.1623E-03     19.6412E-03
            6444            6409     20.4094E-03     20.4056E-03
            6444            6425     20.4441E-03     20.5193E-03
            6444            6426     21.6063E-03     21.3110E-03
            6445            6409     20.4094E-03     20.4056E-03
            6445            6410     21.7503E-03     21.4866E-03
            6445            6426     21.6063E-03     21.3110E-03
            6445            6427     22.8134E-03     22.2875E-03
            6446            6410     21.7503E-03     21.4866E-03
            6446            6411     23.2369E-03     22.7837E-03
            6446            6427     22.8134E-03     22.2875E-03
            6446            6428     24.1261E-03     23.4288E-03
            6447            6411     23.2369E-03     22.7837E-03
            6447            6412     24.8536E-03     24.2756E-03
            6447            6428     24.1261E-03     23.4288E-03
            6447            6429     25.5020E-03     24.6757E-03
            6448            6412     24.8536E-03     24.2756E-03
            6448            6413     26.5654E-03     25.8909E-03
            6448            6429     25.5020E-03     24.6757E-03
            6448            6430     26.9301E-03     25.9780E-03
            6449            6413     26.5654E-03     25.8909E-03
            6449            6414     28.3357E-03     27.5785E-03
            6449            6430     26.9301E-03     25.9780E-03
            6449            6431     28.3466E-03     27.2801E-03
            6450            6414     28.3357E-03     27.5785E-03
            6450            6415     30.0906E-03     29.2645E-03
            6450            6431     28.3466E-03     27.2801E-03
            6450            6432     29.6998E-03     28.5048E-03
            6451            6415     30.0906E-03     29.2645E-03
            6451            6416     31.7524E-03     30.8599E-03
            6451            6432     29.6998E-03     28.5048E-03
            6451            6433     30.9039E-03     29.5752E-03
            6452            6416     31.7524E-03     30.8599E-03
            6452            6417     33.1861E-03     32.2455E-03
            6452            6433     30.9039E-03     29.5752E-03
            6452            6434     31.8465E-03     30.3610E-03
            6453            6417     33.1861E-03     32.2455E-03
            6453            6418     34.2076E-03     33.2505E-03
            6453            6434     31.8465E-03     30.3610E-03
            6453            6435     32.3979E-03     30.7281E-03
            6454            6418     34.2076E-03     33.2505E-03
            6454            6419     34.5234E-03     33.6104E-03
            6454            6435     32.3979E-03     30.7281E-03
            6454            6436     32.2945E-03     30.4300E-03
            6455            6419     34.5234E-03     33.6104E-03
            6455            6420     33.7135E-03     33.0001E-03
            6455            6436     32.2945E-03     30.4300E-03
            6455            6437     31.2622E-03     29.1721E-03
            6456            6420     33.7135E-03     33.0001E-03
            6456            6421     30.8874E-03     30.6686E-03
            6456            6437     31.2622E-03     29.1721E-03
            6456            6438     28.4066E-03     26.2396E-03
            6457            6421     30.8874E-03     30.6686E-03
            6457            6422     28.1572E-03     28.1740E-03
            6457            6438     28.4066E-03     26.2396E-03
            6457            6439     23.2248E-03     21.4380E-03
            6458             255     20.1303E-03     18.6783E-03
            6458             256     27.5188E-03     27.4237E-03
            6458            6422     28.1572E-03     28.1740E-03
            6458            6439     23.2248E-03     21.4380E-03
            6459             725     17.2179E-03     19.5971E-03
            6459             726     14.6129E-03     16.1755E-03
            6459            6423     17.9285E-03     19.8733E-03
            6459            6440     15.5238E-03     16.5476E-03
            6460            6423     17.9285E-03     19.8733E-03
            6460            6424     19.2393E-03     20.1585E-03
            6460            6440     15.5238E-03     16.5476E-03
            6460            6441     16.6652E-03     16.8735E-03
            6461            6424     19.2393E-03     20.1585E-03
            6461            6425     20.4441E-03     20.5193E-03
            6461            6441     16.6652E-03     16.8735E-03
            6461            6442     17.2629E-03     17.2415E-03
            6462            6425     20.4441E-03     20.5193E-03
            6462            6426     21.6063E-03     21.3110E-03
            6462            6442     17.2629E-03     17.2415E-03
            6462            6443     17.8890E-03     17.8909E-03
            6463            6426     21.6063E-03     21.3110E-03
            6463            6427     22.8134E-03     22.2875E-03
            6463            6443     17.8890E-03     17.8909E-03
            6463            6444     18.4618E-03     18.4679E-03
            6464            6427     22.8134E-03     22.2875E-03
            6464            6428     24.1261E-03     23.4288E-03
            6464            6444     18.4618E-03     18.4679E-03
            6464            6445     19.0930E-03     19.1208E-03
            6465            6428     24.1261E-03     23.4288E-03
            6465            6429     25.5020E-03     24.6757E-03
            6465            6445     19.0930E-03     19.1208E-03
            6465            6446     19.7542E-03     19.8030E-03
            6466            6429     25.5020E-03     24.6757E-03
            6466            6430     26.9301E-03     25.9780E-03
            6466            6446     19.7542E-03     19.8030E-03
            6466            6447     20.4449E-03     20.5145E-03
            6467            6430     26.9301E-03     25.9780E-03
            6467            6431     28.3466E-03     27.2801E-03
            6467            6447     20.4449E-03     20.5145E-03
            6467            6448     21.1352E-03     21.2189E-03
            6468            6431     28.3466E-03     27.2801E-03
            6468            6432     29.6998E-03     28.5048E-03
            6468            6448     21.1352E-03     21.2189E-03
            6468            6449     21.8040E-03     21.8884E-03
            6469            6432     29.6998E-03     28.5048E-03
            6469            6433     30.9039E-03     29.5752E-03
            6469            6449     21.8040E-03     21.8884E-03
            6469            6450     22.3925E-03     22.4617E-03
            6470            6433     30.9039E-03     29.5752E-03
            6470            6434     31.8465E-03     30.3610E-03
            6470            6450     22.3925E-03     22.4617E-03
            6470            6451     22.8689E-03     22.8935E-03
            6471            6434     31.8465E-03     30.3610E-03
            6471            6435     32.3979E-03     30.7281E-03
            6471            6451     22.8689E-03     22.8935E-03
            6471            6452     23.0979E-03     23.0566E-03
            6472            6435     32.3979E-03     30.7281E-03
            6472            6436     32.2945E-03     30.4300E-03
            6472            6452     23.0979E-03     23.0566E-03
            6472            6453     23.0130E-03     22.8714E-03
            6473            6436     32.2945E-03     30.4300E-03
            6473            6437     31.2622E-03     29.1721E-03
            6473            6453     23.0130E-03     22.8714E-03
            6473            6454     22.3230E-03     22.1039E-03
            6474            6437     31.2622E-03     29.1721E-03
            6474            6438     28.4066E-03     26.2396E-03
            6474            6454     22.3230E-03     22.1039E-03
            6474            6455     21.4343E-03     21.1502E-03
            6475            6438     28.4066E-03     26.2396E-03
            6475            6439     23.2248E-03     21.4380E-03
            6475            6455     21.4343E-03     21.1502E-03
            6475            6456     21.4167E-03     21.8698E-03
            6476             254     21.6990E-03     22.9602E-03
            6476             255     20.1303E-03     18.6783E-03
            6476            6439     23.2248E-03     21.4380E-03
            6476            6456     21.4167E-03     21.8698E-03
            6477             726     14.6129E-03     16.1755E-03
            6477             727     12.3313E-03     12.0294E-03
            6477            6440     15.5238E-03     16.5476E-03
            6477            6457     12.9181E-03     12.7486E-03
            6478            6440     15.5238E-03     16.5476E-03
            6478            6441     16.6652E-03     16.8735E-03
            6478            6457     12.9181E-03     12.7486E-03
            6478            6458     13.5553E-03     13.5533E-03
            6479            6441     16.6652E-03     16.8735E-03
            6479            6442     17.2629E-03     17.2415E-03
            6479            6458     13.5553E-03     13.5533E-03
            6479            6459     13.7029E-03     13.8574E-03
            6480            6442     17.2629E-03     17.2415E-03
            6480            6443     17.8890E-03     17.8909E-03
            6480            6459     13.7029E-03     13.8574E-03
            6480            6460     13.7754E-03     14.1378E-03
            6481            6443     17.8890E-03     17.8909E-03
            6481            6444     18.4618E-03     18.4679E-03
            6481            6460     13.7754E-03     14.1378E-03
            6481            6461     13.7786E-03     14.2863E-03
            6482            6444     18.4618E-03     18.4679E-03
            6482            6445     19.0930E-03     19.1208E-03
            6482            6461     13.7786E-03     14.2863E-03
            6482            6462     13.8259E-03     14.4760E-03
            6483            6445     19.0930E-03     19.1208E-03
            6483            6446     19.7542E-03     19.8030E-03
            6483            6462     13.8259E-03     14.4760E-03
            6483            6463     13.9061E-03     14.6856E-03
            6484            6446     19.7542E-03     19.8030E-03
            6484            6447     20.4449E-03     20.5145E-03
            6484            6463     13.9061E-03     14.6856E-03
            6484            6464     14.0269E-03     14.9429E-03
            6485            6447     20.4449E-03     20.5145E-03
            6485            6448     21.1352E-03     21.2189E-03
            6485            6464     14.0269E-03     14.9429E-03
            6485            6465     14.1968E-03     15.2296E-03
            6486            6448     21.1352E-03     21.2189E-03
            6486            6449     21.8040E-03     21.8884E-03
            6486            6465     14.1968E-03     15.2296E-03
            6486            6466     14.4052E-03     15.5631E-03
            6487            6449     21.8040E-03     21.8884E-03
            6487            6450     22.3925E-03     22.4617E-03
            6487            6466     14.4052E-03     15.5631E-03
            6487            6467     14.6665E-03     15.9221E-03
            6488            6450     22.3925E-03     22.4617E-03
            6488            6451     22.8689E-03     22.8935E-03
            6488            6467     14.6665E-03     15.9221E-03
            6488            6468     14.9664E-03     16.3240E-03
            6489            6451     22.8689E-03     22.8935E-03
            6489            6452     23.0979E-03     23.0566E-03
            6489            6468     14.9664E-03     16.3240E-03
            6489            6469     15.2629E-03     16.7117E-03
            6490            6452     23.0979E-03     23.0566E-03
            6490            6453     23.0130E-03     22.8714E-03
            6490            6469     15.2629E-03     16.7117E-03
            6490            6470     15.5885E-03     17.1399E-03
            6491            6453     23.0130E-03     22.8714E-03
            6491            6454     22.3230E-03     22.1039E-03
            6491            6470     15.5885E-03     17.1399E-03
            6491            6471     15.5327E-03     17.3548E-03
            6492            6454     22.3230E-03     22.1039E-03
            6492            6455     21.4343E-03     21.1502E-03
            6492            6471     15.5327E-03     17.3548E-03
            6492            6472     16.3916E-03     18.2941E-03
            6493            6455     21.4343E-03     21.1502E-03
            6493            6456     21.4167E-03     21.8698E-03
            6493            6472     16.3916E-03     18.2941E-03
            6493            6473     20.5663E-03     22.4105E-03
            6494             253     23.6599E-03     25.5215E-03
            6494             254     21.6990E-03     22.9602E-03
            6494            6456     21.4167E-03     21.8698E-03
            6494            6473     20.5663E-03     22.4105E-03
            6495             727     12.3313E-03     12.0294E-03
            6495             728     12.3048E-03     10.8545E-03
            6495            6457     12.9181E-03     12.7486E-03
            6495            6474     13.1161E-03     12.1218E-03
            6496            6457     12.9181E-03     12.7486E-03
            6496            6458     13.5553E-03     13.5533E-03
            6496            6474     13.1161E-03     12.1218E-03
            6496            6475     14.1045E-03     13.9003E-03
            6497            6458     13.5553E-03     13.5533E-03
            6497            6459     13.7029E-03     13.8574E-03
            6497            6475     14.1045E-03     13.9003E-03
            6497            6476     14.2642E-03     14.3909E-03
            6498            6459     13.7029E-03     13.8574E-03
            6498            6460     13.7754E-03     14.1378E-03
            6498            6476     14.2642E-03     14.3909E-03
            6498            6477     14.2711E-03     14.4075E-03
            6499            6460     13.7754E-03     14.1378E-03
            6499            6461     13.7786E-03     14.2863E-03
            6499            6477     14.2711E-03     14.4075E-03
            6499            6478     14.3022E-03     14.4824E-03
            6500            6461     13.7786E-03     14.2863E-03
            6500            6462     13.8259E-03     14.4760E-03
            6500            6478     14.3022E-03     14.4824E-03
            6500            6479     14.3587E-03     14.5910E-03
            6501            6462     13.8259E-03     14.4760E-03
            6501            6463     13.9061E-03     14.6856E-03
            6501            6479     14.3587E-03     14.5910E-03
            6501            6480     14.4729E-03     14.7568E-03
            6502            6463     13.9061E-03     14.6856E-03
            6502            6464     14.0269E-03     14.9429E-03
            6502            6480     14.4729E-03     14.7568E-03
            6502            6481     14.6284E-03     14.9572E-03
            6503            6464     14.0269E-03     14.9429E-03
            6503            6465     14.1968E-03     15.2296E-03
            6503            6481     14.6284E-03     14.9572E-03
            6503            6482     14.8228E-03     15.2004E-03
            6504            6465     14.1968E-03     15.2296E-03
            6504            6466     14.4052E-03     15.5631E-03
            6504            6482     14.8228E-03     15.2004E-03
            6504            6483     15.0590E-03     15.4756E-03
            6505            6466     14.4052E-03     15.5631E-03
            6505            6467     14.6665E-03     15.9221E-03
            6505            6483     15.0590E-03     15.4756E-03
            6505            6484     15.3454E-03     15.8054E-03
            6506            6467     14.6665E-03     15.9221E-03
            6506            6468     14.9664E-03     16.3240E-03
            6506            6484     15.3454E-03     15.8054E-03
            6506            6485     15.6963E-03     16.1913E-03
            6507            6468     14.9664E-03     16.3240E-03
            6507            6469     15.2629E-03     16.7117E-03
            6507            6485     15.6963E-03     16.1913E-03
            6507            6486     16.1522E-03     16.6772E-03
            6508            6469     15.2629E-03     16.7117E-03
            6508            6470     15.5885E-03     17.1399E-03
            6508            6486     16.1522E-03     16.6772E-03
            6508            6487     16.6536E-03     17.2119E-03
            6509            6470     15.5885E-03     17.1399E-03
            6509            6471     15.5327E-03     17.3548E-03
            6509            6487     16.6536E-03     17.2119E-03
            6509            6488     17.0736E-03     17.6606E-03
            6510            6471     15.5327E-03     17.3548E-03
            6510            6472     16.3916E-03     18.2941E-03
            6510            6488     17.0736E-03     17.6606E-03
            6510            6489     16.5282E-03     17.3641E-03
            6511            6472     16.3916E-03     18.2941E-03
            6511            6473     20.5663E-03     22.4105E-03
            6511            6489     16.5282E-03     17.3641E-03
            6511            6490     15.8302E-03     15.9271E-03
            6512             252     15.8545E-03     14.9931E-03
            6512             253     23.6599E-03     25.5215E-03
            6512            6473     20.5663E-03     22.4105E-03
            6512            6490     15.8302E-03     15.9271E-03
            6513             728     12.3048E-03     10.8545E-03
            6513             729     12.5749E-03     11.1410E-03
            6513            6474     13.1161E-03     12.1218E-03
            6513            6491     13.3286E-03     12.4169E-03
            6514            6474     13.1161E-03     12.1218E-03
            6514            6475     14.1045E-03     13.9003E-03
            6514            6491     13.3286E-03     12.4169E-03
            6514            6492     14.3188E-03     14.1703E-03
            6515            6475     14.1045E-03     13.9003E-03
            6515            6476     14.2642E-03     14.3909E-03
            6515            6492     14.3188E-03     14.1703E-03
            6515            6493     14.6146E-03     14.6333E-03
            6516            6476     14.2642E-03     14.3909E-03
            6516            6477     14.2711E-03     14.4075E-03
            6516            6493     14.6146E-03     14.6333E-03
            6516            6494     14.7176E-03     14.6358E-03
            6517            6477     14.2711E-03     14.4075E-03
            6517            6478     14.3022E-03     14.4824E-03
            6517            6494     14.7176E-03     14.6358E-03
            6517            6495     14.8059E-03     14.6810E-03
            6518            6478     14.3022E-03     14.4824E-03
            6518            6479     14.3587E-03     14.5910E-03
            6518            6495     14.8059E-03     14.6810E-03
            6518            6496     14.9205E-03     14.7579E-03
            6519            6479     14.3587E-03     14.5910E-03
            6519            6480     14.4729E-03     14.7568E-03
            6519            6496     14.9205E-03     14.7579E-03
            6519            6497     15.0738E-03     14.8791E-03
            6520            6480     14.4729E-03     14.7568E-03
            6520            6481     14.6284E-03     14.9572E-03
            6520            6497     15.0738E-03     14.8791E-03
            6520            6498     15.2625E-03     15.0326E-03
            6521            6481     14.6284E-03     14.9572E-03
            6521            6482     14.8228E-03     15.2004E-03
            6521            6498     15.2625E-03     15.0326E-03
            6521            6499     15.4764E-03     15.2147E-03
            6522            6482     14.8228E-03     15.2004E-03
            6522            6483     15.0590E-03     15.4756E-03
            6522            6499     15.4764E-03     15.2147E-03
            6522            6500     15.7246E-03     15.4296E-03
            6523            6483     15.0590E-03     15.4756E-03
            6523            6484     15.3454E-03     15.8054E-03
            6523            6500     15.7246E-03     15.4296E-03
            6523            6501     16.0070E-03     15.6811E-03
            6524            6484     15.3454E-03     15.8054E-03
            6524            6485     15.6963E-03     16.1913E-03
            6524            6501     16.0070E-03     15.6811E-03
            6524            6502     16.3520E-03     15.9951E-03
            6525            6485     15.6963E-03     16.1913E-03
            6525            6486     16.1522E-03     16.6772E-03
            6525            6502     16.3520E-03     15.9951E-03
            6525            6503     16.7865E-03     16.4047E-03
            6526            6486     16.1522E-03     16.6772E-03
            6526            6487     16.6536E-03     17.2119E-03
            6526            6503     16.7865E-03     16.4047E-03
            6526            6504     17.2309E-03     16.7896E-03
            6527            6487     16.6536E-03     17.2119E-03
            6527            6488     17.0736E-03     17.6606E-03
            6527            6504     17.2309E-03     16.7896E-03
            6527            6505     17.5871E-03     17.0554E-03
            6528            6488     17.0736E-03     17.6606E-03
            6528            6489     16.5282E-03     17.3641E-03
            6528            6505     17.5871E-03     17.0554E-03
            6528            6506     15.2906E-03     15.2672E-03
            6529            6489     16.5282E-03     17.3641E-03
            6529            6490     15.8302E-03     15.9271E-03
            6529            6506     15.2906E-03     15.2672E-03
            6529            6507     9.89020E-03     10.3524E-03
            6530             251     6.93031E-03     7.34015E-03
            6530             252     15.8545E-03     14.9931E-03
            6530            6490     15.8302E-03     15.9271E-03
            6530            6507     9.89020E-03     10.3524E-03
            6531             729     12.5749E-03     11.1410E-03
            6531             730     12.5450E-03     12.8725E-03
            6531            6491     13.3286E-03     12.4169E-03
            6531            6508     13.3214E-03     13.5782E-03
            6532            6491     13.3286E-03     12.4169E-03
            6532            6492     14.3188E-03     14.1703E-03
            6532            6508     13.3214E-03     13.5782E-03
            6532            6509     14.3508E-03     14.3619E-03
            6533            6492     14.3188E-03     14.1703E-03
            6533            6493     14.6146E-03     14.6333E-03
            6533            6509     14.3508E-03     14.3619E-03
            6533            6510     14.8271E-03     14.6230E-03
            6534            6493     14.6146E-03     14.6333E-03
            6534            6494     14.7176E-03     14.6358E-03
            6534            6510     14.8271E-03     14.6230E-03
            6534            6511     15.1307E-03     14.8375E-03
            6535            6494     14.7176E-03     14.6358E-03
            6535            6495     14.8059E-03     14.6810E-03
            6535            6511     15.1307E-03     14.8375E-03
            6535            6512     15.3193E-03     14.9045E-03
            6536            6495     14.8059E-03     14.6810E-03
            6536            6496     14.9205E-03     14.7579E-03
            6536            6512     15.3193E-03     14.9045E-03
            6536            6513     15.5173E-03     14.9869E-03
            6537            6496     14.9205E-03     14.7579E-03
            6537            6497     15.0738E-03     14.8791E-03
            6537            6513     15.5173E-03     14.9869E-03
            6537            6514     15.7210E-03     15.0716E-03
            6538            6497     15.0738E-03     14.8791E-03
            6538            6498     15.2625E-03     15.0326E-03
            6538            6514     15.7210E-03     15.0716E-03
            6538            6515     15.9367E-03     15.1798E-03
            6539            6498     15.2625E-03     15.0326E-03
            6539            6499     15.4764E-03     15.2147E-03
            6539            6515     15.9367E-03     15.1798E-03
            6539            6516     16.1729E-03     15.3022E-03
            6540            6499     15.4764E-03     15.2147E-03
            6540            6500     15.7246E-03     15.4296E-03
            6540            6516     16.1729E-03     15.3022E-03
            6540            6517     16.4166E-03     15.4445E-03
            6541            6500     15.7246E-03     15.4296E-03
            6541            6501     16.0070E-03     15.6811E-03
            6541            6517     16.4166E-03     15.4445E-03
            6541            6518     16.6772E-03     15.5972E-03
            6542            6501     16.0070E-03     15.6811E-03
            6542            6502     16.3520E-03     15.9951E-03
            6542            6518     16.6772E-03     15.5972E-03
            6542            6519     16.9398E-03     15.7510E-03
            6543            6502     16.3520E-03     15.9951E-03
            6543            6503     16.7865E-03     16.4047E-03
            6543            6519     16.9398E-03     15.7510E-03
            6543            6520     17.1486E-03     15.8624E-03
            6544            6503     16.7865E-03     16.4047E-03
            6544            6504     17.2309E-03     16.7896E-03
            6544            6520     17.1486E-03     15.8624E-03
            6544            6521     17.2351E-03     15.8096E-03
            6545            6504     17.2309E-03     16.7896E-03
            6545            6505     17.5871E-03     17.0554E-03
            6545            6521     17.2351E-03     15.8096E-03
            6545            6522     16.4716E-03     14.9970E-03
            6546            6505     17.5871E-03     17.0554E-03
            6546            6506     15.2906E-03     15.2672E-03
            6546            6522     16.4716E-03     14.9970E-03
            6546            6523     14.0349E-03     12.4882E-03
            6547            6506     15.2906E-03     15.2672E-03
            6547            6507     9.89020E-03     10.3524E-03
            6547            6523     14.0349E-03     12.4882E-03
            6547            6524     8.33799E-03     8.89434E-03
            6548             250     4.32564E-03     7.06970E-03
            6548             251     6.93031E-03     7.34015E-03
            6548            6507     9.89020E-03     10.3524E-03
            6548            6524     8.33799E-03     8.89434E-03
            6549              26     6.37477E-03     6.74389E-03
            6549             730     12.5450E-03     12.8725E-03
            6549             748     6.82821E-03     7.08522E-03
            6549            6508     13.3214E-03     13.5782E-03
            6550             748     6.82821E-03     7.08522E-03
            6550             749     7.39932E-03     7.40142E-03
            6550            6508     13.3214E-03     13.5782E-03
            6550            6509     14.3508E-03     14.3619E-03
            6551             749     7.39932E-03     7.40142E-03
            6551             750     7.64913E-03     7.50657E-03
            6551            6509     14.3508E-03     14.3619E-03
            6551            6510     14.8271E-03     14.6230E-03
            6552             750     7.64913E-03     7.50657E-03
            6552             751     7.85690E-03     7.67097E-03
            6552            6510     14.8271E-03     14.6230E-03
            6552            6511     15.1307E-03     14.8375E-03
            6553             751     7.85690E-03     7.67097E-03
            6553             752     7.98754E-03     7.72911E-03
            6553            6511     15.1307E-03     14.8375E-03
            6553            6512     15.3193E-03     14.9045E-03
            6554             752     7.98754E-03     7.72911E-03
            6554             753     8.10720E-03     7.77201E-03
            6554            6512     15.3193E-03     14.9045E-03
            6554            6513     15.5173E-03     14.9869E-03
            6555             753     8.10720E-03     7.77201E-03
            6555             754     8.22407E-03     7.81651E-03
            6555            6513     15.5173E-03     14.9869E-03
            6555            6514     15.7210E-03     15.0716E-03
            6556             754     8.22407E-03     7.81651E-03
            6556             755     8.34458E-03     7.86029E-03
            6556            6514     15.7210E-03     15.0716E-03
            6556            6515     15.9367E-03     15.1798E-03
            6557             755     8.34458E-03     7.86029E-03
            6557             756     8.46890E-03     7.91920E-03
            6557            6515     15.9367E-03     15.1798E-03
            6557            6516     16.1729E-03     15.3022E-03
            6558             756     8.46890E-03     7.91920E-03
            6558             757     8.59820E-03     7.97141E-03
            6558            6516     16.1729E-03     15.3022E-03
            6558            6517     16.4166E-03     15.4445E-03
            6559             757     8.59820E-03     7.97141E-03
            6559             758     8.72420E-03     8.03743E-03
            6559            6517     16.4166E-03     15.4445E-03
            6559            6518     16.6772E-03     15.5972E-03
            6560             758     8.72420E-03     8.03743E-03
            6560             759     8.83102E-03     8.06322E-03
            6560            6518     16.6772E-03     15.5972E-03
            6560            6519     16.9398E-03     15.7510E-03
            6561             759     8.83102E-03     8.06322E-03
            6561             760     8.88153E-03     8.04307E-03
            6561            6519     16.9398E-03     15.7510E-03
            6561            6520     17.1486E-03     15.8624E-03
            6562             760     8.88153E-03     8.04307E-03
            6562             761     8.76015E-03     7.85899E-03
            6562            6520     17.1486E-03     15.8624E-03
            6562            6521     17.2351E-03     15.8096E-03
            6563             761     8.76015E-03     7.85899E-03
            6563             762     8.07213E-03     7.11403E-03
            6563            6521     17.2351E-03     15.8096E-03
            6563            6522     16.4716E-03     14.9970E-03
            6564             762     8.07213E-03     7.11403E-03
            6564             763     6.89571E-03     5.77652E-03
            6564            6522     16.4716E-03     14.9970E-03
            6564            6523     14.0349E-03     12.4882E-03
            6565             763     6.89571E-03     5.77652E-03
            6565             764     4.81017E-03     5.47790E-03
            6565            6523     14.0349E-03     12.4882E-03
            6565            6524     8.33799E-03     8.89434E-03
            6566              15     3.33083E-03     5.96456E-03
            6566             250     4.32564E-03     7.06970E-03
            6566             764     4.81017E-03     5.47790E-03
            6566            6524     8.33799E-03     8.89434E-03


  Minimum                            89.9879E-06     206.395E-06
      At Element                            2325            5156
            Node                              40             768

  Maximum                            187.143E-03     192.345E-03
      At Element                            3428            4066
            Node                             182               8

           Total                         391.582         400.847


Field Output reported at element nodes for region: A320-1.Region_2
   Computation algorithm: EXTRAPOLATE_COMPUTE_AVERAGE
   Averaged at nodes
   Averaging regions: ODB_REGIONS

   Element Label      Node Label         S.Mises         S.Mises
                                          @Loc 1          @Loc 2
-----------------------------------------------------------------
            1785              17     12.5521E-03     12.6033E-03
            1785             424     14.0010E-03     14.0407E-03
            1785             488     22.2963E-03     22.5957E-03
            1785            2369     26.2965E-03     26.4397E-03
            1786             424     14.0010E-03     14.0407E-03
            1786             425     15.9375E-03     15.9106E-03
            1786            2369     26.2965E-03     26.4397E-03
            1786            2370     31.5365E-03     31.4245E-03
            1787             425     15.9375E-03     15.9106E-03
            1787             426     16.9828E-03     16.9066E-03
            1787            2370     31.5365E-03     31.4245E-03
            1787            2371     33.6984E-03     33.4780E-03
            1788             426     16.9828E-03     16.9066E-03
            1788             427     17.6321E-03     17.5603E-03
            1788            2371     33.6984E-03     33.4780E-03
            1788            2372     34.7797E-03     34.5252E-03
            1789             427     17.6321E-03     17.5603E-03
            1789             428     17.6622E-03     17.5652E-03
            1789            2372     34.7797E-03     34.5252E-03
            1789            2373     34.8190E-03     34.5255E-03
            1790             428     17.6622E-03     17.5652E-03
            1790             429     17.0625E-03     16.9462E-03
            1790            2373     34.8190E-03     34.5255E-03
            1790            2374     33.8232E-03     33.4885E-03
            1791             429     17.0625E-03     16.9462E-03
            1791             430     16.1323E-03     15.9905E-03
            1791            2374     33.8232E-03     33.4885E-03
            1791            2375     31.8694E-03     31.4784E-03
            1792             430     16.1323E-03     15.9905E-03
            1792             431     14.3582E-03     14.3680E-03
            1792            2375     31.8694E-03     31.4784E-03
            1792            2376     26.8044E-03     26.8789E-03
            1793               3     12.9759E-03     13.1672E-03
            1793             150     22.8173E-03     23.3866E-03
            1793             431     14.3582E-03     14.3680E-03
            1793            2376     26.8044E-03     26.8789E-03
            1794             487     20.3787E-03     20.7487E-03
            1794             488     22.2963E-03     22.5957E-03
            1794            2369     26.2965E-03     26.4397E-03
            1794            2377     25.2737E-03     25.4067E-03
            1795            2369     26.2965E-03     26.4397E-03
            1795            2370     31.5365E-03     31.4245E-03
            1795            2377     25.2737E-03     25.4067E-03
            1795            2378     32.3287E-03     32.1650E-03
            1796            2370     31.5365E-03     31.4245E-03
            1796            2371     33.6984E-03     33.4780E-03
            1796            2378     32.3287E-03     32.1650E-03
            1796            2379     35.1244E-03     34.8540E-03
            1797            2371     33.6984E-03     33.4780E-03
            1797            2372     34.7797E-03     34.5252E-03
            1797            2379     35.1244E-03     34.8540E-03
            1797            2380     36.1058E-03     35.7761E-03
            1798            2372     34.7797E-03     34.5252E-03
            1798            2373     34.8190E-03     34.5255E-03
            1798            2380     36.1058E-03     35.7761E-03
            1798            2381     36.0966E-03     35.7580E-03
            1799            2373     34.8190E-03     34.5255E-03
            1799            2374     33.8232E-03     33.4885E-03
            1799            2381     36.0966E-03     35.7580E-03
            1799            2382     35.1404E-03     34.7832E-03
            1800            2374     33.8232E-03     33.4885E-03
            1800            2375     31.8694E-03     31.4784E-03
            1800            2382     35.1404E-03     34.7832E-03
            1800            2383     32.3536E-03     32.1413E-03
            1801            2375     31.8694E-03     31.4784E-03
            1801            2376     26.8044E-03     26.8789E-03
            1801            2383     32.3536E-03     32.1413E-03
            1801            2384     25.2030E-03     25.5420E-03
            1802             149     20.2379E-03     20.9613E-03
            1802             150     22.8173E-03     23.3866E-03
            1802            2376     26.8044E-03     26.8789E-03
            1802            2384     25.2030E-03     25.5420E-03
            1803             486     22.0243E-03     22.0391E-03
            1803             487     20.3787E-03     20.7487E-03
            1803            2377     25.2737E-03     25.4067E-03
            1803            2385     25.9935E-03     25.9699E-03
            1804            2377     25.2737E-03     25.4067E-03
            1804            2378     32.3287E-03     32.1650E-03
            1804            2385     25.9935E-03     25.9699E-03
            1804            2386     32.4726E-03     32.3277E-03
            1805            2378     32.3287E-03     32.1650E-03
            1805            2379     35.1244E-03     34.8540E-03
            1805            2386     32.4726E-03     32.3277E-03
            1805            2387     35.9979E-03     35.8052E-03
            1806            2379     35.1244E-03     34.8540E-03
            1806            2380     36.1058E-03     35.7761E-03
            1806            2387     35.9979E-03     35.8052E-03
            1806            2388     37.1573E-03     37.0118E-03
            1807            2380     36.1058E-03     35.7761E-03
            1807            2381     36.0966E-03     35.7580E-03
            1807            2388     37.1573E-03     37.0118E-03
            1807            2389     37.1138E-03     36.9615E-03
            1808            2381     36.0966E-03     35.7580E-03
            1808            2382     35.1404E-03     34.7832E-03
            1808            2389     37.1138E-03     36.9615E-03
            1808            2390     35.8259E-03     35.7215E-03
            1809            2382     35.1404E-03     34.7832E-03
            1809            2383     32.3536E-03     32.1413E-03
            1809            2390     35.8259E-03     35.7215E-03
            1809            2391     32.0935E-03     32.2692E-03
            1810            2383     32.3536E-03     32.1413E-03
            1810            2384     25.2030E-03     25.5420E-03
            1810            2391     32.0935E-03     32.2692E-03
            1810            2392     25.4247E-03     25.8245E-03
            1811             148     21.3877E-03     21.7986E-03
            1811             149     20.2379E-03     20.9613E-03
            1811            2384     25.2030E-03     25.5420E-03
            1811            2392     25.4247E-03     25.8245E-03
            1812             485     25.5203E-03     25.2775E-03
            1812             486     22.0243E-03     22.0391E-03
            1812            2385     25.9935E-03     25.9699E-03
            1812            2393     28.4399E-03     28.2307E-03
            1813            2385     25.9935E-03     25.9699E-03
            1813            2386     32.4726E-03     32.3277E-03
            1813            2393     28.4399E-03     28.2307E-03
            1813            2394     33.4162E-03     33.3355E-03
            1814            2386     32.4726E-03     32.3277E-03
            1814            2387     35.9979E-03     35.8052E-03
            1814            2394     33.4162E-03     33.3355E-03
            1814            2395     36.2632E-03     36.3453E-03
            1815            2387     35.9979E-03     35.8052E-03
            1815            2388     37.1573E-03     37.0118E-03
            1815            2395     36.2632E-03     36.3453E-03
            1815            2396     37.1122E-03     37.2463E-03
            1816            2388     37.1573E-03     37.0118E-03
            1816            2389     37.1138E-03     36.9615E-03
            1816            2396     37.1122E-03     37.2463E-03
            1816            2397     37.0312E-03     37.1801E-03
            1817            2389     37.1138E-03     36.9615E-03
            1817            2390     35.8259E-03     35.7215E-03
            1817            2397     37.0312E-03     37.1801E-03
            1817            2398     35.9578E-03     36.1710E-03
            1818            2390     35.8259E-03     35.7215E-03
            1818            2391     32.0935E-03     32.2692E-03
            1818            2398     35.9578E-03     36.1710E-03
            1818            2399     32.8259E-03     33.0719E-03
            1819            2391     32.0935E-03     32.2692E-03
            1819            2392     25.4247E-03     25.8245E-03
            1819            2399     32.8259E-03     33.0719E-03
            1819            2400     27.5414E-03     27.8080E-03
            1820             147     24.4552E-03     24.7430E-03
            1820             148     21.3877E-03     21.7986E-03
            1820            2392     25.4247E-03     25.8245E-03
            1820            2400     27.5414E-03     27.8080E-03
            1821             484     30.8912E-03     30.6965E-03
            1821             485     25.5203E-03     25.2775E-03
            1821            2393     28.4399E-03     28.2307E-03
            1821            2401     32.6878E-03     32.5860E-03
            1822            2393     28.4399E-03     28.2307E-03
            1822            2394     33.4162E-03     33.3355E-03
            1822            2401     32.6878E-03     32.5860E-03
            1822            2402     35.0145E-03     35.1961E-03
            1823            2394     33.4162E-03     33.3355E-03
            1823            2395     36.2632E-03     36.3453E-03
            1823            2402     35.0145E-03     35.1961E-03
            1823            2403     35.5692E-03     35.9028E-03
            1824            2395     36.2632E-03     36.3453E-03
            1824            2396     37.1122E-03     37.2463E-03
            1824            2403     35.5692E-03     35.9028E-03
            1824            2404     35.7943E-03     36.1070E-03
            1825            2396     37.1122E-03     37.2463E-03
            1825            2397     37.0312E-03     37.1801E-03
            1825            2404     35.7943E-03     36.1070E-03
            1825            2405     35.6647E-03     36.0309E-03
            1826            2397     37.0312E-03     37.1801E-03
            1826            2398     35.9578E-03     36.1710E-03
            1826            2405     35.6647E-03     36.0309E-03
            1826            2406     35.2001E-03     35.6189E-03
            1827            2398     35.9578E-03     36.1710E-03
            1827            2399     32.8259E-03     33.0719E-03
            1827            2406     35.2001E-03     35.6189E-03
            1827            2407     34.3368E-03     34.6556E-03
            1828            2399     32.8259E-03     33.0719E-03
            1828            2400     27.5414E-03     27.8080E-03
            1828            2407     34.3368E-03     34.6556E-03
            1828            2408     31.6477E-03     31.7446E-03
            1829             146     29.6873E-03     29.6792E-03
            1829             147     24.4552E-03     24.7430E-03
            1829            2400     27.5414E-03     27.8080E-03
            1829            2408     31.6477E-03     31.7446E-03
            1830             483     39.5038E-03     38.4237E-03
            1830             484     30.8912E-03     30.6965E-03
            1830            2401     32.6878E-03     32.5860E-03
            1830            2409     37.9018E-03     37.3646E-03
            1831            2401     32.6878E-03     32.5860E-03
            1831            2402     35.0145E-03     35.1961E-03
            1831            2409     37.9018E-03     37.3646E-03
            1831            2410     34.9971E-03     35.0493E-03
            1832            2402     35.0145E-03     35.1961E-03
            1832            2403     35.5692E-03     35.9028E-03
            1832            2410     34.9971E-03     35.0493E-03
            1832            2411     33.7266E-03     33.8782E-03
            1833            2403     35.5692E-03     35.9028E-03
            1833            2404     35.7943E-03     36.1070E-03
            1833            2411     33.7266E-03     33.8782E-03
            1833            2412     33.5465E-03     33.7931E-03
            1834            2404     35.7943E-03     36.1070E-03
            1834            2405     35.6647E-03     36.0309E-03
            1834            2412     33.5465E-03     33.7931E-03
            1834            2413     33.3851E-03     33.6982E-03
            1835            2405     35.6647E-03     36.0309E-03
            1835            2406     35.2001E-03     35.6189E-03
            1835            2413     33.3851E-03     33.6982E-03
            1835            2414     33.2261E-03     33.5916E-03
            1836            2406     35.2001E-03     35.6189E-03
            1836            2407     34.3368E-03     34.6556E-03
            1836            2414     33.2261E-03     33.5916E-03
            1836            2415     34.1336E-03     34.4545E-03
            1837            2407     34.3368E-03     34.6556E-03
            1837            2408     31.6477E-03     31.7446E-03
            1837            2415     34.1336E-03     34.4545E-03
            1837            2416     36.5335E-03     36.4331E-03
            1838             145     37.8160E-03     37.3670E-03
            1838             146     29.6873E-03     29.6792E-03
            1838            2408     31.6477E-03     31.7446E-03
            1838            2416     36.5335E-03     36.4331E-03
            1839             482     33.6567E-03     31.8667E-03
            1839             483     39.5038E-03     38.4237E-03
            1839            2409     37.9018E-03     37.3646E-03
            1839            2417     33.8083E-03     32.2838E-03
            1840            2409     37.9018E-03     37.3646E-03
            1840            2410     34.9971E-03     35.0493E-03
            1840            2417     33.8083E-03     32.2838E-03
            1840            2418     33.3910E-03     32.3696E-03
            1841            2410     34.9971E-03     35.0493E-03
            1841            2411     33.7266E-03     33.8782E-03
            1841            2418     33.3910E-03     32.3696E-03
            1841            2419     33.0521E-03     32.4437E-03
            1842            2411     33.7266E-03     33.8782E-03
            1842            2412     33.5465E-03     33.7931E-03
            1842            2419     33.0521E-03     32.4437E-03
            1842            2420     33.0270E-03     32.6722E-03
            1843            2412     33.5465E-03     33.7931E-03
            1843            2413     33.3851E-03     33.6982E-03
            1843            2420     33.0270E-03     32.6722E-03
            1843            2421     32.8684E-03     32.5053E-03
            1844            2413     33.3851E-03     33.6982E-03
            1844            2414     33.2261E-03     33.5916E-03
            1844            2421     32.8684E-03     32.5053E-03
            1844            2422     32.5238E-03     31.9568E-03
            1845            2414     33.2261E-03     33.5916E-03
            1845            2415     34.1336E-03     34.4545E-03
            1845            2422     32.5238E-03     31.9568E-03
            1845            2423     32.5984E-03     31.5268E-03
            1846            2415     34.1336E-03     34.4545E-03
            1846            2416     36.5335E-03     36.4331E-03
            1846            2423     32.5984E-03     31.5268E-03
            1846            2424     32.6489E-03     31.0070E-03
            1847             144     32.1836E-03     30.3586E-03
            1847             145     37.8160E-03     37.3670E-03
            1847            2416     36.5335E-03     36.4331E-03
            1847            2424     32.6489E-03     31.0070E-03
            1848             481     26.3839E-03     26.5350E-03
            1848             482     33.6567E-03     31.8667E-03
            1848            2417     33.8083E-03     32.2838E-03
            1848            2425     29.7865E-03     29.2824E-03
            1849            2417     33.8083E-03     32.2838E-03
            1849            2418     33.3910E-03     32.3696E-03
            1849            2425     29.7865E-03     29.2824E-03
            1849            2426     33.6130E-03     32.3515E-03
            1850            2418     33.3910E-03     32.3696E-03
            1850            2419     33.0521E-03     32.4437E-03
            1850            2426     33.6130E-03     32.3515E-03
            1850            2427     34.0222E-03     32.7217E-03
            1851            2419     33.0521E-03     32.4437E-03
            1851            2420     33.0270E-03     32.6722E-03
            1851            2427     34.0222E-03     32.7217E-03
            1851            2428     33.8442E-03     32.5628E-03
            1852            2420     33.0270E-03     32.6722E-03
            1852            2421     32.8684E-03     32.5053E-03
            1852            2428     33.8442E-03     32.5628E-03
            1852            2429     33.6196E-03     32.2240E-03
            1853            2421     32.8684E-03     32.5053E-03
            1853            2422     32.5238E-03     31.9568E-03
            1853            2429     33.6196E-03     32.2240E-03
            1853            2430     33.3638E-03     31.7067E-03
            1854            2422     32.5238E-03     31.9568E-03
            1854            2423     32.5984E-03     31.5268E-03
            1854            2430     33.3638E-03     31.7067E-03
            1854            2431     32.6612E-03     30.7065E-03
            1855            2423     32.5984E-03     31.5268E-03
            1855            2424     32.6489E-03     31.0070E-03
            1855            2431     32.6612E-03     30.7065E-03
            1855            2432     28.2052E-03     27.0955E-03
            1856             143     24.2573E-03     24.0988E-03
            1856             144     32.1836E-03     30.3586E-03
            1856            2424     32.6489E-03     31.0070E-03
            1856            2432     28.2052E-03     27.0955E-03
            1857             480     32.7498E-03     33.7912E-03
            1857             481     26.3839E-03     26.5350E-03
            1857            2425     29.7865E-03     29.2824E-03
            1857            2433     33.9566E-03     34.6805E-03
            1858            2425     29.7865E-03     29.2824E-03
            1858            2426     33.6130E-03     32.3515E-03
            1858            2433     33.9566E-03     34.6805E-03
            1858            2434     35.4250E-03     35.1387E-03
            1859            2426     33.6130E-03     32.3515E-03
            1859            2427     34.0222E-03     32.7217E-03
            1859            2434     35.4250E-03     35.1387E-03
            1859            2435     35.1668E-03     33.9077E-03
            1860            2427     34.0222E-03     32.7217E-03
            1860            2428     33.8442E-03     32.5628E-03
            1860            2435     35.1668E-03     33.9077E-03
            1860            2436     34.3682E-03     32.6655E-03
            1861            2428     33.8442E-03     32.5628E-03
            1861            2429     33.6196E-03     32.2240E-03
            1861            2436     34.3682E-03     32.6655E-03
            1861            2437     33.9878E-03     32.1521E-03
            1862            2429     33.6196E-03     32.2240E-03
            1862            2430     33.3638E-03     31.7067E-03
            1862            2437     33.9878E-03     32.1521E-03
            1862            2438     34.0853E-03     32.4283E-03
            1863            2430     33.3638E-03     31.7067E-03
            1863            2431     32.6612E-03     30.7065E-03
            1863            2438     34.0853E-03     32.4283E-03
            1863            2439     33.5688E-03     32.8950E-03
            1864            2431     32.6612E-03     30.7065E-03
            1864            2432     28.2052E-03     27.0955E-03
            1864            2439     33.5688E-03     32.8950E-03
            1864            2440     31.0077E-03     31.8630E-03
            1865             142     29.1623E-03     30.7115E-03
            1865             143     24.2573E-03     24.0988E-03
            1865            2432     28.2052E-03     27.0955E-03
            1865            2440     31.0077E-03     31.8630E-03
            1866             479     38.1622E-03     38.3060E-03
            1866             480     32.7498E-03     33.7912E-03
            1866            2433     33.9566E-03     34.6805E-03
            1866            2441     37.6448E-03     38.0115E-03
            1867            2433     33.9566E-03     34.6805E-03
            1867            2434     35.4250E-03     35.1387E-03
            1867            2441     37.6448E-03     38.0115E-03
            1867            2442     36.9816E-03     37.1145E-03
            1868            2434     35.4250E-03     35.1387E-03
            1868            2435     35.1668E-03     33.9077E-03
            1868            2442     36.9816E-03     37.1145E-03
            1868            2443     36.3142E-03     35.5138E-03
            1869            2435     35.1668E-03     33.9077E-03
            1869            2436     34.3682E-03     32.6655E-03
            1869            2443     36.3142E-03     35.5138E-03
            1869            2444     35.3091E-03     33.8700E-03
            1870            2436     34.3682E-03     32.6655E-03
            1870            2437     33.9878E-03     32.1521E-03
            1870            2444     35.3091E-03     33.8700E-03
            1870            2445     34.7924E-03     33.2631E-03
            1871            2437     33.9878E-03     32.1521E-03
            1871            2438     34.0853E-03     32.4283E-03
            1871            2445     34.7924E-03     33.2631E-03
            1871            2446     34.7504E-03     33.8160E-03
            1872            2438     34.0853E-03     32.4283E-03
            1872            2439     33.5688E-03     32.8950E-03
            1872            2446     34.7504E-03     33.8160E-03
            1872            2447     34.3420E-03     34.5663E-03
            1873            2439     33.5688E-03     32.8950E-03
            1873            2440     31.0077E-03     31.8630E-03
            1873            2447     34.3420E-03     34.5663E-03
            1873            2448     34.1219E-03     34.7193E-03
            1874             141     34.3014E-03     34.6365E-03
            1874             142     29.1623E-03     30.7115E-03
            1874            2440     31.0077E-03     31.8630E-03
            1874            2448     34.1219E-03     34.7193E-03
            1875             478     43.1780E-03     42.8941E-03
            1875             479     38.1622E-03     38.3060E-03
            1875            2441     37.6448E-03     38.0115E-03
            1875            2449     41.5060E-03     41.4378E-03
            1876            2441     37.6448E-03     38.0115E-03
            1876            2442     36.9816E-03     37.1145E-03
            1876            2449     41.5060E-03     41.4378E-03
            1876            2450     38.8936E-03     38.9060E-03
            1877            2442     36.9816E-03     37.1145E-03
            1877            2443     36.3142E-03     35.5138E-03
            1877            2450     38.8936E-03     38.9060E-03
            1877            2451     37.2592E-03     36.8348E-03
            1878            2443     36.3142E-03     35.5138E-03
            1878            2444     35.3091E-03     33.8700E-03
            1878            2451     37.2592E-03     36.8348E-03
            1878            2452     36.0965E-03     35.2025E-03
            1879            2444     35.3091E-03     33.8700E-03
            1879            2445     34.7924E-03     33.2631E-03
            1879            2452     36.0965E-03     35.2025E-03
            1879            2453     35.4300E-03     34.5472E-03
            1880            2445     34.7924E-03     33.2631E-03
            1880            2446     34.7504E-03     33.8160E-03
            1880            2453     35.4300E-03     34.5472E-03
            1880            2454     35.2902E-03     34.9815E-03
            1881            2446     34.7504E-03     33.8160E-03
            1881            2447     34.3420E-03     34.5663E-03
            1881            2454     35.2902E-03     34.9815E-03
            1881            2455     35.7945E-03     36.0500E-03
            1882            2447     34.3420E-03     34.5663E-03
            1882            2448     34.1219E-03     34.7193E-03
            1882            2455     35.7945E-03     36.0500E-03
            1882            2456     37.5815E-03     37.8041E-03
            1883             140     38.9222E-03     38.9430E-03
            1883             141     34.3014E-03     34.6365E-03
            1883            2448     34.1219E-03     34.7193E-03
            1883            2456     37.5815E-03     37.8041E-03
            1884             477     48.0317E-03     47.4699E-03
            1884             478     43.1780E-03     42.8941E-03
            1884            2449     41.5060E-03     41.4378E-03
            1884            2457     45.4053E-03     45.0687E-03
            1885            2449     41.5060E-03     41.4378E-03
            1885            2450     38.8936E-03     38.9060E-03
            1885            2457     45.4053E-03     45.0687E-03
            1885            2458     41.1099E-03     41.0145E-03
            1886            2450     38.8936E-03     38.9060E-03
            1886            2451     37.2592E-03     36.8348E-03
            1886            2458     41.1099E-03     41.0145E-03
            1886            2459     38.3534E-03     38.1783E-03
            1887            2451     37.2592E-03     36.8348E-03
            1887            2452     36.0965E-03     35.2025E-03
            1887            2459     38.3534E-03     38.1783E-03
            1887            2460     36.5962E-03     36.2733E-03
            1888            2452     36.0965E-03     35.2025E-03
            1888            2453     35.4300E-03     34.5472E-03
            1888            2460     36.5962E-03     36.2733E-03
            1888            2461     35.8097E-03     35.5613E-03
            1889            2453     35.4300E-03     34.5472E-03
            1889            2454     35.2902E-03     34.9815E-03
            1889            2461     35.8097E-03     35.5613E-03
            1889            2462     36.0919E-03     36.1372E-03
            1890            2454     35.2902E-03     34.9815E-03
            1890            2455     35.7945E-03     36.0500E-03
            1890            2462     36.0919E-03     36.1372E-03
            1890            2463     37.6552E-03     37.8873E-03
            1891            2455     35.7945E-03     36.0500E-03
            1891            2456     37.5815E-03     37.8041E-03
            1891            2463     37.6552E-03     37.8873E-03
            1891            2464     41.1872E-03     41.1280E-03
            1892             139     43.5551E-03     43.1849E-03
            1892             140     38.9222E-03     38.9430E-03
            1892            2456     37.5815E-03     37.8041E-03
            1892            2464     41.1872E-03     41.1280E-03
            1893             476     52.7897E-03     52.0669E-03
            1893             477     48.0317E-03     47.4699E-03
            1893            2457     45.4053E-03     45.0687E-03
            1893            2465     49.4257E-03     48.9400E-03
            1894            2457     45.4053E-03     45.0687E-03
            1894            2458     41.1099E-03     41.0145E-03
            1894            2465     49.4257E-03     48.9400E-03
            1894            2466     43.5976E-03     43.4989E-03
            1895            2458     41.1099E-03     41.0145E-03
            1895            2459     38.3534E-03     38.1783E-03
            1895            2466     43.5976E-03     43.4989E-03
            1895            2467     39.4659E-03     39.5717E-03
            1896            2459     38.3534E-03     38.1783E-03
            1896            2460     36.5962E-03     36.2733E-03
            1896            2467     39.4659E-03     39.5717E-03
            1896            2468     36.9829E-03     37.2022E-03
            1897            2460     36.5962E-03     36.2733E-03
            1897            2461     35.8097E-03     35.5613E-03
            1897            2468     36.9829E-03     37.2022E-03
            1897            2469     36.0963E-03     36.4150E-03
            1898            2461     35.8097E-03     35.5613E-03
            1898            2462     36.0919E-03     36.1372E-03
            1898            2469     36.0963E-03     36.4150E-03
            1898            2470     36.9563E-03     37.3280E-03
            1899            2462     36.0919E-03     36.1372E-03
            1899            2463     37.6552E-03     37.8873E-03
            1899            2470     36.9563E-03     37.3280E-03
            1899            2471     39.8724E-03     40.0893E-03
            1900            2463     37.6552E-03     37.8873E-03
            1900            2464     41.1872E-03     41.1280E-03
            1900            2471     39.8724E-03     40.0893E-03
            1900            2472     44.9470E-03     44.7460E-03
            1901             138     48.0367E-03     47.5851E-03
            1901             139     43.5551E-03     43.1849E-03
            1901            2464     41.1872E-03     41.1280E-03
            1901            2472     44.9470E-03     44.7460E-03
            1902             475     57.7809E-03     56.9636E-03
            1902             476     52.7897E-03     52.0669E-03
            1902            2465     49.4257E-03     48.9400E-03
            1902            2473     53.5929E-03     53.0532E-03
            1903            2465     49.4257E-03     48.9400E-03
            1903            2466     43.5976E-03     43.4989E-03
            1903            2473     53.5929E-03     53.0532E-03
            1903            2474     46.1063E-03     46.0953E-03
            1904            2466     43.5976E-03     43.4989E-03
            1904            2467     39.4659E-03     39.5717E-03
            1904            2474     46.1063E-03     46.0953E-03
            1904            2475     40.5782E-03     41.0744E-03
            1905            2467     39.4659E-03     39.5717E-03
            1905            2468     36.9829E-03     37.2022E-03
            1905            2475     40.5782E-03     41.0744E-03
            1905            2476     37.1872E-03     38.0615E-03
            1906            2468     36.9829E-03     37.2022E-03
            1906            2469     36.0963E-03     36.4150E-03
            1906            2476     37.1872E-03     38.0615E-03
            1906            2477     36.2080E-03     37.1632E-03
            1907            2469     36.0963E-03     36.4150E-03
            1907            2470     36.9563E-03     37.3280E-03
            1907            2477     36.2080E-03     37.1632E-03
            1907            2478     37.8572E-03     38.5866E-03
            1908            2470     36.9563E-03     37.3280E-03
            1908            2471     39.8724E-03     40.0893E-03
            1908            2478     37.8572E-03     38.5866E-03
            1908            2479     42.1352E-03     42.4335E-03
            1909            2471     39.8724E-03     40.0893E-03
            1909            2472     44.9470E-03     44.7460E-03
            1909            2479     42.1352E-03     42.4335E-03
            1909            2480     48.9002E-03     48.6131E-03
            1910             137     52.8537E-03     52.2277E-03
            1910             138     48.0367E-03     47.5851E-03
            1910            2472     44.9470E-03     44.7460E-03
            1910            2480     48.9002E-03     48.6131E-03
            1911             474     62.6319E-03     61.8048E-03
            1911             475     57.7809E-03     56.9636E-03
            1911            2473     53.5929E-03     53.0532E-03
            1911            2481     57.7495E-03     57.2908E-03
            1912            2473     53.5929E-03     53.0532E-03
            1912            2474     46.1063E-03     46.0953E-03
            1912            2481     57.7495E-03     57.2908E-03
            1912            2482     48.8268E-03     49.2153E-03
            1913            2474     46.1063E-03     46.0953E-03
            1913            2475     40.5782E-03     41.0744E-03
            1913            2482     48.8268E-03     49.2153E-03
            1913            2483     41.5080E-03     42.6401E-03
            1914            2475     40.5782E-03     41.0744E-03
            1914            2476     37.1872E-03     38.0615E-03
            1914            2483     41.5080E-03     42.6401E-03
            1914            2484     36.5866E-03     38.0679E-03
            1915            2476     37.1872E-03     38.0615E-03
            1915            2477     36.2080E-03     37.1632E-03
            1915            2484     36.5866E-03     38.0679E-03
            1915            2485     35.5500E-03     37.1093E-03
            1916            2477     36.2080E-03     37.1632E-03
            1916            2478     37.8572E-03     38.5866E-03
            1916            2485     35.5500E-03     37.1093E-03
            1916            2486     38.6170E-03     39.9212E-03
            1917            2478     37.8572E-03     38.5866E-03
            1917            2479     42.1352E-03     42.4335E-03
            1917            2486     38.6170E-03     39.9212E-03
            1917            2487     44.6535E-03     45.2373E-03
            1918            2479     42.1352E-03     42.4335E-03
            1918            2480     48.9002E-03     48.6131E-03
            1918            2487     44.6535E-03     45.2373E-03
            1918            2488     52.8315E-03     52.6554E-03
            1919             136     57.4337E-03     56.9691E-03
            1919             137     52.8537E-03     52.2277E-03
            1919            2480     48.9002E-03     48.6131E-03
            1919            2488     52.8315E-03     52.6554E-03
            1920             473     68.8544E-03     68.4707E-03
            1920             474     62.6319E-03     61.8048E-03
            1920            2481     57.7495E-03     57.2908E-03
            1920            2489     63.1477E-03     63.2318E-03
            1921            2481     57.7495E-03     57.2908E-03
            1921            2482     48.8268E-03     49.2153E-03
            1921            2489     63.1477E-03     63.2318E-03
            1921            2490     51.3035E-03     52.1336E-03
            1922            2482     48.8268E-03     49.2153E-03
            1922            2483     41.5080E-03     42.6401E-03
            1922            2490     51.3035E-03     52.1336E-03
            1922            2491     40.7956E-03     42.0671E-03
            1923            2483     41.5080E-03     42.6401E-03
            1923            2484     36.5866E-03     38.0679E-03
            1923            2491     40.7956E-03     42.0671E-03
            1923            2492     34.7085E-03     36.3526E-03
            1924            2484     36.5866E-03     38.0679E-03
            1924            2485     35.5500E-03     37.1093E-03
            1924            2492     34.7085E-03     36.3526E-03
            1924            2493     33.5625E-03     35.3638E-03
            1925            2485     35.5500E-03     37.1093E-03
            1925            2486     38.6170E-03     39.9212E-03
            1925            2493     33.5625E-03     35.3638E-03
            1925            2494     37.7297E-03     39.3036E-03
            1926            2486     38.6170E-03     39.9212E-03
            1926            2487     44.6535E-03     45.2373E-03
            1926            2494     37.7297E-03     39.3036E-03
            1926            2495     46.9516E-03     47.9780E-03
            1927            2487     44.6535E-03     45.2373E-03
            1927            2488     52.8315E-03     52.6554E-03
            1927            2495     46.9516E-03     47.9780E-03
            1927            2496     58.0616E-03     58.2271E-03
            1928             135     63.5463E-03     63.2230E-03
            1928             136     57.4337E-03     56.9691E-03
            1928            2488     52.8315E-03     52.6554E-03
            1928            2496     58.0616E-03     58.2271E-03
            1929             472     78.1405E-03     75.5111E-03
            1929             473     68.8544E-03     68.4707E-03
            1929            2489     63.1477E-03     63.2318E-03
            1929            2497     68.3635E-03     66.5260E-03
            1930            2489     63.1477E-03     63.2318E-03
            1930            2490     51.3035E-03     52.1336E-03
            1930            2497     68.3635E-03     66.5260E-03
            1930            2498     50.6344E-03     49.8617E-03
            1931            2490     51.3035E-03     52.1336E-03
            1931            2491     40.7956E-03     42.0671E-03
            1931            2498     50.6344E-03     49.8617E-03
            1931            2499     38.0515E-03     38.0835E-03
            1932            2491     40.7956E-03     42.0671E-03
            1932            2492     34.7085E-03     36.3526E-03
            1932            2499     38.0515E-03     38.0835E-03
            1932            2500     30.9464E-03     31.8909E-03
            1933            2492     34.7085E-03     36.3526E-03
            1933            2493     33.5625E-03     35.3638E-03
            1933            2500     30.9464E-03     31.8909E-03
            1933            2501     29.6777E-03     30.8969E-03
            1934            2493     33.5625E-03     35.3638E-03
            1934            2494     37.7297E-03     39.3036E-03
            1934            2501     29.6777E-03     30.8969E-03
            1934            2502     34.7082E-03     35.4343E-03
            1935            2494     37.7297E-03     39.3036E-03
            1935            2495     46.9516E-03     47.9780E-03
            1935            2502     34.7082E-03     35.4343E-03
            1935            2503     45.9752E-03     46.0151E-03
            1936            2495     46.9516E-03     47.9780E-03
            1936            2496     58.0616E-03     58.2271E-03
            1936            2503     45.9752E-03     46.0151E-03
            1936            2504     62.7724E-03     61.7537E-03
            1937             134     72.1274E-03     70.3496E-03
            1937             135     63.5463E-03     63.2230E-03
            1937            2496     58.0616E-03     58.2271E-03
            1937            2504     62.7724E-03     61.7537E-03
            1938             471     70.5840E-03     64.7363E-03
            1938             472     78.1405E-03     75.5111E-03
            1938            2497     68.3635E-03     66.5260E-03
            1938            2505     62.4619E-03     57.2127E-03
            1939            2497     68.3635E-03     66.5260E-03
            1939            2498     50.6344E-03     49.8617E-03
            1939            2505     62.4619E-03     57.2127E-03
            1939            2506     48.5804E-03     44.8814E-03
            1940            2498     50.6344E-03     49.8617E-03
            1940            2499     38.0515E-03     38.0835E-03
            1940            2506     48.5804E-03     44.8814E-03
            1940            2507     38.8206E-03     36.8666E-03
            1941            2499     38.0515E-03     38.0835E-03
            1941            2500     30.9464E-03     31.8909E-03
            1941            2507     38.8206E-03     36.8666E-03
            1941            2508     32.5712E-03     31.8423E-03
            1942            2500     30.9464E-03     31.8909E-03
            1942            2501     29.6777E-03     30.8969E-03
            1942            2508     32.5712E-03     31.8423E-03
            1942            2509     31.3028E-03     30.6926E-03
            1943            2501     29.6777E-03     30.8969E-03
            1943            2502     34.7082E-03     35.4343E-03
            1943            2509     31.3028E-03     30.6926E-03
            1943            2510     35.3446E-03     33.6771E-03
            1944            2502     34.7082E-03     35.4343E-03
            1944            2503     45.9752E-03     46.0151E-03
            1944            2510     35.3446E-03     33.6771E-03
            1944            2511     43.7230E-03     40.1718E-03
            1945            2503     45.9752E-03     46.0151E-03
            1945            2504     62.7724E-03     61.7537E-03
            1945            2511     43.7230E-03     40.1718E-03
            1945            2512     56.2794E-03     50.9261E-03
            1946             133     63.5188E-03     57.5025E-03
            1946             134     72.1274E-03     70.3496E-03
            1946            2504     62.7724E-03     61.7537E-03
            1946            2512     56.2794E-03     50.9261E-03
            1947             470     61.8688E-03     59.8987E-03
            1947             471     70.5840E-03     64.7363E-03
            1947            2505     62.4619E-03     57.2127E-03
            1947            2513     58.1394E-03     55.6968E-03
            1948            2505     62.4619E-03     57.2127E-03
            1948            2506     48.5804E-03     44.8814E-03
            1948            2513     58.1394E-03     55.6968E-03
            1948            2514     49.9415E-03     47.0113E-03
            1949            2506     48.5804E-03     44.8814E-03
            1949            2507     38.8206E-03     36.8666E-03
            1949            2514     49.9415E-03     47.0113E-03
            1949            2515     41.6503E-03     38.9870E-03
            1950            2507     38.8206E-03     36.8666E-03
            1950            2508     32.5712E-03     31.8423E-03
            1950            2515     41.6503E-03     38.9870E-03
            1950            2516     35.8261E-03     33.4262E-03
            1951            2508     32.5712E-03     31.8423E-03
            1951            2509     31.3028E-03     30.6926E-03
            1951            2516     35.8261E-03     33.4262E-03
            1951            2517     34.3400E-03     31.7298E-03
            1952            2509     31.3028E-03     30.6926E-03
            1952            2510     35.3446E-03     33.6771E-03
            1952            2517     34.3400E-03     31.7298E-03
            1952            2518     37.6697E-03     34.4086E-03
            1953            2510     35.3446E-03     33.6771E-03
            1953            2511     43.7230E-03     40.1718E-03
            1953            2518     37.6697E-03     34.4086E-03
            1953            2519     44.2928E-03     40.3899E-03
            1954            2511     43.7230E-03     40.1718E-03
            1954            2512     56.2794E-03     50.9261E-03
            1954            2519     44.2928E-03     40.3899E-03
            1954            2520     50.8559E-03     47.5170E-03
            1955             132     53.6104E-03     51.0179E-03
            1955             133     63.5188E-03     57.5025E-03
            1955            2512     56.2794E-03     50.9261E-03
            1955            2520     50.8559E-03     47.5170E-03
            1956             469     69.1824E-03     70.0721E-03
            1956             470     61.8688E-03     59.8987E-03
            1956            2513     58.1394E-03     55.6968E-03
            1956            2521     63.8906E-03     64.9239E-03
            1957            2513     58.1394E-03     55.6968E-03
            1957            2514     49.9415E-03     47.0113E-03
            1957            2521     63.8906E-03     64.9239E-03
            1957            2522     53.1094E-03     53.1454E-03
            1958            2514     49.9415E-03     47.0113E-03
            1958            2515     41.6503E-03     38.9870E-03
            1958            2522     53.1094E-03     53.1454E-03
            1958            2523     42.7399E-03     40.9774E-03
            1959            2515     41.6503E-03     38.9870E-03
            1959            2516     35.8261E-03     33.4262E-03
            1959            2523     42.7399E-03     40.9774E-03
            1959            2524     35.1313E-03     32.2255E-03
            1960            2516     35.8261E-03     33.4262E-03
            1960            2517     34.3400E-03     31.7298E-03
            1960            2524     35.1313E-03     32.2255E-03
            1960            2525     33.2088E-03     29.9722E-03
            1961            2517     34.3400E-03     31.7298E-03
            1961            2518     37.6697E-03     34.4086E-03
            1961            2525     33.2088E-03     29.9722E-03
            1961            2526     37.7276E-03     35.2443E-03
            1962            2518     37.6697E-03     34.4086E-03
            1962            2519     44.2928E-03     40.3899E-03
            1962            2526     37.7276E-03     35.2443E-03
            1962            2527     46.0607E-03     45.6276E-03
            1963            2519     44.2928E-03     40.3899E-03
            1963            2520     50.8559E-03     47.5170E-03
            1963            2527     46.0607E-03     45.6276E-03
            1963            2528     55.5004E-03     56.7565E-03
            1964             131     60.3194E-03     61.8132E-03
            1964             132     53.6104E-03     51.0179E-03
            1964            2520     50.8559E-03     47.5170E-03
            1964            2528     55.5004E-03     56.7565E-03
            1965             468     75.0575E-03     74.6877E-03
            1965             469     69.1824E-03     70.0721E-03
            1965            2521     63.8906E-03     64.9239E-03
            1965            2529     68.3227E-03     68.6795E-03
            1966            2521     63.8906E-03     64.9239E-03
            1966            2522     53.1094E-03     53.1454E-03
            1966            2529     68.3227E-03     68.6795E-03
            1966            2530     55.6272E-03     56.2897E-03
            1967            2522     53.1094E-03     53.1454E-03
            1967            2523     42.7399E-03     40.9774E-03
            1967            2530     55.6272E-03     56.2897E-03
            1967            2531     44.2209E-03     43.4512E-03
            1968            2523     42.7399E-03     40.9774E-03
            1968            2524     35.1313E-03     32.2255E-03
            1968            2531     44.2209E-03     43.4512E-03
            1968            2532     35.6716E-03     33.3287E-03
            1969            2524     35.1313E-03     32.2255E-03
            1969            2525     33.2088E-03     29.9722E-03
            1969            2532     35.6716E-03     33.3287E-03
            1969            2533     33.4371E-03     30.8308E-03
            1970            2525     33.2088E-03     29.9722E-03
            1970            2526     37.7276E-03     35.2443E-03
            1970            2533     33.4371E-03     30.8308E-03
            1970            2534     38.3806E-03     37.2661E-03
            1971            2526     37.7276E-03     35.2443E-03
            1971            2527     46.0607E-03     45.6276E-03
            1971            2534     38.3806E-03     37.2661E-03
            1971            2535     47.7323E-03     48.5027E-03
            1972            2527     46.0607E-03     45.6276E-03
            1972            2528     55.5004E-03     56.7565E-03
            1972            2535     47.7323E-03     48.5027E-03
            1972            2536     59.6442E-03     60.2874E-03
            1973             130     66.2785E-03     66.1027E-03
            1973             131     60.3194E-03     61.8132E-03
            1973            2528     55.5004E-03     56.7565E-03
            1973            2536     59.6442E-03     60.2874E-03
            1974             467     80.3335E-03     79.5191E-03
            1974             468     75.0575E-03     74.6877E-03
            1974            2529     68.3227E-03     68.6795E-03
            1974            2537     72.6663E-03     72.3432E-03
            1975            2529     68.3227E-03     68.6795E-03
            1975            2530     55.6272E-03     56.2897E-03
            1975            2537     72.6663E-03     72.3432E-03
            1975            2538     58.1437E-03     58.3298E-03
            1976            2530     55.6272E-03     56.2897E-03
            1976            2531     44.2209E-03     43.4512E-03
            1976            2538     58.1437E-03     58.3298E-03
            1976            2539     45.5516E-03     45.2118E-03
            1977            2531     44.2209E-03     43.4512E-03
            1977            2532     35.6716E-03     33.3287E-03
            1977            2539     45.5516E-03     45.2118E-03
            1977            2540     36.5073E-03     35.1041E-03
            1978            2532     35.6716E-03     33.3287E-03
            1978            2533     33.4371E-03     30.8308E-03
            1978            2540     36.5073E-03     35.1041E-03
            1978            2541     34.0117E-03     32.5352E-03
            1979            2533     33.4371E-03     30.8308E-03
            1979            2534     38.3806E-03     37.2661E-03
            1979            2541     34.0117E-03     32.5352E-03
            1979            2542     39.1780E-03     38.8802E-03
            1980            2534     38.3806E-03     37.2661E-03
            1980            2535     47.7323E-03     48.5027E-03
            1980            2542     39.1780E-03     38.8802E-03
            1980            2543     49.8426E-03     50.3206E-03
            1981            2535     47.7323E-03     48.5027E-03
            1981            2536     59.6442E-03     60.2874E-03
            1981            2543     49.8426E-03     50.3206E-03
            1981            2544     63.6797E-03     63.7283E-03
            1982             129     71.2063E-03     70.7823E-03
            1982             130     66.2785E-03     66.1027E-03
            1982            2536     59.6442E-03     60.2874E-03
            1982            2544     63.6797E-03     63.7283E-03
            1983             466     85.1981E-03     84.0693E-03
            1983             467     80.3335E-03     79.5191E-03
            1983            2537     72.6663E-03     72.3432E-03
            1983            2545     76.7750E-03     76.1000E-03
            1984            2537     72.6663E-03     72.3432E-03
            1984            2538     58.1437E-03     58.3298E-03
            1984            2545     76.7750E-03     76.1000E-03
            1984            2546     60.8248E-03     60.7427E-03
            1985            2538     58.1437E-03     58.3298E-03
            1985            2539     45.5516E-03     45.2118E-03
            1985            2546     60.8248E-03     60.7427E-03
            1985            2547     47.0540E-03     46.9458E-03
            1986            2539     45.5516E-03     45.2118E-03
            1986            2540     36.5073E-03     35.1041E-03
            1986            2547     47.0540E-03     46.9458E-03
            1986            2548     37.1820E-03     36.7106E-03
            1987            2540     36.5073E-03     35.1041E-03
            1987            2541     34.0117E-03     32.5352E-03
            1987            2548     37.1820E-03     36.7106E-03
            1987            2549     34.5282E-03     34.1250E-03
            1988            2541     34.0117E-03     32.5352E-03
            1988            2542     39.1780E-03     38.8802E-03
            1988            2549     34.5282E-03     34.1250E-03
            1988            2550     40.3557E-03     40.4936E-03
            1989            2542     39.1780E-03     38.8802E-03
            1989            2543     49.8426E-03     50.3206E-03
            1989            2550     40.3557E-03     40.4936E-03
            1989            2551     52.2248E-03     52.5444E-03
            1990            2543     49.8426E-03     50.3206E-03
            1990            2544     63.6797E-03     63.7283E-03
            1990            2551     52.2248E-03     52.5444E-03
            1990            2552     67.5857E-03     67.2664E-03
            1991             128     75.9305E-03     75.0654E-03
            1991             129     71.2063E-03     70.7823E-03
            1991            2544     63.6797E-03     63.7283E-03
            1991            2552     67.5857E-03     67.2664E-03
            1992             465     89.8516E-03     88.5715E-03
            1992             466     85.1981E-03     84.0693E-03
            1992            2545     76.7750E-03     76.1000E-03
            1992            2553     80.8685E-03     80.0423E-03
            1993            2545     76.7750E-03     76.1000E-03
            1993            2546     60.8248E-03     60.7427E-03
            1993            2553     80.8685E-03     80.0423E-03
            1993            2554     63.6626E-03     63.5835E-03
            1994            2546     60.8248E-03     60.7427E-03
            1994            2547     47.0540E-03     46.9458E-03
            1994            2554     63.6626E-03     63.5835E-03
            1994            2555     48.5372E-03     48.8345E-03
            1995            2547     47.0540E-03     46.9458E-03
            1995            2548     37.1820E-03     36.7106E-03
            1995            2555     48.5372E-03     48.8345E-03
            1995            2556     37.8121E-03     38.2586E-03
            1996            2548     37.1820E-03     36.7106E-03
            1996            2549     34.5282E-03     34.1250E-03
            1996            2556     37.8121E-03     38.2586E-03
            1996            2557     35.0245E-03     35.6161E-03
            1997            2549     34.5282E-03     34.1250E-03
            1997            2550     40.3557E-03     40.4936E-03
            1997            2557     35.0245E-03     35.6161E-03
            1997            2558     41.5862E-03     42.2425E-03
            1998            2550     40.3557E-03     40.4936E-03
            1998            2551     52.2248E-03     52.5444E-03
            1998            2558     41.5862E-03     42.2425E-03
            1998            2559     54.8754E-03     55.1947E-03
            1999            2551     52.2248E-03     52.5444E-03
            1999            2552     67.5857E-03     67.2664E-03
            1999            2559     54.8754E-03     55.1947E-03
            1999            2560     71.4988E-03     71.0360E-03
            2000             127     80.3600E-03     79.4376E-03
            2000             128     75.9305E-03     75.0654E-03
            2000            2552     67.5857E-03     67.2664E-03
            2000            2560     71.4988E-03     71.0360E-03
            2001             464     94.6518E-03     93.3285E-03
            2001             465     89.8516E-03     88.5715E-03
            2001            2553     80.8685E-03     80.0423E-03
            2001            2561     85.0014E-03     84.1991E-03
            2002            2553     80.8685E-03     80.0423E-03
            2002            2554     63.6626E-03     63.5835E-03
            2002            2561     85.0014E-03     84.1991E-03
            2002            2562     66.3860E-03     66.5495E-03
            2003            2554     63.6626E-03     63.5835E-03
            2003            2555     48.5372E-03     48.8345E-03
            2003            2562     66.3860E-03     66.5495E-03
            2003            2563     50.0021E-03     50.9857E-03
            2004            2555     48.5372E-03     48.8345E-03
            2004            2556     37.8121E-03     38.2586E-03
            2004            2563     50.0021E-03     50.9857E-03
            2004            2564     38.2519E-03     39.8306E-03
            2005            2556     37.8121E-03     38.2586E-03
            2005            2557     35.0245E-03     35.6161E-03
            2005            2564     38.2519E-03     39.8306E-03
            2005            2565     35.3448E-03     37.0850E-03
            2006            2557     35.0245E-03     35.6161E-03
            2006            2558     41.5862E-03     42.2425E-03
            2006            2565     35.3448E-03     37.0850E-03
            2006            2566     42.8539E-03     44.2006E-03
            2007            2558     41.5862E-03     42.2425E-03
            2007            2559     54.8754E-03     55.1947E-03
            2007            2566     42.8539E-03     44.2006E-03
            2007            2567     57.4372E-03     57.9994E-03
            2008            2559     54.8754E-03     55.1947E-03
            2008            2560     71.4988E-03     71.0360E-03
            2008            2567     57.4372E-03     57.9994E-03
            2008            2568     75.4884E-03     75.0243E-03
            2009             126     85.0414E-03     84.0003E-03
            2009             127     80.3600E-03     79.4376E-03
            2009            2560     71.4988E-03     71.0360E-03
            2009            2568     75.4884E-03     75.0243E-03
            2010             463     99.1129E-03     97.8502E-03
            2010             464     94.6518E-03     93.3285E-03
            2010            2561     85.0014E-03     84.1991E-03
            2010            2569     88.9334E-03     88.4319E-03
            2011            2561     85.0014E-03     84.1991E-03
            2011            2562     66.3860E-03     66.5495E-03
            2011            2569     88.9334E-03     88.4319E-03
            2011            2570     69.2615E-03     70.2006E-03
            2012            2562     66.3860E-03     66.5495E-03
            2012            2563     50.0021E-03     50.9857E-03
            2012            2570     69.2615E-03     70.2006E-03
            2012            2571     51.1668E-03     53.1202E-03
            2013            2563     50.0021E-03     50.9857E-03
            2013            2564     38.2519E-03     39.8306E-03
            2013            2571     51.1668E-03     53.1202E-03
            2013            2572     37.6750E-03     40.2280E-03
            2014            2564     38.2519E-03     39.8306E-03
            2014            2565     35.3448E-03     37.0850E-03
            2014            2572     37.6750E-03     40.2280E-03
            2014            2573     34.7128E-03     37.5011E-03
            2015            2565     35.3448E-03     37.0850E-03
            2015            2566     42.8539E-03     44.2006E-03
            2015            2573     34.7128E-03     37.5011E-03
            2015            2574     43.8753E-03     46.2325E-03
            2016            2566     42.8539E-03     44.2006E-03
            2016            2567     57.4372E-03     57.9994E-03
            2016            2574     43.8753E-03     46.2325E-03
            2016            2575     60.1757E-03     61.4140E-03
            2017            2567     57.4372E-03     57.9994E-03
            2017            2568     75.4884E-03     75.0243E-03
            2017            2575     60.1757E-03     61.4140E-03
            2017            2576     79.2739E-03     79.1214E-03
            2018             125     89.3069E-03     88.4806E-03
            2018             126     85.0414E-03     84.0003E-03
            2018            2568     75.4884E-03     75.0243E-03
            2018            2576     79.2739E-03     79.1214E-03
            2019             462     104.991E-03     104.585E-03
            2019             463     99.1129E-03     97.8502E-03
            2019            2569     88.9334E-03     88.4319E-03
            2019            2577     94.1661E-03     94.5582E-03
            2020            2569     88.9334E-03     88.4319E-03
            2020            2570     69.2615E-03     70.2006E-03
            2020            2577     94.1661E-03     94.5582E-03
            2020            2578     71.5591E-03     72.9069E-03
            2021            2570     69.2615E-03     70.2006E-03
            2021            2571     51.1668E-03     53.1202E-03
            2021            2578     71.5591E-03     72.9069E-03
            2021            2579     50.2080E-03     52.0215E-03
            2022            2571     51.1668E-03     53.1202E-03
            2022            2572     37.6750E-03     40.2280E-03
            2022            2579     50.2080E-03     52.0215E-03
            2022            2580     35.5311E-03     38.2560E-03
            2023            2572     37.6750E-03     40.2280E-03
            2023            2573     34.7128E-03     37.5011E-03
            2023            2580     35.5311E-03     38.2560E-03
            2023            2581     32.4061E-03     35.5332E-03
            2024            2573     34.7128E-03     37.5011E-03
            2024            2574     43.8753E-03     46.2325E-03
            2024            2581     32.4061E-03     35.5332E-03
            2024            2582     42.7460E-03     45.2722E-03
            2025            2574     43.8753E-03     46.2325E-03
            2025            2575     60.1757E-03     61.4140E-03
            2025            2582     42.7460E-03     45.2722E-03
            2025            2583     62.3505E-03     64.1150E-03
            2026            2575     60.1757E-03     61.4140E-03
            2026            2576     79.2739E-03     79.1214E-03
            2026            2583     62.3505E-03     64.1150E-03
            2026            2584     84.3265E-03     84.8890E-03
            2027             124     95.0554E-03     94.7771E-03
            2027             125     89.3069E-03     88.4806E-03
            2027            2576     79.2739E-03     79.1214E-03
            2027            2584     84.3265E-03     84.8890E-03
            2028             461     114.153E-03     110.024E-03
            2028             462     104.991E-03     104.585E-03
            2028            2577     94.1661E-03     94.5582E-03
            2028            2585     98.6859E-03     95.4378E-03
            2029            2577     94.1661E-03     94.5582E-03
            2029            2578     71.5591E-03     72.9069E-03
            2029            2585     98.6859E-03     95.4378E-03
            2029            2586     69.8970E-03     67.8866E-03
            2030            2578     71.5591E-03     72.9069E-03
            2030            2579     50.2080E-03     52.0215E-03
            2030            2586     69.8970E-03     67.8866E-03
            2030            2587     46.7869E-03     46.1174E-03
            2031            2579     50.2080E-03     52.0215E-03
            2031            2580     35.5311E-03     38.2560E-03
            2031            2587     46.7869E-03     46.1174E-03
            2031            2588     30.7125E-03     32.0447E-03
            2032            2580     35.5311E-03     38.2560E-03
            2032            2581     32.4061E-03     35.5332E-03
            2032            2588     30.7125E-03     32.0447E-03
            2032            2589     27.3734E-03     29.3031E-03
            2033            2581     32.4061E-03     35.5332E-03
            2033            2582     42.7460E-03     45.2722E-03
            2033            2589     27.3734E-03     29.3031E-03
            2033            2590     39.0431E-03     39.5980E-03
            2034            2582     42.7460E-03     45.2722E-03
            2034            2583     62.3505E-03     64.1150E-03
            2034            2590     39.0431E-03     39.5980E-03
            2034            2591     60.5456E-03     59.6981E-03
            2035            2583     62.3505E-03     64.1150E-03
            2035            2584     84.3265E-03     84.8890E-03
            2035            2591     60.5456E-03     59.6981E-03
            2035            2592     88.3303E-03     86.1289E-03
            2036             123     103.336E-03     100.228E-03
            2036             124     95.0554E-03     94.7771E-03
            2036            2584     84.3265E-03     84.8890E-03
            2036            2592     88.3303E-03     86.1289E-03
            2037             460     107.396E-03     98.0046E-03
            2037             461     114.153E-03     110.024E-03
            2037            2585     98.6859E-03     95.4378E-03
            2037            2593     92.6508E-03     84.0329E-03
            2038            2585     98.6859E-03     95.4378E-03
            2038            2586     69.8970E-03     67.8866E-03
            2038            2593     92.6508E-03     84.0329E-03
            2038            2594     67.4088E-03     61.0192E-03
            2039            2586     69.8970E-03     67.8866E-03
            2039            2587     46.7869E-03     46.1174E-03
            2039            2594     67.4088E-03     61.0192E-03
            2039            2595     48.0758E-03     44.4783E-03
            2040            2587     46.7869E-03     46.1174E-03
            2040            2588     30.7125E-03     32.0447E-03
            2040            2595     48.0758E-03     44.4783E-03
            2040            2596     33.8254E-03     32.5383E-03
            2041            2588     30.7125E-03     32.0447E-03
            2041            2589     27.3734E-03     29.3031E-03
            2041            2596     33.8254E-03     32.5383E-03
            2041            2597     30.7060E-03     29.7120E-03
            2042            2589     27.3734E-03     29.3031E-03
            2042            2590     39.0431E-03     39.5980E-03
            2042            2597     30.7060E-03     29.7120E-03
            2042            2598     40.5163E-03     37.4341E-03
            2043            2590     39.0431E-03     39.5980E-03
            2043            2591     60.5456E-03     59.6981E-03
            2043            2598     40.5163E-03     37.4341E-03
            2043            2599     58.0134E-03     51.8793E-03
            2044            2591     60.5456E-03     59.6981E-03
            2044            2592     88.3303E-03     86.1289E-03
            2044            2599     58.0134E-03     51.8793E-03
            2044            2600     81.6369E-03     73.0544E-03
            2045             122     95.2788E-03     85.8916E-03
            2045             123     103.336E-03     100.228E-03
            2045            2592     88.3303E-03     86.1289E-03
            2045            2600     81.6369E-03     73.0544E-03
            2046             459     98.9982E-03     95.4716E-03
            2046             460     107.396E-03     98.0046E-03
            2046            2593     92.6508E-03     84.0329E-03
            2046            2601     89.2351E-03     85.3459E-03
            2047            2593     92.6508E-03     84.0329E-03
            2047            2594     67.4088E-03     61.0192E-03
            2047            2601     89.2351E-03     85.3459E-03
            2047            2602     69.8612E-03     65.6219E-03
            2048            2594     67.4088E-03     61.0192E-03
            2048            2595     48.0758E-03     44.4783E-03
            2048            2602     69.8612E-03     65.6219E-03
            2048            2603     51.9187E-03     48.1521E-03
            2049            2595     48.0758E-03     44.4783E-03
            2049            2596     33.8254E-03     32.5383E-03
            2049            2603     51.9187E-03     48.1521E-03
            2049            2604     38.7628E-03     35.4116E-03
            2050            2596     33.8254E-03     32.5383E-03
            2050            2597     30.7060E-03     29.7120E-03
            2050            2604     38.7628E-03     35.4116E-03
            2050            2605     35.4481E-03     31.7668E-03
            2051            2597     30.7060E-03     29.7120E-03
            2051            2598     40.5163E-03     37.4341E-03
            2051            2605     35.4481E-03     31.7668E-03
            2051            2606     43.7956E-03     39.2377E-03
            2052            2598     40.5163E-03     37.4341E-03
            2052            2599     58.0134E-03     51.8793E-03
            2052            2606     43.7956E-03     39.2377E-03
            2052            2607     59.4196E-03     54.1209E-03
            2053            2599     58.0134E-03     51.8793E-03
            2053            2600     81.6369E-03     73.0544E-03
            2053            2607     59.4196E-03     54.1209E-03
            2053            2608     76.9616E-03     72.2229E-03
            2054             121     85.7175E-03     81.6884E-03
            2054             122     95.2788E-03     85.8916E-03
            2054            2600     81.6369E-03     73.0544E-03
            2054            2608     76.9616E-03     72.2229E-03
            2055             458     105.551E-03     106.362E-03
            2055             459     98.9982E-03     95.4716E-03
            2055            2601     89.2351E-03     85.3459E-03
            2055            2609     95.2472E-03     96.5566E-03
            2056            2601     89.2351E-03     85.3459E-03
            2056            2602     69.8612E-03     65.6219E-03
            2056            2609     95.2472E-03     96.5566E-03
            2056            2610     74.0485E-03     74.5029E-03
            2057            2602     69.8612E-03     65.6219E-03
            2057            2603     51.9187E-03     48.1521E-03
            2057            2610     74.0485E-03     74.5029E-03
            2057            2611     53.3203E-03     51.4953E-03
            2058            2603     51.9187E-03     48.1521E-03
            2058            2604     38.7628E-03     35.4116E-03
            2058            2611     53.3203E-03     51.4953E-03
            2058            2612     37.1776E-03     33.4332E-03
            2059            2604     38.7628E-03     35.4116E-03
            2059            2605     35.4481E-03     31.7668E-03
            2059            2612     37.1776E-03     33.4332E-03
            2059            2613     33.0699E-03     28.7589E-03
            2060            2605     35.4481E-03     31.7668E-03
            2060            2606     43.7956E-03     39.2377E-03
            2060            2613     33.0699E-03     28.7589E-03
            2060            2614     43.5540E-03     40.7539E-03
            2061            2606     43.7956E-03     39.2377E-03
            2061            2607     59.4196E-03     54.1209E-03
            2061            2614     43.5540E-03     40.7539E-03
            2061            2615     61.8672E-03     61.8928E-03
            2062            2607     59.4196E-03     54.1209E-03
            2062            2608     76.9616E-03     72.2229E-03
            2062            2615     61.8672E-03     61.8928E-03
            2062            2616     81.9330E-03     83.5652E-03
            2063             120     91.9685E-03     93.4648E-03
            2063             121     85.7175E-03     81.6884E-03
            2063            2608     76.9616E-03     72.2229E-03
            2063            2616     81.9330E-03     83.5652E-03
            2064             457     111.129E-03     110.321E-03
            2064             458     105.551E-03     106.362E-03
            2064            2609     95.2472E-03     96.5566E-03
            2064            2617     99.4982E-03     99.8022E-03
            2065            2609     95.2472E-03     96.5566E-03
            2065            2610     74.0485E-03     74.5029E-03
            2065            2617     99.4982E-03     99.8022E-03
            2065            2618     76.8329E-03     77.9896E-03
            2066            2610     74.0485E-03     74.5029E-03
            2066            2611     53.3203E-03     51.4953E-03
            2066            2618     76.8329E-03     77.9896E-03
            2066            2619     55.0757E-03     54.6527E-03
            2067            2611     53.3203E-03     51.4953E-03
            2067            2612     37.1776E-03     33.4332E-03
            2067            2619     55.0757E-03     54.6527E-03
            2067            2620     37.4424E-03     34.5432E-03
            2068            2612     37.1776E-03     33.4332E-03
            2068            2613     33.0699E-03     28.7589E-03
            2068            2620     37.4424E-03     34.5432E-03
            2068            2621     32.8168E-03     29.4634E-03
            2069            2613     33.0699E-03     28.7589E-03
            2069            2614     43.5540E-03     40.7539E-03
            2069            2621     32.8168E-03     29.4634E-03
            2069            2622     44.1741E-03     43.2496E-03
            2070            2614     43.5540E-03     40.7539E-03
            2070            2615     61.8672E-03     61.8928E-03
            2070            2622     44.1741E-03     43.2496E-03
            2070            2623     63.7691E-03     65.1222E-03
            2071            2615     61.8672E-03     61.8928E-03
            2071            2616     81.9330E-03     83.5652E-03
            2071            2623     63.7691E-03     65.1222E-03
            2071            2624     86.0130E-03     86.6946E-03
            2072             119     97.7347E-03     97.1941E-03
            2072             120     91.9685E-03     93.4648E-03
            2072            2616     81.9330E-03     83.5652E-03
            2072            2624     86.0130E-03     86.6946E-03
            2073             456     116.282E-03     114.976E-03
            2073             457     111.129E-03     110.321E-03
            2073            2617     99.4982E-03     99.8022E-03
            2073            2625     103.790E-03     103.210E-03
            2074            2617     99.4982E-03     99.8022E-03
            2074            2618     76.8329E-03     77.9896E-03
            2074            2625     103.790E-03     103.210E-03
            2074            2626     79.3568E-03     79.6932E-03
            2075            2618     76.8329E-03     77.9896E-03
            2075            2619     55.0757E-03     54.6527E-03
            2075            2626     79.3568E-03     79.6932E-03
            2075            2627     56.4998E-03     56.3939E-03
            2076            2619     55.0757E-03     54.6527E-03
            2076            2620     37.4424E-03     34.5432E-03
            2076            2627     56.4998E-03     56.3939E-03
            2076            2628     38.2994E-03     36.5843E-03
            2077            2620     37.4424E-03     34.5432E-03
            2077            2621     32.8168E-03     29.4634E-03
            2077            2628     38.2994E-03     36.5843E-03
            2077            2629     33.3207E-03     31.4526E-03
            2078            2621     32.8168E-03     29.4634E-03
            2078            2622     44.1741E-03     43.2496E-03
            2078            2629     33.3207E-03     31.4526E-03
            2078            2630     44.9836E-03     44.8877E-03
            2079            2622     44.1741E-03     43.2496E-03
            2079            2623     63.7691E-03     65.1222E-03
            2079            2630     44.9836E-03     44.8877E-03
            2079            2631     65.9196E-03     66.6492E-03
            2080            2623     63.7691E-03     65.1222E-03
            2080            2624     86.0130E-03     86.6946E-03
            2080            2631     65.9196E-03     66.6492E-03
            2080            2632     90.0071E-03     89.9080E-03
            2081             118     102.515E-03     101.711E-03
            2081             119     97.7347E-03     97.1941E-03
            2081            2624     86.0130E-03     86.6946E-03
            2081            2632     90.0071E-03     89.9080E-03
            2082             455     120.864E-03     119.212E-03
            2082             456     116.282E-03     114.976E-03
            2082            2625     103.790E-03     103.210E-03
            2082            2633     107.707E-03     106.710E-03
            2083            2625     103.790E-03     103.210E-03
            2083            2626     79.3568E-03     79.6932E-03
            2083            2633     107.707E-03     106.710E-03
            2083            2634     82.0284E-03     81.9510E-03
            2084            2626     79.3568E-03     79.6932E-03
            2084            2627     56.4998E-03     56.3939E-03
            2084            2634     82.0284E-03     81.9510E-03
            2084            2635     58.0854E-03     58.0859E-03
            2085            2627     56.4998E-03     56.3939E-03
            2085            2628     38.2994E-03     36.5843E-03
            2085            2635     58.0854E-03     58.0859E-03
            2085            2636     39.0434E-03     38.4775E-03
            2086            2628     38.2994E-03     36.5843E-03
            2086            2629     33.3207E-03     31.4526E-03
            2086            2636     39.0434E-03     38.4775E-03
            2086            2637     33.9108E-03     33.4235E-03
            2087            2629     33.3207E-03     31.4526E-03
            2087            2630     44.9836E-03     44.8877E-03
            2087            2637     33.9108E-03     33.4235E-03
            2087            2638     46.2644E-03     46.5767E-03
            2088            2630     44.9836E-03     44.8877E-03
            2088            2631     65.9196E-03     66.6492E-03
            2088            2638     46.2644E-03     46.5767E-03
            2088            2639     68.3243E-03     68.7601E-03
            2089            2631     65.9196E-03     66.6492E-03
            2089            2632     90.0071E-03     89.9080E-03
            2089            2639     68.3243E-03     68.7601E-03
            2089            2640     93.7444E-03     93.2106E-03
            2090             117     106.970E-03     105.685E-03
            2090             118     102.515E-03     101.711E-03
            2090            2632     90.0071E-03     89.9080E-03
            2090            2640     93.7444E-03     93.2106E-03
            2091             454     125.212E-03     123.418E-03
            2091             455     120.864E-03     119.212E-03
            2091            2633     107.707E-03     106.710E-03
            2091            2641     111.572E-03     110.431E-03
            2092            2633     107.707E-03     106.710E-03
            2092            2634     82.0284E-03     81.9510E-03
            2092            2641     111.572E-03     110.431E-03
            2092            2642     84.8063E-03     84.7332E-03
            2093            2634     82.0284E-03     81.9510E-03
            2093            2635     58.0854E-03     58.0859E-03
            2093            2642     84.8063E-03     84.7332E-03
            2093            2643     59.6469E-03     60.0925E-03
            2094            2635     58.0854E-03     58.0859E-03
            2094            2636     39.0434E-03     38.4775E-03
            2094            2643     59.6469E-03     60.0925E-03
            2094            2644     39.8221E-03     40.4489E-03
            2095            2636     39.0434E-03     38.4775E-03
            2095            2637     33.9108E-03     33.4235E-03
            2095            2644     39.8221E-03     40.4489E-03
            2095            2645     34.5640E-03     35.4090E-03
            2096            2637     33.9108E-03     33.4235E-03
            2096            2638     46.2644E-03     46.5767E-03
            2096            2645     34.5640E-03     35.4090E-03
            2096            2646     47.6170E-03     48.5563E-03
            2097            2638     46.2644E-03     46.5767E-03
            2097            2639     68.3243E-03     68.7601E-03
            2097            2646     47.6170E-03     48.5563E-03
            2097            2647     70.9709E-03     71.4128E-03
            2098            2639     68.3243E-03     68.7601E-03
            2098            2640     93.7444E-03     93.2106E-03
            2098            2647     70.9709E-03     71.4128E-03
            2098            2648     97.4559E-03     96.7869E-03
            2099             116     111.107E-03     109.778E-03
            2099             117     106.970E-03     105.685E-03
            2099            2640     93.7444E-03     93.2106E-03
            2099            2648     97.4559E-03     96.7869E-03
            2100             453     129.661E-03     127.882E-03
            2100             454     125.212E-03     123.418E-03
            2100            2641     111.572E-03     110.431E-03
            2100            2649     115.439E-03     114.405E-03
            2101            2641     111.572E-03     110.431E-03
            2101            2642     84.8063E-03     84.7332E-03
            2101            2649     115.439E-03     114.405E-03
            2101            2650     87.4251E-03     87.7344E-03
            2102            2642     84.8063E-03     84.7332E-03
            2102            2643     59.6469E-03     60.0925E-03
            2102            2650     87.4251E-03     87.7344E-03
            2102            2651     61.2050E-03     62.5505E-03
            2103            2643     59.6469E-03     60.0925E-03
            2103            2644     39.8221E-03     40.4489E-03
            2103            2651     61.2050E-03     62.5505E-03
            2103            2652     40.3997E-03     42.5397E-03
            2104            2644     39.8221E-03     40.4489E-03
            2104            2645     34.5640E-03     35.4090E-03
            2104            2652     40.3997E-03     42.5397E-03
            2104            2653     35.0482E-03     37.4721E-03
            2105            2645     34.5640E-03     35.4090E-03
            2105            2646     47.6170E-03     48.5563E-03
            2105            2653     35.0482E-03     37.4721E-03
            2105            2654     49.0500E-03     50.9422E-03
            2106            2646     47.6170E-03     48.5563E-03
            2106            2647     70.9709E-03     71.4128E-03
            2106            2654     49.0500E-03     50.9422E-03
            2106            2655     73.4963E-03     74.3203E-03
            2107            2647     70.9709E-03     71.4128E-03
            2107            2648     97.4559E-03     96.7869E-03
            2107            2655     73.4963E-03     74.3203E-03
            2107            2656     101.212E-03     100.629E-03
            2108             115     115.457E-03     114.076E-03
            2108             116     111.107E-03     109.778E-03
            2108            2648     97.4559E-03     96.7869E-03
            2108            2656     101.212E-03     100.629E-03
            2109             452     133.611E-03     131.976E-03
            2109             453     129.661E-03     127.882E-03
            2109            2649     115.439E-03     114.405E-03
            2109            2657     118.975E-03     118.459E-03
            2110            2649     115.439E-03     114.405E-03
            2110            2650     87.4251E-03     87.7344E-03
            2110            2657     118.975E-03     118.459E-03
            2110            2658     90.2002E-03     91.6101E-03
            2111            2650     87.4251E-03     87.7344E-03
            2111            2651     61.2050E-03     62.5505E-03
            2111            2658     90.2002E-03     91.6101E-03
            2111            2659     62.3967E-03     64.9245E-03
            2112            2651     61.2050E-03     62.5505E-03
            2112            2652     40.3997E-03     42.5397E-03
            2112            2659     62.3967E-03     64.9245E-03
            2112            2660     39.7867E-03     43.1647E-03
            2113            2652     40.3997E-03     42.5397E-03
            2113            2653     35.0482E-03     37.4721E-03
            2113            2660     39.7867E-03     43.1647E-03
            2113            2661     34.4304E-03     38.2468E-03
            2114            2653     35.0482E-03     37.4721E-03
            2114            2654     49.0500E-03     50.9422E-03
            2114            2661     34.4304E-03     38.2468E-03
            2114            2662     50.1897E-03     53.3973E-03
            2115            2654     49.0500E-03     50.9422E-03
            2115            2655     73.4963E-03     74.3203E-03
            2115            2662     50.1897E-03     53.3973E-03
            2115            2663     76.1995E-03     78.0288E-03
            2116            2655     73.4963E-03     74.3203E-03
            2116            2656     101.212E-03     100.629E-03
            2116            2663     76.1995E-03     78.0288E-03
            2116            2664     104.651E-03     104.579E-03
            2117             114     119.263E-03     118.159E-03
            2117             115     115.457E-03     114.076E-03
            2117            2656     101.212E-03     100.629E-03
            2117            2664     104.651E-03     104.579E-03
            2118             451     139.036E-03     138.663E-03
            2118             452     133.611E-03     131.976E-03
            2118            2657     118.975E-03     118.459E-03
            2118            2665     123.906E-03     124.604E-03
            2119            2657     118.975E-03     118.459E-03
            2119            2658     90.2002E-03     91.6101E-03
            2119            2665     123.906E-03     124.604E-03
            2119            2666     92.1680E-03     93.8953E-03
            2120            2658     90.2002E-03     91.6101E-03
            2120            2659     62.3967E-03     64.9245E-03
            2120            2666     92.1680E-03     93.8953E-03
            2120            2667     61.1400E-03     63.1733E-03
            2121            2659     62.3967E-03     64.9245E-03
            2121            2660     39.7867E-03     43.1647E-03
            2121            2667     61.1400E-03     63.1733E-03
            2121            2668     37.4201E-03     40.9182E-03
            2122            2660     39.7867E-03     43.1647E-03
            2122            2661     34.4304E-03     38.2468E-03
            2122            2668     37.4201E-03     40.9182E-03
            2122            2669     31.9000E-03     36.0662E-03
            2123            2661     34.4304E-03     38.2468E-03
            2123            2662     50.1897E-03     53.3973E-03
            2123            2669     31.9000E-03     36.0662E-03
            2123            2670     48.8491E-03     51.9740E-03
            2124            2662     50.1897E-03     53.3973E-03
            2124            2663     76.1995E-03     78.0288E-03
            2124            2670     48.8491E-03     51.9740E-03
            2124            2671     78.1323E-03     80.4373E-03
            2125            2663     76.1995E-03     78.0288E-03
            2125            2664     104.651E-03     104.579E-03
            2125            2671     78.1323E-03     80.4373E-03
            2125            2672     109.380E-03     110.347E-03
            2126             113     124.514E-03     124.370E-03
            2126             114     119.263E-03     118.159E-03
            2126            2664     104.651E-03     104.579E-03
            2126            2672     109.380E-03     110.347E-03
            2127             450     147.940E-03     142.460E-03
            2127             451     139.036E-03     138.663E-03
            2127            2665     123.906E-03     124.604E-03
            2127            2673     127.661E-03     123.101E-03
            2128            2665     123.906E-03     124.604E-03
            2128            2666     92.1680E-03     93.8953E-03
            2128            2673     127.661E-03     123.101E-03
            2128            2674     89.4952E-03     86.2386E-03
            2129            2666     92.1680E-03     93.8953E-03
            2129            2667     61.1400E-03     63.1733E-03
            2129            2674     89.4952E-03     86.2386E-03
            2129            2675     57.1714E-03     55.5752E-03
            2130            2667     61.1400E-03     63.1733E-03
            2130            2668     37.4201E-03     40.9182E-03
            2130            2675     57.1714E-03     55.5752E-03
            2130            2676     31.8272E-03     33.2576E-03
            2131            2668     37.4201E-03     40.9182E-03
            2131            2669     31.9000E-03     36.0662E-03
            2131            2676     31.8272E-03     33.2576E-03
            2131            2677     26.0629E-03     28.3559E-03
            2132            2669     31.9000E-03     36.0662E-03
            2132            2670     48.8491E-03     51.9740E-03
            2132            2677     26.0629E-03     28.3559E-03
            2132            2678     44.7181E-03     44.7180E-03
            2133            2670     48.8491E-03     51.9740E-03
            2133            2671     78.1323E-03     80.4373E-03
            2133            2678     44.7181E-03     44.7180E-03
            2133            2679     75.5703E-03     73.6588E-03
            2134            2671     78.1323E-03     80.4373E-03
            2134            2672     109.380E-03     110.347E-03
            2134            2679     75.5703E-03     73.6588E-03
            2134            2680     112.641E-03     109.277E-03
            2135             112     132.371E-03     128.061E-03
            2135             113     124.514E-03     124.370E-03
            2135            2672     109.380E-03     110.347E-03
            2135            2680     112.641E-03     109.277E-03
            2136             449     141.977E-03     129.497E-03
            2136             450     147.940E-03     142.460E-03
            2136            2673     127.661E-03     123.101E-03
            2136            2681     121.544E-03     109.981E-03
            2137            2673     127.661E-03     123.101E-03
            2137            2674     89.4952E-03     86.2386E-03
            2137            2681     121.544E-03     109.981E-03
            2137            2682     86.4507E-03     77.6757E-03
            2138            2674     89.4952E-03     86.2386E-03
            2138            2675     57.1714E-03     55.5752E-03
            2138            2682     86.4507E-03     77.6757E-03
            2138            2683     58.5715E-03     53.4024E-03
            2139            2675     57.1714E-03     55.5752E-03
            2139            2676     31.8272E-03     33.2576E-03
            2139            2683     58.5715E-03     53.4024E-03
            2139            2684     36.0744E-03     34.1608E-03
            2140            2676     31.8272E-03     33.2576E-03
            2140            2677     26.0629E-03     28.3559E-03
            2140            2684     36.0744E-03     34.1608E-03
            2140            2685     30.8504E-03     29.3495E-03
            2141            2677     26.0629E-03     28.3559E-03
            2141            2678     44.7181E-03     44.7180E-03
            2141            2685     30.8504E-03     29.3495E-03
            2141            2686     46.7269E-03     42.2190E-03
            2142            2678     44.7181E-03     44.7180E-03
            2142            2679     75.5703E-03     73.6588E-03
            2142            2686     46.7269E-03     42.2190E-03
            2142            2687     72.6917E-03     64.2658E-03
            2143            2679     75.5703E-03     73.6588E-03
            2143            2680     112.641E-03     109.277E-03
            2143            2687     72.6917E-03     64.2658E-03
            2143            2688     105.917E-03     94.5481E-03
            2144             111     125.001E-03     112.707E-03
            2144             112     132.371E-03     128.061E-03
            2144            2680     112.641E-03     109.277E-03
            2144            2688     105.917E-03     94.5481E-03
            2145             448     134.092E-03     129.270E-03
            2145             449     141.977E-03     129.497E-03
            2145            2681     121.544E-03     109.981E-03
            2145            2689     119.113E-03     114.078E-03
            2146            2681     121.544E-03     109.981E-03
            2146            2682     86.4507E-03     77.6757E-03
            2146            2689     119.113E-03     114.078E-03
            2146            2690     89.8591E-03     84.6316E-03
            2147            2682     86.4507E-03     77.6757E-03
            2147            2683     58.5715E-03     53.4024E-03
            2147            2690     89.8591E-03     84.6316E-03
            2147            2691     62.9956E-03     58.4230E-03
            2148            2683     58.5715E-03     53.4024E-03
            2148            2684     36.0744E-03     34.1608E-03
            2148            2691     62.9956E-03     58.4230E-03
            2148            2692     42.3543E-03     38.3124E-03
            2149            2684     36.0744E-03     34.1608E-03
            2149            2685     30.8504E-03     29.3495E-03
            2149            2692     42.3543E-03     38.3124E-03
            2149            2693     36.9797E-03     32.5130E-03
            2150            2685     30.8504E-03     29.3495E-03
            2150            2686     46.7269E-03     42.2190E-03
            2150            2693     36.9797E-03     32.5130E-03
            2150            2694     50.5752E-03     45.1151E-03
            2151            2686     46.7269E-03     42.2190E-03
            2151            2687     72.6917E-03     64.2658E-03
            2151            2694     50.5752E-03     45.1151E-03
            2151            2695     74.8695E-03     68.6280E-03
            2152            2687     72.6917E-03     64.2658E-03
            2152            2688     105.917E-03     94.5481E-03
            2152            2695     74.8695E-03     68.6280E-03
            2152            2696     102.156E-03     96.4018E-03
            2153             110     116.065E-03     110.908E-03
            2153             111     125.001E-03     112.707E-03
            2153            2688     105.917E-03     94.5481E-03
            2153            2696     102.156E-03     96.4018E-03
            2154             447     139.856E-03     140.705E-03
            2154             448     134.092E-03     129.270E-03
            2154            2689     119.113E-03     114.078E-03
            2154            2697     125.252E-03     126.893E-03
            2155            2689     119.113E-03     114.078E-03
            2155            2690     89.8591E-03     84.6316E-03
            2155            2697     125.252E-03     126.893E-03
            2155            2698     95.0203E-03     95.9930E-03
            2156            2690     89.8591E-03     84.6316E-03
            2156            2691     62.9956E-03     58.4230E-03
            2156            2698     95.0203E-03     95.9930E-03
            2156            2699     64.9263E-03     63.3643E-03
            2157            2691     62.9956E-03     58.4230E-03
            2157            2692     42.3543E-03     38.3124E-03
            2157            2699     64.9263E-03     63.3643E-03
            2157            2700     40.0633E-03     35.9002E-03
            2158            2692     42.3543E-03     38.3124E-03
            2158            2693     36.9797E-03     32.5130E-03
            2158            2700     40.0633E-03     35.9002E-03
            2158            2701     33.5689E-03     28.6790E-03
            2159            2693     36.9797E-03     32.5130E-03
            2159            2694     50.5752E-03     45.1151E-03
            2159            2701     33.5689E-03     28.6790E-03
            2159            2702     50.3305E-03     47.6749E-03
            2160            2694     50.5752E-03     45.1151E-03
            2160            2695     74.8695E-03     68.6280E-03
            2160            2702     50.3305E-03     47.6749E-03
            2160            2703     78.0108E-03     78.6496E-03
            2161            2695     74.8695E-03     68.6280E-03
            2161            2696     102.156E-03     96.4018E-03
            2161            2703     78.0108E-03     78.6496E-03
            2161            2704     107.299E-03     109.366E-03
            2162             109     121.766E-03     123.401E-03
            2162             110     116.065E-03     110.908E-03
            2162            2696     102.156E-03     96.4018E-03
            2162            2704     107.299E-03     109.366E-03
            2163             446     145.066E-03     143.868E-03
            2163             447     139.856E-03     140.705E-03
            2163            2697     125.252E-03     126.893E-03
            2163            2705     129.241E-03     129.591E-03
            2164            2697     125.252E-03     126.893E-03
            2164            2698     95.0203E-03     95.9930E-03
            2164            2705     129.241E-03     129.591E-03
            2164            2706     97.9371E-03     99.7475E-03
            2165            2698     95.0203E-03     95.9930E-03
            2165            2699     64.9263E-03     63.3643E-03
            2165            2706     97.9371E-03     99.7475E-03
            2165            2707     66.9363E-03     67.2071E-03
            2166            2699     64.9263E-03     63.3643E-03
            2166            2700     40.0633E-03     35.9002E-03
            2166            2707     66.9363E-03     67.2071E-03
            2166            2708     40.2769E-03     37.3541E-03
            2167            2700     40.0633E-03     35.9002E-03
            2167            2701     33.5689E-03     28.6790E-03
            2167            2708     40.2769E-03     37.3541E-03
            2167            2709     33.0391E-03     29.5674E-03
            2168            2701     33.5689E-03     28.6790E-03
            2168            2702     50.3305E-03     47.6749E-03
            2168            2709     33.0391E-03     29.5674E-03
            2168            2710     50.9106E-03     50.6394E-03
            2169            2702     50.3305E-03     47.6749E-03
            2169            2703     78.0108E-03     78.6496E-03
            2169            2710     50.9106E-03     50.6394E-03
            2169            2711     80.0169E-03     82.1261E-03
            2170            2703     78.0108E-03     78.6496E-03
            2170            2704     107.299E-03     109.366E-03
            2170            2711     80.0169E-03     82.1261E-03
            2170            2712     111.200E-03     112.031E-03
            2171             108     127.247E-03     126.430E-03
            2171             109     121.766E-03     123.401E-03
            2171            2704     107.299E-03     109.366E-03
            2171            2712     111.200E-03     112.031E-03
            2172             445     150.064E-03     148.561E-03
            2172             446     145.066E-03     143.868E-03
            2172            2705     129.241E-03     129.591E-03
            2172            2713     133.334E-03     132.770E-03
            2173            2705     129.241E-03     129.591E-03
            2173            2706     97.9371E-03     99.7475E-03
            2173            2713     133.334E-03     132.770E-03
            2173            2714     100.347E-03     101.169E-03
            2174            2706     97.9371E-03     99.7475E-03
            2174            2707     66.9363E-03     67.2071E-03
            2174            2714     100.347E-03     101.169E-03
            2174            2715     68.4846E-03     69.1227E-03
            2175            2707     66.9363E-03     67.2071E-03
            2175            2708     40.2769E-03     37.3541E-03
            2175            2715     68.4846E-03     69.1227E-03
            2175            2716     41.0467E-03     39.6493E-03
            2176            2708     40.2769E-03     37.3541E-03
            2176            2709     33.0391E-03     29.5674E-03
            2176            2716     41.0467E-03     39.6493E-03
            2176            2717     33.4200E-03     31.8636E-03
            2177            2709     33.0391E-03     29.5674E-03
            2177            2710     50.9106E-03     50.6394E-03
            2177            2717     33.4200E-03     31.8636E-03
            2177            2718     51.8087E-03     52.4997E-03
            2178            2710     50.9106E-03     50.6394E-03
            2178            2711     80.0169E-03     82.1261E-03
            2178            2718     51.8087E-03     52.4997E-03
            2178            2719     82.0629E-03     83.3864E-03
            2179            2711     80.0169E-03     82.1261E-03
            2179            2712     111.200E-03     112.031E-03
            2179            2719     82.0629E-03     83.3864E-03
            2179            2720     115.018E-03     115.047E-03
            2180             107     131.902E-03     131.006E-03
            2180             108     127.247E-03     126.430E-03
            2180            2712     111.200E-03     112.031E-03
            2180            2720     115.018E-03     115.047E-03
            2181             444     154.370E-03     152.279E-03
            2181             445     150.064E-03     148.561E-03
            2181            2713     133.334E-03     132.770E-03
            2181            2721     137.145E-03     136.171E-03
            2182            2713     133.334E-03     132.770E-03
            2182            2714     100.347E-03     101.169E-03
            2182            2721     137.145E-03     136.171E-03
            2182            2722     102.995E-03     103.553E-03
            2183            2714     100.347E-03     101.169E-03
            2183            2715     68.4846E-03     69.1227E-03
            2183            2722     102.995E-03     103.553E-03
            2183            2723     69.9330E-03     70.7743E-03
            2184            2715     68.4846E-03     69.1227E-03
            2184            2716     41.0467E-03     39.6493E-03
            2184            2723     69.9330E-03     70.7743E-03
            2184            2724     41.9097E-03     42.1827E-03
            2185            2716     41.0467E-03     39.6493E-03
            2185            2717     33.4200E-03     31.8636E-03
            2185            2724     41.9097E-03     42.1827E-03
            2185            2725     34.1284E-03     34.5537E-03
            2186            2717     33.4200E-03     31.8636E-03
            2186            2718     51.8087E-03     52.4997E-03
            2186            2725     34.1284E-03     34.5537E-03
            2186            2726     52.9629E-03     54.2489E-03
            2187            2718     51.8087E-03     52.4997E-03
            2187            2719     82.0629E-03     83.3864E-03
            2187            2726     52.9629E-03     54.2489E-03
            2187            2727     84.4716E-03     85.6410E-03
            2188            2719     82.0629E-03     83.3864E-03
            2188            2720     115.018E-03     115.047E-03
            2188            2727     84.4716E-03     85.6410E-03
            2188            2728     118.665E-03     118.274E-03
            2189             106     136.079E-03     134.517E-03
            2189             107     131.902E-03     131.006E-03
            2189            2720     115.018E-03     115.047E-03
            2189            2728     118.665E-03     118.274E-03
            2190             443     158.515E-03     156.616E-03
            2190             444     154.370E-03     152.279E-03
            2190            2721     137.145E-03     136.171E-03
            2190            2729     140.702E-03     139.763E-03
            2191            2721     137.145E-03     136.171E-03
            2191            2722     102.995E-03     103.553E-03
            2191            2729     140.702E-03     139.763E-03
            2191            2730     105.426E-03     106.200E-03
            2192            2722     102.995E-03     103.553E-03
            2192            2723     69.9330E-03     70.7743E-03
            2192            2730     105.426E-03     106.200E-03
            2192            2731     71.4465E-03     73.2194E-03
            2193            2723     69.9330E-03     70.7743E-03
            2193            2724     41.9097E-03     42.1827E-03
            2193            2731     71.4465E-03     73.2194E-03
            2193            2732     42.6129E-03     44.8794E-03
            2194            2724     41.9097E-03     42.1827E-03
            2194            2725     34.1284E-03     34.5537E-03
            2194            2732     42.6129E-03     44.8794E-03
            2194            2733     34.7203E-03     37.3362E-03
            2195            2725     34.1284E-03     34.5537E-03
            2195            2726     52.9629E-03     54.2489E-03
            2195            2733     34.7203E-03     37.3362E-03
            2195            2734     54.3322E-03     56.7785E-03
            2196            2726     52.9629E-03     54.2489E-03
            2196            2727     84.4716E-03     85.6410E-03
            2196            2734     54.3322E-03     56.7785E-03
            2196            2735     86.8275E-03     88.2363E-03
            2197            2727     84.4716E-03     85.6410E-03
            2197            2728     118.665E-03     118.274E-03
            2197            2735     86.8275E-03     88.2363E-03
            2197            2736     122.111E-03     121.752E-03
            2198             105     140.087E-03     138.727E-03
            2198             106     136.079E-03     134.517E-03
            2198            2728     118.665E-03     118.274E-03
            2198            2736     122.111E-03     121.752E-03
            2199             442     162.064E-03     160.135E-03
            2199             443     158.515E-03     156.616E-03
            2199            2729     140.702E-03     139.763E-03
            2199            2737     143.934E-03     143.530E-03
            2200            2729     140.702E-03     139.763E-03
            2200            2730     105.426E-03     106.200E-03
            2200            2737     143.934E-03     143.530E-03
            2200            2738     108.021E-03     109.996E-03
            2201            2730     105.426E-03     106.200E-03
            2201            2731     71.4465E-03     73.2194E-03
            2201            2738     108.021E-03     109.996E-03
            2201            2739     72.5729E-03     75.5535E-03
            2202            2731     71.4465E-03     73.2194E-03
            2202            2732     42.6129E-03     44.8794E-03
            2202            2739     72.5729E-03     75.5535E-03
            2202            2740     41.9232E-03     45.7290E-03
            2203            2732     42.6129E-03     44.8794E-03
            2203            2733     34.7203E-03     37.3362E-03
            2203            2740     41.9232E-03     45.7290E-03
            2203            2741     34.0946E-03     38.5212E-03
            2204            2733     34.7203E-03     37.3362E-03
            2204            2734     54.3322E-03     56.7785E-03
            2204            2741     34.0946E-03     38.5212E-03
            2204            2742     55.5024E-03     59.4211E-03
            2205            2734     54.3322E-03     56.7785E-03
            2205            2735     86.8275E-03     88.2363E-03
            2205            2742     55.5024E-03     59.4211E-03
            2205            2743     89.3806E-03     91.9215E-03
            2206            2735     86.8275E-03     88.2363E-03
            2206            2736     122.111E-03     121.752E-03
            2206            2743     89.3806E-03     91.9215E-03
            2206            2744     125.260E-03     125.422E-03
            2207             104     143.513E-03     142.218E-03
            2207             105     140.087E-03     138.727E-03
            2207            2736     122.111E-03     121.752E-03
            2207            2744     125.260E-03     125.422E-03
            2208             441     167.054E-03     166.803E-03
            2208             442     162.064E-03     160.135E-03
            2208            2737     143.934E-03     143.530E-03
            2208            2745     148.538E-03     149.563E-03
            2209            2737     143.934E-03     143.530E-03
            2209            2738     108.021E-03     109.996E-03
            2209            2745     148.538E-03     149.563E-03
            2209            2746     109.679E-03     111.751E-03
            2210            2738     108.021E-03     109.996E-03
            2210            2739     72.5729E-03     75.5535E-03
            2210            2746     109.679E-03     111.751E-03
            2210            2747     71.0380E-03     73.1363E-03
            2211            2739     72.5729E-03     75.5535E-03
            2211            2740     41.9232E-03     45.7290E-03
            2211            2747     71.0380E-03     73.1363E-03
            2211            2748     39.4149E-03     43.3377E-03
            2212            2740     41.9232E-03     45.7290E-03
            2212            2741     34.0946E-03     38.5212E-03
            2212            2748     39.4149E-03     43.3377E-03
            2212            2749     31.4587E-03     36.2877E-03
            2213            2741     34.0946E-03     38.5212E-03
            2213            2742     55.5024E-03     59.4211E-03
            2213            2749     31.4587E-03     36.2877E-03
            2213            2750     54.0083E-03     57.5391E-03
            2214            2742     55.5024E-03     59.4211E-03
            2214            2743     89.3806E-03     91.9215E-03
            2214            2750     54.0083E-03     57.5391E-03
            2214            2751     91.0917E-03     93.9057E-03
            2215            2743     89.3806E-03     91.9215E-03
            2215            2744     125.260E-03     125.422E-03
            2215            2751     91.0917E-03     93.9057E-03
            2215            2752     129.634E-03     131.045E-03
            2216             103     148.272E-03     148.364E-03
            2216             104     143.513E-03     142.218E-03
            2216            2744     125.260E-03     125.422E-03
            2216            2752     129.634E-03     131.045E-03
            2217             440     175.632E-03     169.039E-03
            2217             441     167.054E-03     166.803E-03
            2217            2745     148.538E-03     149.563E-03
            2217            2753     151.607E-03     145.953E-03
            2218            2745     148.538E-03     149.563E-03
            2218            2746     109.679E-03     111.751E-03
            2218            2753     151.607E-03     145.953E-03
            2218            2754     106.148E-03     101.810E-03
            2219            2746     109.679E-03     111.751E-03
            2219            2747     71.0380E-03     73.1363E-03
            2219            2754     106.148E-03     101.810E-03
            2219            2755     66.7137E-03     64.2070E-03
            2220            2747     71.0380E-03     73.1363E-03
            2220            2748     39.4149E-03     43.3377E-03
            2220            2755     66.7137E-03     64.2070E-03
            2220            2756     33.4648E-03     34.7347E-03
            2221            2748     39.4149E-03     43.3377E-03
            2221            2749     31.4587E-03     36.2877E-03
            2221            2756     33.4648E-03     34.7347E-03
            2221            2757     25.3293E-03     27.6526E-03
            2222            2749     31.4587E-03     36.2877E-03
            2222            2750     54.0083E-03     57.5391E-03
            2222            2757     25.3293E-03     27.6526E-03
            2222            2758     49.7544E-03     49.1282E-03
            2223            2750     54.0083E-03     57.5391E-03
            2223            2751     91.0917E-03     93.9057E-03
            2223            2758     49.7544E-03     49.1282E-03
            2223            2759     87.9449E-03     85.1146E-03
            2224            2751     91.0917E-03     93.9057E-03
            2224            2752     129.634E-03     131.045E-03
            2224            2759     87.9449E-03     85.1146E-03
            2224            2760     132.222E-03     127.910E-03
            2225             102     155.622E-03     150.351E-03
            2225             103     148.272E-03     148.364E-03
            2225            2752     129.634E-03     131.045E-03
            2225            2760     132.222E-03     127.910E-03
            2226              21     167.869E-03     160.176E-03
            2226             439     144.711E-03     137.810E-03
            2226             440     175.632E-03     169.039E-03
            2226            2753     151.607E-03     145.953E-03
            2227             438     103.158E-03     97.9935E-03
            2227             439     144.711E-03     137.810E-03
            2227            2753     151.607E-03     145.953E-03
            2227            2754     106.148E-03     101.810E-03
            2228             437     67.9586E-03     64.8035E-03
            2228             438     103.158E-03     97.9935E-03
            2228            2754     106.148E-03     101.810E-03
            2228            2755     66.7137E-03     64.2070E-03
            2229             436     38.1077E-03     37.2156E-03
            2229             437     67.9586E-03     64.8035E-03
            2229            2755     66.7137E-03     64.2070E-03
            2229            2756     33.4648E-03     34.7347E-03
            2230             435     31.4139E-03     31.1233E-03
            2230             436     38.1077E-03     37.2156E-03
            2230            2756     33.4648E-03     34.7347E-03
            2230            2757     25.3293E-03     27.6526E-03
            2231             434     53.5682E-03     51.5590E-03
            2231             435     31.4139E-03     31.1233E-03
            2231            2757     25.3293E-03     27.6526E-03
            2231            2758     49.7544E-03     49.1282E-03
            2232             433     87.3681E-03     83.3753E-03
            2232             434     53.5682E-03     51.5590E-03
            2232            2758     49.7544E-03     49.1282E-03
            2232            2759     87.9449E-03     85.1146E-03
            2233             432     127.721E-03     122.249E-03
            2233             433     87.3681E-03     83.3753E-03
            2233            2759     87.9449E-03     85.1146E-03
            2233            2760     132.222E-03     127.910E-03
            2234               6     150.074E-03     143.988E-03
            2234             102     155.622E-03     150.351E-03
            2234             432     127.721E-03     122.249E-03
            2234            2760     132.222E-03     127.910E-03
            2235               3     12.9759E-03     13.1672E-03
            2235              38     943.637E-06     934.977E-06
            2235             431     14.3582E-03     14.3680E-03
            2235            2761     1.02096E-03     1.02229E-03
            2236             430     16.1323E-03     15.9905E-03
            2236             431     14.3582E-03     14.3680E-03
            2236            2761     1.02096E-03     1.02229E-03
            2236            2762     1.09788E-03     1.10700E-03
            2237             429     17.0625E-03     16.9462E-03
            2237             430     16.1323E-03     15.9905E-03
            2237            2762     1.09788E-03     1.10700E-03
            2237            2763     1.10064E-03     1.10735E-03
            2238             428     17.6622E-03     17.5652E-03
            2238             429     17.0625E-03     16.9462E-03
            2238            2763     1.10064E-03     1.10735E-03
            2238            2764     1.09578E-03     1.10184E-03
            2239             427     17.6321E-03     17.5603E-03
            2239             428     17.6622E-03     17.5652E-03
            2239            2764     1.09578E-03     1.10184E-03
            2239            2765     1.09578E-03     1.10184E-03
            2240             426     16.9828E-03     16.9066E-03
            2240             427     17.6321E-03     17.5603E-03
            2240            2765     1.09578E-03     1.10184E-03
            2240            2766     1.10064E-03     1.10735E-03
            2241             425     15.9375E-03     15.9106E-03
            2241             426     16.9828E-03     16.9066E-03
            2241            2766     1.10064E-03     1.10735E-03
            2241            2767     1.09788E-03     1.10700E-03
            2242             424     14.0010E-03     14.0407E-03
            2242             425     15.9375E-03     15.9106E-03
            2242            2767     1.09788E-03     1.10700E-03
            2242            2768     1.02096E-03     1.02229E-03
            2243              17     12.5521E-03     12.6033E-03
            2243             306     943.637E-06     934.977E-06
            2243             424     14.0010E-03     14.0407E-03
            2243            2768     1.02096E-03     1.02229E-03
            2244              38     943.637E-06     934.977E-06
            2244              39     775.008E-06     783.984E-06
            2244            2761     1.02096E-03     1.02229E-03
            2244            2769     941.441E-06     947.650E-06
            2245            2761     1.02096E-03     1.02229E-03
            2245            2762     1.09788E-03     1.10700E-03
            2245            2769     941.441E-06     947.650E-06
            2245            2770     1.12540E-03     1.13327E-03
            2246            2762     1.09788E-03     1.10700E-03
            2246            2763     1.10064E-03     1.10735E-03
            2246            2770     1.12540E-03     1.13327E-03
            2246            2771     1.12526E-03     1.13545E-03
            2247            2763     1.10064E-03     1.10735E-03
            2247            2764     1.09578E-03     1.10184E-03
            2247            2771     1.12526E-03     1.13545E-03
            2247            2772     1.11206E-03     1.12042E-03
            2248            2764     1.09578E-03     1.10184E-03
            2248            2765     1.09578E-03     1.10184E-03
            2248            2772     1.11206E-03     1.12042E-03
            2248            2773     1.11206E-03     1.12042E-03
            2249            2765     1.09578E-03     1.10184E-03
            2249            2766     1.10064E-03     1.10735E-03
            2249            2773     1.11206E-03     1.12042E-03
            2249            2774     1.12526E-03     1.13545E-03
            2250            2766     1.10064E-03     1.10735E-03
            2250            2767     1.09788E-03     1.10700E-03
            2250            2774     1.12526E-03     1.13545E-03
            2250            2775     1.12540E-03     1.13327E-03
            2251            2767     1.09788E-03     1.10700E-03
            2251            2768     1.02096E-03     1.02229E-03
            2251            2775     1.12540E-03     1.13327E-03
            2251            2776     941.441E-06     947.650E-06
            2252             306     943.637E-06     934.977E-06
            2252             307     775.008E-06     783.984E-06
            2252            2768     1.02096E-03     1.02229E-03
            2252            2776     941.441E-06     947.650E-06
            2253              39     775.008E-06     783.984E-06
            2253              40     763.122E-06     767.976E-06
            2253            2769     941.441E-06     947.650E-06
            2253            2777     915.323E-06     918.678E-06
            2254            2769     941.441E-06     947.650E-06
            2254            2770     1.12540E-03     1.13327E-03
            2254            2777     915.323E-06     918.678E-06
            2254            2778     1.09073E-03     1.09394E-03
            2255            2770     1.12540E-03     1.13327E-03
            2255            2771     1.12526E-03     1.13545E-03
            2255            2778     1.09073E-03     1.09394E-03
            2255            2779     1.12225E-03     1.12803E-03
            2256            2771     1.12526E-03     1.13545E-03
            2256            2772     1.11206E-03     1.12042E-03
            2256            2779     1.12225E-03     1.12803E-03
            2256            2780     1.12473E-03     1.13128E-03
            2257            2772     1.11206E-03     1.12042E-03
            2257            2773     1.11206E-03     1.12042E-03
            2257            2780     1.12473E-03     1.13128E-03
            2257            2781     1.12473E-03     1.13128E-03
            2258            2773     1.11206E-03     1.12042E-03
            2258            2774     1.12526E-03     1.13545E-03
            2258            2781     1.12473E-03     1.13128E-03
            2258            2782     1.12225E-03     1.12803E-03
            2259            2774     1.12526E-03     1.13545E-03
            2259            2775     1.12540E-03     1.13327E-03
            2259            2782     1.12225E-03     1.12803E-03
            2259            2783     1.09073E-03     1.09394E-03
            2260            2775     1.12540E-03     1.13327E-03
            2260            2776     941.441E-06     947.650E-06
            2260            2783     1.09073E-03     1.09394E-03
            2260            2784     915.323E-06     918.678E-06
            2261             307     775.008E-06     783.984E-06
            2261             308     763.122E-06     767.976E-06
            2261            2776     941.441E-06     947.650E-06
            2261            2784     915.323E-06     918.678E-06
            2262               4     799.683E-06     798.528E-06
            2262              40     763.122E-06     767.976E-06
            2262             496     920.464E-06     923.293E-06
            2262            2777     915.323E-06     918.678E-06
            2263             495     1.05995E-03     1.06241E-03
            2263             496     920.464E-06     923.293E-06
            2263            2777     915.323E-06     918.678E-06
            2263            2778     1.09073E-03     1.09394E-03
            2264             494     1.11366E-03     1.11550E-03
            2264             495     1.05995E-03     1.06241E-03
            2264            2778     1.09073E-03     1.09394E-03
            2264            2779     1.12225E-03     1.12803E-03
            2265             493     1.13145E-03     1.13604E-03
            2265             494     1.11366E-03     1.11550E-03
            2265            2779     1.12225E-03     1.12803E-03
            2265            2780     1.12473E-03     1.13128E-03
            2266             492     1.13145E-03     1.13604E-03
            2266             493     1.13145E-03     1.13604E-03
            2266            2780     1.12473E-03     1.13128E-03
            2266            2781     1.12473E-03     1.13128E-03
            2267             491     1.11366E-03     1.11550E-03
            2267             492     1.13145E-03     1.13604E-03
            2267            2781     1.12473E-03     1.13128E-03
            2267            2782     1.12225E-03     1.12803E-03
            2268             490     1.05995E-03     1.06241E-03
            2268             491     1.11366E-03     1.11550E-03
            2268            2782     1.12225E-03     1.12803E-03
            2268            2783     1.09073E-03     1.09394E-03
            2269             489     920.464E-06     923.293E-06
            2269             490     1.05995E-03     1.06241E-03
            2269            2783     1.09073E-03     1.09394E-03
            2269            2784     915.323E-06     918.678E-06
            2270              18     799.683E-06     798.528E-06
            2270             308     763.122E-06     767.976E-06
            2270             489     920.464E-06     923.293E-06
            2270            2784     915.323E-06     918.678E-06
            3851              22     165.771E-03     173.814E-03
            3851             609     136.813E-03     144.014E-03
            3851             629     169.123E-03     165.130E-03
            3851            4163     143.397E-03     141.291E-03
            3852             609     136.813E-03     144.014E-03
            3852             610     87.7016E-03     94.9358E-03
            3852            4163     143.397E-03     141.291E-03
            3852            4164     95.4415E-03     95.5496E-03
            3853             610     87.7016E-03     94.9358E-03
            3853             611     49.0755E-03     57.9484E-03
            3853            4164     95.4415E-03     95.5496E-03
            3853            4165     55.4371E-03     56.6138E-03
            3854             611     49.0755E-03     57.9484E-03
            3854             612     21.6181E-03     26.2250E-03
            3854            4165     55.4371E-03     56.6138E-03
            3854            4166     29.4304E-03     30.9689E-03
            3855             612     21.6181E-03     26.2250E-03
            3855             613     29.4557E-03     24.6213E-03
            3855            4166     29.4304E-03     30.9689E-03
            3855            4167     36.0586E-03     36.0443E-03
            3856             613     29.4557E-03     24.6213E-03
            3856             614     64.9250E-03     55.1082E-03
            3856            4167     36.0586E-03     36.0443E-03
            3856            4168     69.3281E-03     67.3301E-03
            3857             614     64.9250E-03     55.1082E-03
            3857             615     103.980E-03     92.3176E-03
            3857            4168     69.3281E-03     67.3301E-03
            3857            4169     110.261E-03     107.292E-03
            3858             615     103.980E-03     92.3176E-03
            3858             616     154.628E-03     140.469E-03
            3858            4169     110.261E-03     107.292E-03
            3858            4170     158.673E-03     154.007E-03
            3859               8     184.867E-03     169.487E-03
            3859             182     184.561E-03     178.359E-03
            3859             616     154.628E-03     140.469E-03
            3859            4170     158.673E-03     154.007E-03
            3860             628     160.313E-03     161.655E-03
            3860             629     169.123E-03     165.130E-03
            3860            4163     143.397E-03     141.291E-03
            3860            4171     140.718E-03     144.163E-03
            3861            4163     143.397E-03     141.291E-03
            3861            4164     95.4415E-03     95.5496E-03
            3861            4171     140.718E-03     144.163E-03
            3861            4172     100.211E-03     105.614E-03
            3862            4164     95.4415E-03     95.5496E-03
            3862            4165     55.4371E-03     56.6138E-03
            3862            4172     100.211E-03     105.614E-03
            3862            4173     61.4508E-03     65.6626E-03
            3863            4165     55.4371E-03     56.6138E-03
            3863            4166     29.4304E-03     30.9689E-03
            3863            4173     61.4508E-03     65.6626E-03
            3863            4174     36.8547E-03     39.0527E-03
            3864            4166     29.4304E-03     30.9689E-03
            3864            4167     36.0586E-03     36.0443E-03
            3864            4174     36.8547E-03     39.0527E-03
            3864            4175     42.9407E-03     44.3603E-03
            3865            4167     36.0586E-03     36.0443E-03
            3865            4168     69.3281E-03     67.3301E-03
            3865            4175     42.9407E-03     44.3603E-03
            3865            4176     74.5669E-03     77.2066E-03
            3866            4168     69.3281E-03     67.3301E-03
            3866            4169     110.261E-03     107.292E-03
            3866            4176     74.5669E-03     77.2066E-03
            3866            4177     114.481E-03     118.724E-03
            3867            4169     110.261E-03     107.292E-03
            3867            4170     158.673E-03     154.007E-03
            3867            4177     114.481E-03     118.724E-03
            3867            4178     154.885E-03     157.804E-03
            3868             181     174.167E-03     175.190E-03
            3868             182     184.561E-03     178.359E-03
            3868            4170     158.673E-03     154.007E-03
            3868            4178     154.885E-03     157.804E-03
            3869             627     152.889E-03     153.640E-03
            3869             628     160.313E-03     161.655E-03
            3869            4171     140.718E-03     144.163E-03
            3869            4179     134.854E-03     138.229E-03
            3870            4171     140.718E-03     144.163E-03
            3870            4172     100.211E-03     105.614E-03
            3870            4179     134.854E-03     138.229E-03
            3870            4180     99.3846E-03     105.224E-03
            3871            4172     100.211E-03     105.614E-03
            3871            4173     61.4508E-03     65.6626E-03
            3871            4180     99.3846E-03     105.224E-03
            3871            4181     64.6094E-03     68.1742E-03
            3872            4173     61.4508E-03     65.6626E-03
            3872            4174     36.8547E-03     39.0527E-03
            3872            4181     64.6094E-03     68.1742E-03
            3872            4182     40.5783E-03     41.0606E-03
            3873            4174     36.8547E-03     39.0527E-03
            3873            4175     42.9407E-03     44.3603E-03
            3873            4182     40.5783E-03     41.0606E-03
            3873            4183     46.0110E-03     46.5634E-03
            3874            4175     42.9407E-03     44.3603E-03
            3874            4176     74.5669E-03     77.2066E-03
            3874            4183     46.0110E-03     46.5634E-03
            3874            4184     76.7713E-03     80.3737E-03
            3875            4176     74.5669E-03     77.2066E-03
            3875            4177     114.481E-03     118.724E-03
            3875            4184     76.7713E-03     80.3737E-03
            3875            4185     113.132E-03     118.718E-03
            3876            4177     114.481E-03     118.724E-03
            3876            4178     154.885E-03     157.804E-03
            3876            4185     113.132E-03     118.718E-03
            3876            4186     148.630E-03     151.552E-03
            3877             180     166.407E-03     166.692E-03
            3877             181     174.167E-03     175.190E-03
            3877            4178     154.885E-03     157.804E-03
            3877            4186     148.630E-03     151.552E-03
            3878             626     146.830E-03     149.553E-03
            3878             627     152.889E-03     153.640E-03
            3878            4179     134.854E-03     138.229E-03
            3878            4187     130.417E-03     133.938E-03
            3879            4179     134.854E-03     138.229E-03
            3879            4180     99.3846E-03     105.224E-03
            3879            4187     130.417E-03     133.938E-03
            3879            4188     96.7814E-03     99.1828E-03
            3880            4180     99.3846E-03     105.224E-03
            3880            4181     64.6094E-03     68.1742E-03
            3880            4188     96.7814E-03     99.1828E-03
            3880            4189     64.4590E-03     63.9875E-03
            3881            4181     64.6094E-03     68.1742E-03
            3881            4182     40.5783E-03     41.0606E-03
            3881            4189     64.4590E-03     63.9875E-03
            3881            4190     43.2822E-03     41.4340E-03
            3882            4182     40.5783E-03     41.0606E-03
            3882            4183     46.0110E-03     46.5634E-03
            3882            4190     43.2822E-03     41.4340E-03
            3882            4191     48.0537E-03     46.8815E-03
            3883            4183     46.0110E-03     46.5634E-03
            3883            4184     76.7713E-03     80.3737E-03
            3883            4191     48.0537E-03     46.8815E-03
            3883            4192     75.2007E-03     76.0807E-03
            3884            4184     76.7713E-03     80.3737E-03
            3884            4185     113.132E-03     118.718E-03
            3884            4192     75.2007E-03     76.0807E-03
            3884            4193     109.456E-03     112.708E-03
            3885            4185     113.132E-03     118.718E-03
            3885            4186     148.630E-03     151.552E-03
            3885            4193     109.456E-03     112.708E-03
            3885            4194     144.007E-03     147.328E-03
            3886             179     160.601E-03     162.575E-03
            3886             180     166.407E-03     166.692E-03
            3886            4186     148.630E-03     151.552E-03
            3886            4194     144.007E-03     147.328E-03
            3887             625     139.464E-03     133.922E-03
            3887             626     146.830E-03     149.553E-03
            3887            4187     130.417E-03     133.938E-03
            3887            4195     123.649E-03     117.741E-03
            3888            4187     130.417E-03     133.938E-03
            3888            4188     96.7814E-03     99.1828E-03
            3888            4195     123.649E-03     117.741E-03
            3888            4196     92.4369E-03     86.5351E-03
            3889            4188     96.7814E-03     99.1828E-03
            3889            4189     64.4590E-03     63.9875E-03
            3889            4196     92.4369E-03     86.5351E-03
            3889            4197     64.5062E-03     60.0141E-03
            3890            4189     64.4590E-03     63.9875E-03
            3890            4190     43.2822E-03     41.4340E-03
            3890            4197     64.5062E-03     60.0141E-03
            3890            4198     47.8928E-03     45.0880E-03
            3891            4190     43.2822E-03     41.4340E-03
            3891            4191     48.0537E-03     46.8815E-03
            3891            4198     47.8928E-03     45.0880E-03
            3891            4199     51.6452E-03     49.6827E-03
            3892            4191     48.0537E-03     46.8815E-03
            3892            4192     75.2007E-03     76.0807E-03
            3892            4199     51.6452E-03     49.6827E-03
            3892            4200     73.2456E-03     70.7527E-03
            3893            4192     75.2007E-03     76.0807E-03
            3893            4193     109.456E-03     112.708E-03
            3893            4200     73.2456E-03     70.7527E-03
            3893            4201     103.016E-03     99.5865E-03
            3894            4193     109.456E-03     112.708E-03
            3894            4194     144.007E-03     147.328E-03
            3894            4201     103.016E-03     99.5865E-03
            3894            4202     135.802E-03     131.885E-03
            3895             178     152.584E-03     148.395E-03
            3895             179     160.601E-03     162.575E-03
            3895            4194     144.007E-03     147.328E-03
            3895            4202     135.802E-03     131.885E-03
            3896              25     134.015E-03     125.703E-03
            3896             624     117.209E-03     109.497E-03
            3896             625     139.464E-03     133.922E-03
            3896            4195     123.649E-03     117.741E-03
            3897             623     85.4911E-03     80.0159E-03
            3897             624     117.209E-03     109.497E-03
            3897            4195     123.649E-03     117.741E-03
            3897            4196     92.4369E-03     86.5351E-03
            3898             622     57.2363E-03     54.2720E-03
            3898             623     85.4911E-03     80.0159E-03
            3898            4196     92.4369E-03     86.5351E-03
            3898            4197     64.5062E-03     60.0141E-03
            3899             621     38.1327E-03     36.7599E-03
            3899             622     57.2363E-03     54.2720E-03
            3899            4197     64.5062E-03     60.0141E-03
            3899            4198     47.8928E-03     45.0880E-03
            3900             620     41.9787E-03     40.9948E-03
            3900             621     38.1327E-03     36.7599E-03
            3900            4198     47.8928E-03     45.0880E-03
            3900            4199     51.6452E-03     49.6827E-03
            3901             619     65.8901E-03     63.8727E-03
            3901             620     41.9787E-03     40.9948E-03
            3901            4199     51.6452E-03     49.6827E-03
            3901            4200     73.2456E-03     70.7527E-03
            3902             618     95.3060E-03     91.2120E-03
            3902             619     65.8901E-03     63.8727E-03
            3902            4200     73.2456E-03     70.7527E-03
            3902            4201     103.016E-03     99.5865E-03
            3903             617     127.693E-03     121.970E-03
            3903             618     95.3060E-03     91.2120E-03
            3903            4201     103.016E-03     99.5865E-03
            3903            4202     135.802E-03     131.885E-03
            3904              10     144.970E-03     138.989E-03
            3904             178     152.584E-03     148.395E-03
            3904             617     127.693E-03     121.970E-03
            3904            4202     135.802E-03     131.885E-03
            3905              21     167.869E-03     160.176E-03
            3905             439     144.711E-03     137.810E-03
            3905             520     162.724E-03     136.853E-03
            3905            4203     142.757E-03     119.847E-03
            3906             438     103.158E-03     97.9935E-03
            3906             439     144.711E-03     137.810E-03
            3906            4203     142.757E-03     119.847E-03
            3906            4204     105.735E-03     89.2084E-03
            3907             437     67.9586E-03     64.8035E-03
            3907             438     103.158E-03     97.9935E-03
            3907            4204     105.735E-03     89.2084E-03
            3907            4205     73.3447E-03     61.9567E-03
            3908             436     38.1077E-03     37.2156E-03
            3908             437     67.9586E-03     64.8035E-03
            3908            4205     73.3447E-03     61.9567E-03
            3908            4206     49.1367E-03     43.6327E-03
            3909             435     31.4139E-03     31.1233E-03
            3909             436     38.1077E-03     37.2156E-03
            3909            4206     49.1367E-03     43.6327E-03
            3909            4207     43.4507E-03     44.2903E-03
            3910             434     53.5682E-03     51.5590E-03
            3910             435     31.4139E-03     31.1233E-03
            3910            4207     43.4507E-03     44.2903E-03
            3910            4208     60.7047E-03     63.2886E-03
            3911             433     87.3681E-03     83.3753E-03
            3911             434     53.5682E-03     51.5590E-03
            3911            4208     60.7047E-03     63.2886E-03
            3911            4209     90.7305E-03     91.1737E-03
            3912             432     127.721E-03     122.249E-03
            3912             433     87.3681E-03     83.3753E-03
            3912            4209     90.7305E-03     91.1737E-03
            3912            4210     125.666E-03     123.273E-03
            3913               6     150.074E-03     143.988E-03
            3913             166     144.643E-03     141.123E-03
            3913             432     127.721E-03     122.249E-03
            3913            4210     125.666E-03     123.273E-03
            3914             520     162.724E-03     136.853E-03
            3914             521     161.169E-03     142.993E-03
            3914            4203     142.757E-03     119.847E-03
            3914            4211     143.590E-03     123.441E-03
            3915            4203     142.757E-03     119.847E-03
            3915            4204     105.735E-03     89.2084E-03
            3915            4211     143.590E-03     123.441E-03
            3915            4212     108.160E-03     87.1047E-03
            3916            4204     105.735E-03     89.2084E-03
            3916            4205     73.3447E-03     61.9567E-03
            3916            4212     108.160E-03     87.1047E-03
            3916            4213     73.8867E-03     56.4767E-03
            3917            4205     73.3447E-03     61.9567E-03
            3917            4206     49.1367E-03     43.6327E-03
            3917            4213     73.8867E-03     56.4767E-03
            3917            4214     47.3093E-03     37.7346E-03
            3918            4206     49.1367E-03     43.6327E-03
            3918            4207     43.4507E-03     44.2903E-03
            3918            4214     47.3093E-03     37.7346E-03
            3918            4215     42.6305E-03     42.9139E-03
            3919            4207     43.4507E-03     44.2903E-03
            3919            4208     60.7047E-03     63.2886E-03
            3919            4215     42.6305E-03     42.9139E-03
            3919            4216     63.4644E-03     68.0239E-03
            3920            4208     60.7047E-03     63.2886E-03
            3920            4209     90.7305E-03     91.1737E-03
            3920            4216     63.4644E-03     68.0239E-03
            3920            4217     96.5497E-03     99.7362E-03
            3921            4209     90.7305E-03     91.1737E-03
            3921            4210     125.666E-03     123.273E-03
            3921            4217     96.5497E-03     99.7362E-03
            3921            4218     133.816E-03     134.264E-03
            3922             165     153.353E-03     152.111E-03
            3922             166     144.643E-03     141.123E-03
            3922            4210     125.666E-03     123.273E-03
            3922            4218     133.816E-03     134.264E-03
            3923             521     161.169E-03     142.993E-03
            3923             522     156.048E-03     164.247E-03
            3923            4211     143.590E-03     123.441E-03
            3923            4219     141.057E-03     146.192E-03
            3924            4211     143.590E-03     123.441E-03
            3924            4212     108.160E-03     87.1047E-03
            3924            4219     141.057E-03     146.192E-03
            3924            4220     107.897E-03     106.262E-03
            3925            4212     108.160E-03     87.1047E-03
            3925            4213     73.8867E-03     56.4767E-03
            3925            4220     107.897E-03     106.262E-03
            3925            4221     70.7991E-03     64.8319E-03
            3926            4213     73.8867E-03     56.4767E-03
            3926            4214     47.3093E-03     37.7346E-03
            3926            4221     70.7991E-03     64.8319E-03
            3926            4222     40.1013E-03     33.7262E-03
            3927            4214     47.3093E-03     37.7346E-03
            3927            4215     42.6305E-03     42.9139E-03
            3927            4222     40.1013E-03     33.7262E-03
            3927            4223     38.6714E-03     35.8455E-03
            3928            4215     42.6305E-03     42.9139E-03
            3928            4216     63.4644E-03     68.0239E-03
            3928            4223     38.6714E-03     35.8455E-03
            3928            4224     67.2805E-03     69.6710E-03
            3929            4216     63.4644E-03     68.0239E-03
            3929            4217     96.5497E-03     99.7362E-03
            3929            4224     67.2805E-03     69.6710E-03
            3929            4225     104.907E-03     110.469E-03
            3930            4217     96.5497E-03     99.7362E-03
            3930            4218     133.816E-03     134.264E-03
            3930            4225     104.907E-03     110.469E-03
            3930            4226     141.993E-03     146.602E-03
            3931             164     159.721E-03     162.092E-03
            3931             165     153.353E-03     152.111E-03
            3931            4218     133.816E-03     134.264E-03
            3931            4226     141.993E-03     146.602E-03
            3932             522     156.048E-03     164.247E-03
            3932             523     167.134E-03     164.592E-03
            3932            4219     141.057E-03     146.192E-03
            3932            4227     146.098E-03     150.040E-03
            3933            4219     141.057E-03     146.192E-03
            3933            4220     107.897E-03     106.262E-03
            3933            4227     146.098E-03     150.040E-03
            3933            4228     103.840E-03     113.657E-03
            3934            4220     107.897E-03     106.262E-03
            3934            4221     70.7991E-03     64.8319E-03
            3934            4228     103.840E-03     113.657E-03
            3934            4229     63.4080E-03     69.6396E-03
            3935            4221     70.7991E-03     64.8319E-03
            3935            4222     40.1013E-03     33.7262E-03
            3935            4229     63.4080E-03     69.6396E-03
            3935            4230     33.6900E-03     32.7681E-03
            3936            4222     40.1013E-03     33.7262E-03
            3936            4223     38.6714E-03     35.8455E-03
            3936            4230     33.6900E-03     32.7681E-03
            3936            4231     35.9298E-03     31.1079E-03
            3937            4223     38.6714E-03     35.8455E-03
            3937            4224     67.2805E-03     69.6710E-03
            3937            4231     35.9298E-03     31.1079E-03
            3937            4232     68.2093E-03     66.1108E-03
            3938            4224     67.2805E-03     69.6710E-03
            3938            4225     104.907E-03     110.469E-03
            3938            4232     68.2093E-03     66.1108E-03
            3938            4233     108.336E-03     110.639E-03
            3939            4225     104.907E-03     110.469E-03
            3939            4226     141.993E-03     146.602E-03
            3939            4233     108.336E-03     110.639E-03
            3939            4234     147.415E-03     150.204E-03
            3940             163     165.901E-03     167.218E-03
            3940             164     159.721E-03     162.092E-03
            3940            4226     141.993E-03     146.602E-03
            3940            4234     147.415E-03     150.204E-03
            3941             523     167.134E-03     164.592E-03
            3941             524     166.488E-03     175.759E-03
            3941            4227     146.098E-03     150.040E-03
            3941            4235     140.429E-03     152.819E-03
            3942            4227     146.098E-03     150.040E-03
            3942            4228     103.840E-03     113.657E-03
            3942            4235     140.429E-03     152.819E-03
            3942            4236     92.3494E-03     108.490E-03
            3943            4228     103.840E-03     113.657E-03
            3943            4229     63.4080E-03     69.6396E-03
            3943            4236     92.3494E-03     108.490E-03
            3943            4237     52.1684E-03     67.4005E-03
            3944            4229     63.4080E-03     69.6396E-03
            3944            4230     33.6900E-03     32.7681E-03
            3944            4237     52.1684E-03     67.4005E-03
            3944            4238     24.5585E-03     29.9557E-03
            3945            4230     33.6900E-03     32.7681E-03
            3945            4231     35.9298E-03     31.1079E-03
            3945            4238     24.5585E-03     29.9557E-03
            3945            4239     31.0159E-03     24.0697E-03
            3946            4231     35.9298E-03     31.1079E-03
            3946            4232     68.2093E-03     66.1108E-03
            3946            4239     31.0159E-03     24.0697E-03
            3946            4240     65.4688E-03     55.4396E-03
            3947            4232     68.2093E-03     66.1108E-03
            3947            4233     108.336E-03     110.639E-03
            3947            4240     65.4688E-03     55.4396E-03
            3947            4241     105.155E-03     97.2028E-03
            3948            4233     108.336E-03     110.639E-03
            3948            4234     147.415E-03     150.204E-03
            3948            4241     105.155E-03     97.2028E-03
            3948            4242     150.666E-03     143.768E-03
            3949             162     175.036E-03     168.081E-03
            3949             163     165.901E-03     167.218E-03
            3949            4234     147.415E-03     150.204E-03
            3949            4242     150.666E-03     143.768E-03
            3950              22     165.771E-03     173.814E-03
            3950             524     166.488E-03     175.759E-03
            3950             609     136.813E-03     144.014E-03
            3950            4235     140.429E-03     152.819E-03
            3951             609     136.813E-03     144.014E-03
            3951             610     87.7016E-03     94.9358E-03
            3951            4235     140.429E-03     152.819E-03
            3951            4236     92.3494E-03     108.490E-03
            3952             610     87.7016E-03     94.9358E-03
            3952             611     49.0755E-03     57.9484E-03
            3952            4236     92.3494E-03     108.490E-03
            3952            4237     52.1684E-03     67.4005E-03
            3953             611     49.0755E-03     57.9484E-03
            3953             612     21.6181E-03     26.2250E-03
            3953            4237     52.1684E-03     67.4005E-03
            3953            4238     24.5585E-03     29.9557E-03
            3954             612     21.6181E-03     26.2250E-03
            3954             613     29.4557E-03     24.6213E-03
            3954            4238     24.5585E-03     29.9557E-03
            3954            4239     31.0159E-03     24.0697E-03
            3955             613     29.4557E-03     24.6213E-03
            3955             614     64.9250E-03     55.1082E-03
            3955            4239     31.0159E-03     24.0697E-03
            3955            4240     65.4688E-03     55.4396E-03
            3956             614     64.9250E-03     55.1082E-03
            3956             615     103.980E-03     92.3176E-03
            3956            4240     65.4688E-03     55.4396E-03
            3956            4241     105.155E-03     97.2028E-03
            3957             615     103.980E-03     92.3176E-03
            3957             616     154.628E-03     140.469E-03
            3957            4241     105.155E-03     97.2028E-03
            3957            4242     150.666E-03     143.768E-03
            3958               8     184.867E-03     169.487E-03
            3958             162     175.036E-03     168.081E-03
            3958             616     154.628E-03     140.469E-03
            3958            4242     150.666E-03     143.768E-03
            5325              13     14.9183E-03     14.9704E-03
            5325             194     1.18535E-03     1.16306E-03
            5325             792     16.8074E-03     16.7691E-03
            5325            5425     1.16806E-03     1.16223E-03
            5326             792     16.8074E-03     16.7691E-03
            5326             793     19.2372E-03     19.1332E-03
            5326            5425     1.16806E-03     1.16223E-03
            5326            5426     1.12828E-03     1.13967E-03
            5327             793     19.2372E-03     19.1332E-03
            5327             794     20.2943E-03     20.2246E-03
            5327            5426     1.12828E-03     1.13967E-03
            5327            5427     1.11482E-03     1.12656E-03
            5328             794     20.2943E-03     20.2246E-03
            5328             795     20.9755E-03     20.9371E-03
            5328            5427     1.11482E-03     1.12656E-03
            5328            5428     1.12249E-03     1.13380E-03
            5329             795     20.9755E-03     20.9371E-03
            5329             796     20.9620E-03     20.9398E-03
            5329            5428     1.12249E-03     1.13380E-03
            5329            5429     1.12249E-03     1.13380E-03
            5330             796     20.9620E-03     20.9398E-03
            5330             797     20.2618E-03     20.2218E-03
            5330            5429     1.12249E-03     1.13380E-03
            5330            5430     1.11482E-03     1.12656E-03
            5331             797     20.2618E-03     20.2218E-03
            5331             798     19.1459E-03     19.1274E-03
            5331            5430     1.11482E-03     1.12656E-03
            5331            5431     1.12828E-03     1.13967E-03
            5332             798     19.1459E-03     19.1274E-03
            5332             799     16.6440E-03     16.6325E-03
            5332            5431     1.12828E-03     1.13967E-03
            5332            5432     1.16806E-03     1.16223E-03
            5333              15     14.7361E-03     14.6978E-03
            5333             765     1.18535E-03     1.16306E-03
            5333             799     16.6440E-03     16.6325E-03
            5333            5432     1.16806E-03     1.16223E-03
            5334             194     1.18535E-03     1.16306E-03
            5334             195     915.744E-06     919.222E-06
            5334            5425     1.16806E-03     1.16223E-03
            5334            5433     1.00679E-03     1.01351E-03
            5335            5425     1.16806E-03     1.16223E-03
            5335            5426     1.12828E-03     1.13967E-03
            5335            5433     1.00679E-03     1.01351E-03
            5335            5434     1.13211E-03     1.14625E-03
            5336            5426     1.12828E-03     1.13967E-03
            5336            5427     1.11482E-03     1.12656E-03
            5336            5434     1.13211E-03     1.14625E-03
            5336            5435     1.17283E-03     1.18935E-03
            5337            5427     1.11482E-03     1.12656E-03
            5337            5428     1.12249E-03     1.13380E-03
            5337            5435     1.17283E-03     1.18935E-03
            5337            5436     1.18565E-03     1.20023E-03
            5338            5428     1.12249E-03     1.13380E-03
            5338            5429     1.12249E-03     1.13380E-03
            5338            5436     1.18565E-03     1.20023E-03
            5338            5437     1.18565E-03     1.20023E-03
            5339            5429     1.12249E-03     1.13380E-03
            5339            5430     1.11482E-03     1.12656E-03
            5339            5437     1.18565E-03     1.20023E-03
            5339            5438     1.17283E-03     1.18935E-03
            5340            5430     1.11482E-03     1.12656E-03
            5340            5431     1.12828E-03     1.13967E-03
            5340            5438     1.17283E-03     1.18935E-03
            5340            5439     1.13211E-03     1.14625E-03
            5341            5431     1.12828E-03     1.13967E-03
            5341            5432     1.16806E-03     1.16223E-03
            5341            5439     1.13211E-03     1.14625E-03
            5341            5440     1.00679E-03     1.01351E-03
            5342             765     1.18535E-03     1.16306E-03
            5342             766     915.744E-06     919.222E-06
            5342            5432     1.16806E-03     1.16223E-03
            5342            5440     1.00679E-03     1.01351E-03
            5343             195     915.744E-06     919.222E-06
            5343             196     755.343E-06     763.642E-06
            5343            5433     1.00679E-03     1.01351E-03
            5343            5441     886.616E-06     893.267E-06
            5344            5433     1.00679E-03     1.01351E-03
            5344            5434     1.13211E-03     1.14625E-03
            5344            5441     886.616E-06     893.267E-06
            5344            5442     1.09611E-03     1.10194E-03
            5345            5434     1.13211E-03     1.14625E-03
            5345            5435     1.17283E-03     1.18935E-03
            5345            5442     1.09611E-03     1.10194E-03
            5345            5443     1.19450E-03     1.20316E-03
            5346            5435     1.17283E-03     1.18935E-03
            5346            5436     1.18565E-03     1.20023E-03
            5346            5443     1.19450E-03     1.20316E-03
            5346            5444     1.21331E-03     1.22297E-03
            5347            5436     1.18565E-03     1.20023E-03
            5347            5437     1.18565E-03     1.20023E-03
            5347            5444     1.21331E-03     1.22297E-03
            5347            5445     1.21331E-03     1.22297E-03
            5348            5437     1.18565E-03     1.20023E-03
            5348            5438     1.17283E-03     1.18935E-03
            5348            5445     1.21331E-03     1.22297E-03
            5348            5446     1.19450E-03     1.20316E-03
            5349            5438     1.17283E-03     1.18935E-03
            5349            5439     1.13211E-03     1.14625E-03
            5349            5446     1.19450E-03     1.20316E-03
            5349            5447     1.09611E-03     1.10194E-03
            5350            5439     1.13211E-03     1.14625E-03
            5350            5440     1.00679E-03     1.01351E-03
            5350            5447     1.09611E-03     1.10194E-03
            5350            5448     886.616E-06     893.267E-06
            5351             766     915.744E-06     919.222E-06
            5351             767     755.343E-06     763.642E-06
            5351            5440     1.00679E-03     1.01351E-03
            5351            5448     886.616E-06     893.267E-06
            5352             196     755.343E-06     763.642E-06
            5352             197     693.453E-06     710.381E-06
            5352            5441     886.616E-06     893.267E-06
            5352            5449     854.983E-06     865.438E-06
            5353            5441     886.616E-06     893.267E-06
            5353            5442     1.09611E-03     1.10194E-03
            5353            5449     854.983E-06     865.438E-06
            5353            5450     1.08547E-03     1.08724E-03
            5354            5442     1.09611E-03     1.10194E-03
            5354            5443     1.19450E-03     1.20316E-03
            5354            5450     1.08547E-03     1.08724E-03
            5354            5451     1.17290E-03     1.17328E-03
            5355            5443     1.19450E-03     1.20316E-03
            5355            5444     1.21331E-03     1.22297E-03
            5355            5451     1.17290E-03     1.17328E-03
            5355            5452     1.19894E-03     1.20084E-03
            5356            5444     1.21331E-03     1.22297E-03
            5356            5445     1.21331E-03     1.22297E-03
            5356            5452     1.19894E-03     1.20084E-03
            5356            5453     1.19894E-03     1.20084E-03
            5357            5445     1.21331E-03     1.22297E-03
            5357            5446     1.19450E-03     1.20316E-03
            5357            5453     1.19894E-03     1.20084E-03
            5357            5454     1.17290E-03     1.17328E-03
            5358            5446     1.19450E-03     1.20316E-03
            5358            5447     1.09611E-03     1.10194E-03
            5358            5454     1.17290E-03     1.17328E-03
            5358            5455     1.08547E-03     1.08724E-03
            5359            5447     1.09611E-03     1.10194E-03
            5359            5448     886.616E-06     893.267E-06
            5359            5455     1.08547E-03     1.08724E-03
            5359            5456     854.983E-06     865.438E-06
            5360             767     755.343E-06     763.642E-06
            5360             768     693.453E-06     710.381E-06
            5360            5448     886.616E-06     893.267E-06
            5360            5456     854.983E-06     865.438E-06
            5361             197     693.453E-06     710.381E-06
            5361             198     741.516E-06     755.317E-06
            5361            5449     854.983E-06     865.438E-06
            5361            5457     881.768E-06     889.235E-06
            5362            5449     854.983E-06     865.438E-06
            5362            5450     1.08547E-03     1.08724E-03
            5362            5457     881.768E-06     889.235E-06
            5362            5458     1.06298E-03     1.06248E-03
            5363            5450     1.08547E-03     1.08724E-03
            5363            5451     1.17290E-03     1.17328E-03
            5363            5458     1.06298E-03     1.06248E-03
            5363            5459     1.13198E-03     1.12980E-03
            5364            5451     1.17290E-03     1.17328E-03
            5364            5452     1.19894E-03     1.20084E-03
            5364            5459     1.13198E-03     1.12980E-03
            5364            5460     1.16564E-03     1.16370E-03
            5365            5452     1.19894E-03     1.20084E-03
            5365            5453     1.19894E-03     1.20084E-03
            5365            5460     1.16564E-03     1.16370E-03
            5365            5461     1.16564E-03     1.16370E-03
            5366            5453     1.19894E-03     1.20084E-03
            5366            5454     1.17290E-03     1.17328E-03
            5366            5461     1.16564E-03     1.16370E-03
            5366            5462     1.13198E-03     1.12980E-03
            5367            5454     1.17290E-03     1.17328E-03
            5367            5455     1.08547E-03     1.08724E-03
            5367            5462     1.13198E-03     1.12980E-03
            5367            5463     1.06298E-03     1.06248E-03
            5368            5455     1.08547E-03     1.08724E-03
            5368            5456     854.983E-06     865.438E-06
            5368            5463     1.06298E-03     1.06248E-03
            5368            5464     881.768E-06     889.235E-06
            5369             768     693.453E-06     710.381E-06
            5369             769     741.516E-06     755.317E-06
            5369            5456     854.983E-06     865.438E-06
            5369            5464     881.768E-06     889.235E-06
            5370              14     801.015E-06     806.412E-06
            5370             198     741.516E-06     755.317E-06
            5370             807     905.281E-06     909.194E-06
            5370            5457     881.768E-06     889.235E-06
            5371             806     1.03735E-03     1.03655E-03
            5371             807     905.281E-06     909.194E-06
            5371            5457     881.768E-06     889.235E-06
            5371            5458     1.06298E-03     1.06248E-03
            5372             805     1.11085E-03     1.10832E-03
            5372             806     1.03735E-03     1.03655E-03
            5372            5458     1.06298E-03     1.06248E-03
            5372            5459     1.13198E-03     1.12980E-03
            5373             804     1.14931E-03     1.14736E-03
            5373             805     1.11085E-03     1.10832E-03
            5373            5459     1.13198E-03     1.12980E-03
            5373            5460     1.16564E-03     1.16370E-03
            5374             803     1.14931E-03     1.14736E-03
            5374             804     1.14931E-03     1.14736E-03
            5374            5460     1.16564E-03     1.16370E-03
            5374            5461     1.16564E-03     1.16370E-03
            5375             802     1.11085E-03     1.10832E-03
            5375             803     1.14931E-03     1.14736E-03
            5375            5461     1.16564E-03     1.16370E-03
            5375            5462     1.13198E-03     1.12980E-03
            5376             801     1.03735E-03     1.03655E-03
            5376             802     1.11085E-03     1.10832E-03
            5376            5462     1.13198E-03     1.12980E-03
            5376            5463     1.06298E-03     1.06248E-03
            5377             800     905.281E-06     909.194E-06
            5377             801     1.03735E-03     1.03655E-03
            5377            5463     1.06298E-03     1.06248E-03
            5377            5464     881.768E-06     889.235E-06
            5378              27     801.015E-06     806.412E-06
            5378             769     741.516E-06     755.317E-06
            5378             800     905.281E-06     909.194E-06
            5378            5464     881.768E-06     889.235E-06
            5379              25     134.015E-03     125.703E-03
            5379             624     117.209E-03     109.497E-03
            5379             636     146.662E-03     140.927E-03
            5379            5465     124.393E-03     119.408E-03
            5380             623     85.4911E-03     80.0159E-03
            5380             624     117.209E-03     109.497E-03
            5380            5465     124.393E-03     119.408E-03
            5380            5466     84.2529E-03     80.8392E-03
            5381             622     57.2363E-03     54.2720E-03
            5381             623     85.4911E-03     80.0159E-03
            5381            5466     84.2529E-03     80.8392E-03
            5381            5467     50.5331E-03     49.1114E-03
            5382             621     38.1327E-03     36.7599E-03
            5382             622     57.2363E-03     54.2720E-03
            5382            5467     50.5331E-03     49.1114E-03
            5382            5468     26.4904E-03     26.8176E-03
            5383             620     41.9787E-03     40.9948E-03
            5383             621     38.1327E-03     36.7599E-03
            5383            5468     26.4904E-03     26.8176E-03
            5383            5469     30.8361E-03     30.7521E-03
            5384             619     65.8901E-03     63.8727E-03
            5384             620     41.9787E-03     40.9948E-03
            5384            5469     30.8361E-03     30.7521E-03
            5384            5470     59.7518E-03     57.5357E-03
            5385             618     95.3060E-03     91.2120E-03
            5385             619     65.8901E-03     63.8727E-03
            5385            5470     59.7518E-03     57.5357E-03
            5385            5471     94.1812E-03     89.9520E-03
            5386             617     127.693E-03     121.970E-03
            5386             618     95.3060E-03     91.2120E-03
            5386            5471     94.1812E-03     89.9520E-03
            5386            5472     134.956E-03     128.974E-03
            5387              10     144.970E-03     138.989E-03
            5387             288     157.676E-03     150.813E-03
            5387             617     127.693E-03     121.970E-03
            5387            5472     134.956E-03     128.974E-03
            5388             636     146.662E-03     140.927E-03
            5388             637     155.946E-03     150.674E-03
            5388            5465     124.393E-03     119.408E-03
            5388            5473     133.064E-03     128.923E-03
            5389            5465     124.393E-03     119.408E-03
            5389            5466     84.2529E-03     80.8392E-03
            5389            5473     133.064E-03     128.923E-03
            5389            5474     90.2180E-03     87.7933E-03
            5390            5466     84.2529E-03     80.8392E-03
            5390            5467     50.5331E-03     49.1114E-03
            5390            5474     90.2180E-03     87.7933E-03
            5390            5475     54.8880E-03     54.6476E-03
            5391            5467     50.5331E-03     49.1114E-03
            5391            5468     26.4904E-03     26.8176E-03
            5391            5475     54.8880E-03     54.6476E-03
            5391            5476     32.4258E-03     35.0255E-03
            5392            5468     26.4904E-03     26.8176E-03
            5392            5469     30.8361E-03     30.7521E-03
            5392            5476     32.4258E-03     35.0255E-03
            5392            5477     36.3592E-03     38.3447E-03
            5393            5469     30.8361E-03     30.7521E-03
            5393            5470     59.7518E-03     57.5357E-03
            5393            5477     36.3592E-03     38.3447E-03
            5393            5478     63.4706E-03     62.0784E-03
            5394            5470     59.7518E-03     57.5357E-03
            5394            5471     94.1812E-03     89.9520E-03
            5394            5478     63.4706E-03     62.0784E-03
            5394            5479     99.9217E-03     96.5094E-03
            5395            5471     94.1812E-03     89.9520E-03
            5395            5472     134.956E-03     128.974E-03
            5395            5479     99.9217E-03     96.5094E-03
            5395            5480     143.570E-03     138.552E-03
            5396             287     166.850E-03     160.723E-03
            5396             288     157.676E-03     150.813E-03
            5396            5472     134.956E-03     128.974E-03
            5396            5480     143.570E-03     138.552E-03
            5397             637     155.946E-03     150.674E-03
            5397             638     146.127E-03     145.865E-03
            5397            5473     133.064E-03     128.923E-03
            5397            5481     128.881E-03     129.890E-03
            5398            5473     133.064E-03     128.923E-03
            5398            5474     90.2180E-03     87.7933E-03
            5398            5481     128.881E-03     129.890E-03
            5398            5482     93.1846E-03     95.7079E-03
            5399            5474     90.2180E-03     87.7933E-03
            5399            5475     54.8880E-03     54.6476E-03
            5399            5482     93.1846E-03     95.7079E-03
            5399            5483     59.6985E-03     63.1046E-03
            5400            5475     54.8880E-03     54.6476E-03
            5400            5476     32.4258E-03     35.0255E-03
            5400            5483     59.6985E-03     63.1046E-03
            5400            5484     39.2737E-03     44.0070E-03
            5401            5476     32.4258E-03     35.0255E-03
            5401            5477     36.3592E-03     38.3447E-03
            5401            5484     39.2737E-03     44.0070E-03
            5401            5485     43.0280E-03     47.2925E-03
            5402            5477     36.3592E-03     38.3447E-03
            5402            5478     63.4706E-03     62.0784E-03
            5402            5485     43.0280E-03     47.2925E-03
            5402            5486     68.1399E-03     70.7676E-03
            5403            5478     63.4706E-03     62.0784E-03
            5403            5479     99.9217E-03     96.5094E-03
            5403            5486     68.1399E-03     70.7676E-03
            5403            5487     102.936E-03     105.036E-03
            5404            5479     99.9217E-03     96.5094E-03
            5404            5480     143.570E-03     138.552E-03
            5404            5487     102.936E-03     105.036E-03
            5404            5488     139.017E-03     139.835E-03
            5405             286     156.272E-03     155.852E-03
            5405             287     166.850E-03     160.723E-03
            5405            5480     143.570E-03     138.552E-03
            5405            5488     139.017E-03     139.835E-03
            5406             638     146.127E-03     145.865E-03
            5406             639     139.632E-03     138.290E-03
            5406            5481     128.881E-03     129.890E-03
            5406            5489     123.088E-03     122.950E-03
            5407            5481     128.881E-03     129.890E-03
            5407            5482     93.1846E-03     95.7079E-03
            5407            5489     123.088E-03     122.950E-03
            5407            5490     90.8828E-03     92.9501E-03
            5408            5482     93.1846E-03     95.7079E-03
            5408            5483     59.6985E-03     63.1046E-03
            5408            5490     90.8828E-03     92.9501E-03
            5408            5491     61.3353E-03     64.9580E-03
            5409            5483     59.6985E-03     63.1046E-03
            5409            5484     39.2737E-03     44.0070E-03
            5409            5491     61.3353E-03     64.9580E-03
            5409            5492     42.3035E-03     46.7052E-03
            5410            5484     39.2737E-03     44.0070E-03
            5410            5485     43.0280E-03     47.2925E-03
            5410            5492     42.3035E-03     46.7052E-03
            5410            5493     45.9308E-03     50.0275E-03
            5411            5485     43.0280E-03     47.2925E-03
            5411            5486     68.1399E-03     70.7676E-03
            5411            5493     45.9308E-03     50.0275E-03
            5411            5494     69.6987E-03     72.8419E-03
            5412            5486     68.1399E-03     70.7676E-03
            5412            5487     102.936E-03     105.036E-03
            5412            5494     69.6987E-03     72.8419E-03
            5412            5495     100.598E-03     102.365E-03
            5413            5487     102.936E-03     105.036E-03
            5413            5488     139.017E-03     139.835E-03
            5413            5495     100.598E-03     102.365E-03
            5413            5496     133.075E-03     132.622E-03
            5414             285     149.649E-03     147.928E-03
            5414             286     156.272E-03     155.852E-03
            5414            5488     139.017E-03     139.835E-03
            5414            5496     133.075E-03     132.622E-03
            5415             639     139.632E-03     138.290E-03
            5415             640     134.925E-03     133.290E-03
            5415            5489     123.088E-03     122.950E-03
            5415            5497     118.855E-03     118.147E-03
            5416            5489     123.088E-03     122.950E-03
            5416            5490     90.8828E-03     92.9501E-03
            5416            5497     118.855E-03     118.147E-03
            5416            5498     87.6362E-03     88.5677E-03
            5417            5490     90.8828E-03     92.9501E-03
            5417            5491     61.3353E-03     64.9580E-03
            5417            5498     87.6362E-03     88.5677E-03
            5417            5499     60.0541E-03     62.2204E-03
            5418            5491     61.3353E-03     64.9580E-03
            5418            5492     42.3035E-03     46.7052E-03
            5418            5499     60.0541E-03     62.2204E-03
            5418            5500     43.1389E-03     45.9851E-03
            5419            5492     42.3035E-03     46.7052E-03
            5419            5493     45.9308E-03     50.0275E-03
            5419            5500     43.1389E-03     45.9851E-03
            5419            5501     46.7538E-03     49.4052E-03
            5420            5493     45.9308E-03     50.0275E-03
            5420            5494     69.6987E-03     72.8419E-03
            5420            5501     46.7538E-03     49.4052E-03
            5420            5502     68.3653E-03     70.1500E-03
            5421            5494     69.6987E-03     72.8419E-03
            5421            5495     100.598E-03     102.365E-03
            5421            5502     68.3653E-03     70.1500E-03
            5421            5503     97.2899E-03     97.8552E-03
            5422            5495     100.598E-03     102.365E-03
            5422            5496     133.075E-03     132.622E-03
            5422            5503     97.2899E-03     97.8552E-03
            5422            5504     128.765E-03     127.737E-03
            5423             284     144.829E-03     142.914E-03
            5423             285     149.649E-03     147.928E-03
            5423            5496     133.075E-03     132.622E-03
            5423            5504     128.765E-03     127.737E-03
            5424             640     134.925E-03     133.290E-03
            5424             641     129.622E-03     128.050E-03
            5424            5497     118.855E-03     118.147E-03
            5424            5505     114.286E-03     113.496E-03
            5425            5497     118.855E-03     118.147E-03
            5425            5498     87.6362E-03     88.5677E-03
            5425            5505     114.286E-03     113.496E-03
            5425            5506     84.5882E-03     85.0912E-03
            5426            5498     87.6362E-03     88.5677E-03
            5426            5499     60.0541E-03     62.2204E-03
            5426            5506     84.5882E-03     85.0912E-03
            5426            5507     58.3569E-03     59.4223E-03
            5427            5499     60.0541E-03     62.2204E-03
            5427            5500     43.1389E-03     45.9851E-03
            5427            5507     58.3569E-03     59.4223E-03
            5427            5508     42.6188E-03     43.6264E-03
            5428            5500     43.1389E-03     45.9851E-03
            5428            5501     46.7538E-03     49.4052E-03
            5428            5508     42.6188E-03     43.6264E-03
            5428            5509     46.1595E-03     47.0201E-03
            5429            5501     46.7538E-03     49.4052E-03
            5429            5502     68.3653E-03     70.1500E-03
            5429            5509     46.1595E-03     47.0201E-03
            5429            5510     66.5635E-03     67.2881E-03
            5430            5502     68.3653E-03     70.1500E-03
            5430            5503     97.2899E-03     97.8552E-03
            5430            5510     66.5635E-03     67.2881E-03
            5430            5511     94.1641E-03     94.3031E-03
            5431            5503     97.2899E-03     97.8552E-03
            5431            5504     128.765E-03     127.737E-03
            5431            5511     94.1641E-03     94.3031E-03
            5431            5512     124.111E-03     122.986E-03
            5432             283     139.452E-03     137.550E-03
            5432             284     144.829E-03     142.914E-03
            5432            5504     128.765E-03     127.737E-03
            5432            5512     124.111E-03     122.986E-03
            5433             641     129.622E-03     128.050E-03
            5433             642     124.535E-03     123.059E-03
            5433            5505     114.286E-03     113.496E-03
            5433            5513     109.748E-03     109.135E-03
            5434            5505     114.286E-03     113.496E-03
            5434            5506     84.5882E-03     85.0912E-03
            5434            5513     109.748E-03     109.135E-03
            5434            5514     81.3875E-03     81.8820E-03
            5435            5506     84.5882E-03     85.0912E-03
            5435            5507     58.3569E-03     59.4223E-03
            5435            5514     81.3875E-03     81.8820E-03
            5435            5515     56.7282E-03     57.0705E-03
            5436            5507     58.3569E-03     59.4223E-03
            5436            5508     42.6188E-03     43.6264E-03
            5436            5515     56.7282E-03     57.0705E-03
            5436            5516     41.8412E-03     41.2724E-03
            5437            5508     42.6188E-03     43.6264E-03
            5437            5509     46.1595E-03     47.0201E-03
            5437            5516     41.8412E-03     41.2724E-03
            5437            5517     45.2833E-03     44.6675E-03
            5438            5509     46.1595E-03     47.0201E-03
            5438            5510     66.5635E-03     67.2881E-03
            5438            5517     45.2833E-03     44.6675E-03
            5438            5518     64.7682E-03     64.9036E-03
            5439            5510     66.5635E-03     67.2881E-03
            5439            5511     94.1641E-03     94.3031E-03
            5439            5518     64.7682E-03     64.9036E-03
            5439            5519     90.8577E-03     90.9934E-03
            5440            5511     94.1641E-03     94.3031E-03
            5440            5512     124.111E-03     122.986E-03
            5440            5519     90.8577E-03     90.9934E-03
            5440            5520     119.459E-03     118.517E-03
            5441             282     134.214E-03     132.476E-03
            5441             283     139.452E-03     137.550E-03
            5441            5512     124.111E-03     122.986E-03
            5441            5520     119.459E-03     118.517E-03
            5442             642     124.535E-03     123.059E-03
            5442             643     119.081E-03     118.149E-03
            5442            5513     109.748E-03     109.135E-03
            5442            5521     105.172E-03     105.067E-03
            5443            5513     109.748E-03     109.135E-03
            5443            5514     81.3875E-03     81.8820E-03
            5443            5521     105.172E-03     105.067E-03
            5443            5522     78.4495E-03     79.2820E-03
            5444            5514     81.3875E-03     81.8820E-03
            5444            5515     56.7282E-03     57.0705E-03
            5444            5522     78.4495E-03     79.2820E-03
            5444            5523     55.1477E-03     55.0095E-03
            5445            5515     56.7282E-03     57.0705E-03
            5445            5516     41.8412E-03     41.2724E-03
            5445            5523     55.1477E-03     55.0095E-03
            5445            5524     41.1238E-03     38.9392E-03
            5446            5516     41.8412E-03     41.2724E-03
            5446            5517     45.2833E-03     44.6675E-03
            5446            5524     41.1238E-03     38.9392E-03
            5446            5525     44.4468E-03     42.3789E-03
            5447            5517     45.2833E-03     44.6675E-03
            5447            5518     64.7682E-03     64.9036E-03
            5447            5525     44.4468E-03     42.3789E-03
            5447            5526     62.9518E-03     62.8250E-03
            5448            5518     64.7682E-03     64.9036E-03
            5448            5519     90.8577E-03     90.9934E-03
            5448            5526     62.9518E-03     62.8250E-03
            5448            5527     87.7153E-03     88.2810E-03
            5449            5519     90.8577E-03     90.9934E-03
            5449            5520     119.459E-03     118.517E-03
            5449            5527     87.7153E-03     88.2810E-03
            5449            5528     114.750E-03     114.305E-03
            5450             281     128.668E-03     127.378E-03
            5450             282     134.214E-03     132.476E-03
            5450            5520     119.459E-03     118.517E-03
            5450            5528     114.750E-03     114.305E-03
            5451             643     119.081E-03     118.149E-03
            5451             644     113.200E-03     112.646E-03
            5451            5521     105.172E-03     105.067E-03
            5451            5529     100.290E-03     101.101E-03
            5452            5521     105.172E-03     105.067E-03
            5452            5522     78.4495E-03     79.2820E-03
            5452            5529     100.290E-03     101.101E-03
            5452            5530     75.7882E-03     77.2802E-03
            5453            5522     78.4495E-03     79.2820E-03
            5453            5523     55.1477E-03     55.0095E-03
            5453            5530     75.7882E-03     77.2802E-03
            5453            5531     54.0428E-03     52.9475E-03
            5454            5523     55.1477E-03     55.0095E-03
            5454            5524     41.1238E-03     38.9392E-03
            5454            5531     54.0428E-03     52.9475E-03
            5454            5532     40.4604E-03     36.5952E-03
            5455            5524     41.1238E-03     38.9392E-03
            5455            5525     44.4468E-03     42.3789E-03
            5455            5532     40.4604E-03     36.5952E-03
            5455            5533     43.5291E-03     39.9848E-03
            5456            5525     44.4468E-03     42.3789E-03
            5456            5526     62.9518E-03     62.8250E-03
            5456            5533     43.5291E-03     39.9848E-03
            5456            5534     61.3922E-03     60.6711E-03
            5457            5526     62.9518E-03     62.8250E-03
            5457            5527     87.7153E-03     88.2810E-03
            5457            5534     61.3922E-03     60.6711E-03
            5457            5535     84.7680E-03     86.1438E-03
            5458            5527     87.7153E-03     88.2810E-03
            5458            5528     114.750E-03     114.305E-03
            5458            5535     84.7680E-03     86.1438E-03
            5458            5536     109.652E-03     110.198E-03
            5459             280     122.525E-03     121.780E-03
            5459             281     128.668E-03     127.378E-03
            5459            5528     114.750E-03     114.305E-03
            5459            5536     109.652E-03     110.198E-03
            5460             644     113.200E-03     112.646E-03
            5460             645     106.239E-03     107.907E-03
            5460            5529     100.290E-03     101.101E-03
            5460            5537     95.2997E-03     97.0959E-03
            5461            5529     100.290E-03     101.101E-03
            5461            5530     75.7882E-03     77.2802E-03
            5461            5537     95.2997E-03     97.0959E-03
            5461            5538     73.3266E-03     73.2730E-03
            5462            5530     75.7882E-03     77.2802E-03
            5462            5531     54.0428E-03     52.9475E-03
            5462            5538     73.3266E-03     73.2730E-03
            5462            5539     53.0603E-03     49.8825E-03
            5463            5531     54.0428E-03     52.9475E-03
            5463            5532     40.4604E-03     36.5952E-03
            5463            5539     53.0603E-03     49.8825E-03
            5463            5540     40.6308E-03     35.7181E-03
            5464            5532     40.4604E-03     36.5952E-03
            5464            5533     43.5291E-03     39.9848E-03
            5464            5540     40.6308E-03     35.7181E-03
            5464            5541     43.3435E-03     38.8186E-03
            5465            5533     43.5291E-03     39.9848E-03
            5465            5534     61.3922E-03     60.6711E-03
            5465            5541     43.3435E-03     38.8186E-03
            5465            5542     59.6062E-03     57.1260E-03
            5466            5534     61.3922E-03     60.6711E-03
            5466            5535     84.7680E-03     86.1438E-03
            5466            5542     59.6062E-03     57.1260E-03
            5466            5543     81.6505E-03     81.9385E-03
            5467            5535     84.7680E-03     86.1438E-03
            5467            5536     109.652E-03     110.198E-03
            5467            5543     81.6505E-03     81.9385E-03
            5467            5544     104.521E-03     106.100E-03
            5468             279     115.701E-03     116.870E-03
            5468             280     122.525E-03     121.780E-03
            5468            5536     109.652E-03     110.198E-03
            5468            5544     104.521E-03     106.100E-03
            5469             645     106.239E-03     107.907E-03
            5469             646     98.5168E-03     94.0209E-03
            5469            5537     95.2997E-03     97.0959E-03
            5469            5545     89.1259E-03     83.8159E-03
            5470            5537     95.2997E-03     97.0959E-03
            5470            5538     73.3266E-03     73.2730E-03
            5470            5545     89.1259E-03     83.8159E-03
            5470            5546     70.1515E-03     64.2096E-03
            5471            5538     73.3266E-03     73.2730E-03
            5471            5539     53.0603E-03     49.8825E-03
            5471            5546     70.1515E-03     64.2096E-03
            5471            5547     52.9822E-03     47.8924E-03
            5472            5539     53.0603E-03     49.8825E-03
            5472            5540     40.6308E-03     35.7181E-03
            5472            5547     52.9822E-03     47.8924E-03
            5472            5548     43.1431E-03     38.9678E-03
            5473            5540     40.6308E-03     35.7181E-03
            5473            5541     43.3435E-03     38.8186E-03
            5473            5548     43.1431E-03     38.9678E-03
            5473            5549     45.3224E-03     41.3695E-03
            5474            5541     43.3435E-03     38.8186E-03
            5474            5542     59.6062E-03     57.1260E-03
            5474            5549     45.3224E-03     41.3695E-03
            5474            5550     58.4034E-03     53.8651E-03
            5475            5542     59.6062E-03     57.1260E-03
            5475            5543     81.6505E-03     81.9385E-03
            5475            5550     58.4034E-03     53.8651E-03
            5475            5551     77.2373E-03     72.0699E-03
            5476            5543     81.6505E-03     81.9385E-03
            5476            5544     104.521E-03     106.100E-03
            5476            5551     77.2373E-03     72.0699E-03
            5476            5552     97.5728E-03     92.9051E-03
            5477             278     107.723E-03     103.621E-03
            5477             279     115.701E-03     116.870E-03
            5477            5544     104.521E-03     106.100E-03
            5477            5552     97.5728E-03     92.9051E-03
            5478             646     98.5168E-03     94.0209E-03
            5478             647     110.378E-03     99.7458E-03
            5478            5545     89.1259E-03     83.8159E-03
            5478            5553     95.0207E-03     85.3230E-03
            5479            5545     89.1259E-03     83.8159E-03
            5479            5546     70.1515E-03     64.2096E-03
            5479            5553     95.0207E-03     85.3230E-03
            5479            5554     68.5491E-03     61.6373E-03
            5480            5546     70.1515E-03     64.2096E-03
            5480            5547     52.9822E-03     47.8924E-03
            5480            5554     68.5491E-03     61.6373E-03
            5480            5555     49.0416E-03     45.5245E-03
            5481            5547     52.9822E-03     47.8924E-03
            5481            5548     43.1431E-03     38.9678E-03
            5481            5555     49.0416E-03     45.5245E-03
            5481            5556     37.5100E-03     36.3477E-03
            5482            5548     43.1431E-03     38.9678E-03
            5482            5549     45.3224E-03     41.3695E-03
            5482            5556     37.5100E-03     36.3477E-03
            5482            5557     39.5461E-03     38.1885E-03
            5483            5549     45.3224E-03     41.3695E-03
            5483            5550     58.4034E-03     53.8651E-03
            5483            5557     39.5461E-03     38.1885E-03
            5483            5558     54.0610E-03     50.1862E-03
            5484            5550     58.4034E-03     53.8651E-03
            5484            5551     77.2373E-03     72.0699E-03
            5484            5558     54.0610E-03     50.1862E-03
            5484            5559     74.8975E-03     67.8003E-03
            5485            5551     77.2373E-03     72.0699E-03
            5485            5552     97.5728E-03     92.9051E-03
            5485            5559     74.8975E-03     67.8003E-03
            5485            5560     102.552E-03     92.8377E-03
            5486             277     118.709E-03     108.091E-03
            5486             278     107.723E-03     103.621E-03
            5486            5552     97.5728E-03     92.9051E-03
            5486            5560     102.552E-03     92.8377E-03
            5487             647     110.378E-03     99.7458E-03
            5487             648     120.538E-03     116.817E-03
            5487            5553     95.0207E-03     85.3230E-03
            5487            5561     103.369E-03     100.711E-03
            5488            5553     95.0207E-03     85.3230E-03
            5488            5554     68.5491E-03     61.6373E-03
            5488            5561     103.369E-03     100.711E-03
            5488            5562     71.6755E-03     70.5657E-03
            5489            5554     68.5491E-03     61.6373E-03
            5489            5555     49.0416E-03     45.5245E-03
            5489            5562     71.6755E-03     70.5657E-03
            5489            5563     47.3709E-03     47.8056E-03
            5490            5555     49.0416E-03     45.5245E-03
            5490            5556     37.5100E-03     36.3477E-03
            5490            5563     47.3709E-03     47.8056E-03
            5490            5564     33.6390E-03     35.7107E-03
            5491            5556     37.5100E-03     36.3477E-03
            5491            5557     39.5461E-03     38.1885E-03
            5491            5564     33.6390E-03     35.7107E-03
            5491            5565     35.8070E-03     37.4843E-03
            5492            5557     39.5461E-03     38.1885E-03
            5492            5558     54.0610E-03     50.1862E-03
            5492            5565     35.8070E-03     37.4843E-03
            5492            5566     52.4787E-03     52.0812E-03
            5493            5558     54.0610E-03     50.1862E-03
            5493            5559     74.8975E-03     67.8003E-03
            5493            5566     52.4787E-03     52.0812E-03
            5493            5567     77.9607E-03     76.0312E-03
            5494            5559     74.8975E-03     67.8003E-03
            5494            5560     102.552E-03     92.8377E-03
            5494            5567     77.9607E-03     76.0312E-03
            5494            5568     110.410E-03     106.995E-03
            5495             276     127.929E-03     123.457E-03
            5495             277     118.709E-03     108.091E-03
            5495            5560     102.552E-03     92.8377E-03
            5495            5568     110.410E-03     106.995E-03
            5496             648     120.538E-03     116.817E-03
            5496             649     110.450E-03     110.070E-03
            5496            5561     103.369E-03     100.711E-03
            5496            5569     98.4500E-03     98.9906E-03
            5497            5561     103.369E-03     100.711E-03
            5497            5562     71.6755E-03     70.5657E-03
            5497            5569     98.4500E-03     98.9906E-03
            5497            5570     73.7741E-03     75.6253E-03
            5498            5562     71.6755E-03     70.5657E-03
            5498            5563     47.3709E-03     47.8056E-03
            5498            5570     73.7741E-03     75.6253E-03
            5498            5571     51.6542E-03     54.3225E-03
            5499            5563     47.3709E-03     47.8056E-03
            5499            5564     33.6390E-03     35.7107E-03
            5499            5571     51.6542E-03     54.3225E-03
            5499            5572     39.4330E-03     42.8513E-03
            5500            5564     33.6390E-03     35.7107E-03
            5500            5565     35.8070E-03     37.4843E-03
            5500            5572     39.4330E-03     42.8513E-03
            5500            5573     41.4519E-03     44.6113E-03
            5501            5565     35.8070E-03     37.4843E-03
            5501            5566     52.4787E-03     52.0812E-03
            5501            5573     41.4519E-03     44.6113E-03
            5501            5574     56.5440E-03     58.7488E-03
            5502            5566     52.4787E-03     52.0812E-03
            5502            5567     77.9607E-03     76.0312E-03
            5502            5574     56.5440E-03     58.7488E-03
            5502            5575     79.9224E-03     81.5019E-03
            5503            5567     77.9607E-03     76.0312E-03
            5503            5568     110.410E-03     106.995E-03
            5503            5575     79.9224E-03     81.5019E-03
            5503            5576     105.106E-03     105.538E-03
            5504             275     117.207E-03     116.745E-03
            5504             276     127.929E-03     123.457E-03
            5504            5568     110.410E-03     106.995E-03
            5504            5576     105.106E-03     105.538E-03
            5505             649     110.450E-03     110.070E-03
            5505             650     103.509E-03     102.492E-03
            5505            5569     98.4500E-03     98.9906E-03
            5505            5577     92.4023E-03     92.1332E-03
            5506            5569     98.4500E-03     98.9906E-03
            5506            5570     73.7741E-03     75.6253E-03
            5506            5577     92.4023E-03     92.1332E-03
            5506            5578     71.2362E-03     72.5112E-03
            5507            5570     73.7741E-03     75.6253E-03
            5507            5571     51.6542E-03     54.3225E-03
            5507            5578     71.2362E-03     72.5112E-03
            5507            5579     53.0320E-03     55.5853E-03
            5508            5571     51.6542E-03     54.3225E-03
            5508            5572     39.4330E-03     42.8513E-03
            5508            5579     53.0320E-03     55.5853E-03
            5508            5580     42.1515E-03     45.2858E-03
            5509            5572     39.4330E-03     42.8513E-03
            5509            5573     41.4519E-03     44.6113E-03
            5509            5580     42.1515E-03     45.2858E-03
            5509            5581     44.0516E-03     47.0388E-03
            5510            5573     41.4519E-03     44.6113E-03
            5510            5574     56.5440E-03     58.7488E-03
            5510            5581     44.0516E-03     47.0388E-03
            5510            5582     57.7858E-03     60.0888E-03
            5511            5574     56.5440E-03     58.7488E-03
            5511            5575     79.9224E-03     81.5019E-03
            5511            5582     57.7858E-03     60.0888E-03
            5511            5583     77.2798E-03     78.3704E-03
            5512            5575     79.9224E-03     81.5019E-03
            5512            5576     105.106E-03     105.538E-03
            5512            5583     77.2798E-03     78.3704E-03
            5512            5584     98.9259E-03     98.4210E-03
            5513             274     110.176E-03     108.850E-03
            5513             275     117.207E-03     116.745E-03
            5513            5576     105.106E-03     105.538E-03
            5513            5584     98.9259E-03     98.4210E-03
            5514             650     103.509E-03     102.492E-03
            5514             651     98.3939E-03     97.1828E-03
            5514            5577     92.4023E-03     92.1332E-03
            5514            5585     87.8771E-03     87.2331E-03
            5515            5577     92.4023E-03     92.1332E-03
            5515            5578     71.2362E-03     72.5112E-03
            5515            5585     87.8771E-03     87.2331E-03
            5515            5586     68.0276E-03     68.4963E-03
            5516            5578     71.2362E-03     72.5112E-03
            5516            5579     53.0320E-03     55.5853E-03
            5516            5586     68.0276E-03     68.4963E-03
            5516            5587     51.8848E-03     53.3466E-03
            5517            5579     53.0320E-03     55.5853E-03
            5517            5580     42.1515E-03     45.2858E-03
            5517            5587     51.8848E-03     53.3466E-03
            5517            5588     42.9660E-03     45.0448E-03
            5518            5580     42.1515E-03     45.2858E-03
            5518            5581     44.0516E-03     47.0388E-03
            5518            5588     42.9660E-03     45.0448E-03
            5518            5589     44.8238E-03     46.7976E-03
            5519            5581     44.0516E-03     47.0388E-03
            5519            5582     57.7858E-03     60.0888E-03
            5519            5589     44.8238E-03     46.7976E-03
            5519            5590     56.5274E-03     57.7522E-03
            5520            5582     57.7858E-03     60.0888E-03
            5520            5583     77.2798E-03     78.3704E-03
            5520            5590     56.5274E-03     57.7522E-03
            5520            5591     73.9613E-03     74.1715E-03
            5521            5583     77.2798E-03     78.3704E-03
            5521            5584     98.9259E-03     98.4210E-03
            5521            5591     73.9613E-03     74.1715E-03
            5521            5592     94.2832E-03     93.4143E-03
            5522             273     104.909E-03     103.500E-03
            5522             274     110.176E-03     108.850E-03
            5522            5584     98.9259E-03     98.4210E-03
            5522            5592     94.2832E-03     93.4143E-03
            5523             651     98.3939E-03     97.1828E-03
            5523             652     92.9057E-03     91.6631E-03
            5523            5585     87.8771E-03     87.2331E-03
            5523            5593     83.1982E-03     82.4617E-03
            5524            5585     87.8771E-03     87.2331E-03
            5524            5586     68.0276E-03     68.4963E-03
            5524            5593     83.1982E-03     82.4617E-03
            5524            5594     64.9991E-03     65.1319E-03
            5525            5586     68.0276E-03     68.4963E-03
            5525            5587     51.8848E-03     53.3466E-03
            5525            5594     64.9991E-03     65.1319E-03
            5525            5595     50.3992E-03     51.1071E-03
            5526            5587     51.8848E-03     53.3466E-03
            5526            5588     42.9660E-03     45.0448E-03
            5526            5595     50.3992E-03     51.1071E-03
            5526            5596     42.6312E-03     43.5705E-03
            5527            5588     42.9660E-03     45.0448E-03
            5527            5589     44.8238E-03     46.7976E-03
            5527            5596     42.6312E-03     43.5705E-03
            5527            5597     44.4078E-03     45.2341E-03
            5528            5589     44.8238E-03     46.7976E-03
            5528            5590     56.5274E-03     57.7522E-03
            5528            5597     44.4078E-03     45.2341E-03
            5528            5598     54.9000E-03     55.3496E-03
            5529            5590     56.5274E-03     57.7522E-03
            5529            5591     73.9613E-03     74.1715E-03
            5529            5598     54.9000E-03     55.3496E-03
            5529            5599     70.8108E-03     70.6718E-03
            5530            5591     73.9613E-03     74.1715E-03
            5530            5592     94.2832E-03     93.4143E-03
            5530            5599     70.8108E-03     70.6718E-03
            5530            5600     89.4980E-03     88.5174E-03
            5531             272     99.3304E-03     97.8525E-03
            5531             273     104.909E-03     103.500E-03
            5531            5592     94.2832E-03     93.4143E-03
            5531            5600     89.4980E-03     88.5174E-03
            5532             652     92.9057E-03     91.6631E-03
            5532             653     87.6538E-03     86.5919E-03
            5532            5593     83.1982E-03     82.4617E-03
            5532            5601     78.5705E-03     77.9039E-03
            5533            5593     83.1982E-03     82.4617E-03
            5533            5594     64.9991E-03     65.1319E-03
            5533            5601     78.5705E-03     77.9039E-03
            5533            5602     61.8548E-03     61.8578E-03
            5534            5594     64.9991E-03     65.1319E-03
            5534            5595     50.3992E-03     51.1071E-03
            5534            5602     61.8548E-03     61.8578E-03
            5534            5603     48.8974E-03     49.1106E-03
            5535            5595     50.3992E-03     51.1071E-03
            5535            5596     42.6312E-03     43.5705E-03
            5535            5603     48.8974E-03     49.1106E-03
            5535            5604     42.0821E-03     42.1246E-03
            5536            5596     42.6312E-03     43.5705E-03
            5536            5597     44.4078E-03     45.2341E-03
            5536            5604     42.0821E-03     42.1246E-03
            5536            5605     43.7734E-03     43.7280E-03
            5537            5597     44.4078E-03     45.2341E-03
            5537            5598     54.9000E-03     55.3496E-03
            5537            5605     43.7734E-03     43.7280E-03
            5537            5606     53.2411E-03     53.2163E-03
            5538            5598     54.9000E-03     55.3496E-03
            5538            5599     70.8108E-03     70.6718E-03
            5538            5606     53.2411E-03     53.2163E-03
            5538            5607     67.5361E-03     67.2479E-03
            5539            5599     70.8108E-03     70.6718E-03
            5539            5600     89.4980E-03     88.5174E-03
            5539            5607     67.5361E-03     67.2479E-03
            5539            5608     84.7386E-03     83.8278E-03
            5540             271     93.9324E-03     92.6639E-03
            5540             272     99.3304E-03     97.8525E-03
            5540            5600     89.4980E-03     88.5174E-03
            5540            5608     84.7386E-03     83.8278E-03
            5541             653     87.6538E-03     86.5919E-03
            5541             654     82.3830E-03     81.3352E-03
            5541            5601     78.5705E-03     77.9039E-03
            5541            5609     74.0709E-03     73.6051E-03
            5542            5601     78.5705E-03     77.9039E-03
            5542            5602     61.8548E-03     61.8578E-03
            5542            5609     74.0709E-03     73.6051E-03
            5542            5610     58.9060E-03     59.0378E-03
            5543            5602     61.8548E-03     61.8578E-03
            5543            5603     48.8974E-03     49.1106E-03
            5543            5610     58.9060E-03     59.0378E-03
            5543            5611     47.3737E-03     47.1784E-03
            5544            5603     48.8974E-03     49.1106E-03
            5544            5604     42.0821E-03     42.1246E-03
            5544            5611     47.3737E-03     47.1784E-03
            5544            5612     41.5475E-03     40.7334E-03
            5545            5604     42.0821E-03     42.1246E-03
            5545            5605     43.7734E-03     43.7280E-03
            5545            5612     41.5475E-03     40.7334E-03
            5545            5613     43.1520E-03     42.2923E-03
            5546            5605     43.7734E-03     43.7280E-03
            5546            5606     53.2411E-03     53.2163E-03
            5546            5613     43.1520E-03     42.2923E-03
            5546            5614     51.5300E-03     51.1662E-03
            5547            5606     53.2411E-03     53.2163E-03
            5547            5607     67.5361E-03     67.2479E-03
            5547            5614     51.5300E-03     51.1662E-03
            5547            5615     64.4227E-03     64.2778E-03
            5548            5607     67.5361E-03     67.2479E-03
            5548            5608     84.7386E-03     83.8278E-03
            5548            5615     64.4227E-03     64.2778E-03
            5548            5616     80.1003E-03     79.3849E-03
            5549             270     88.5123E-03     87.2726E-03
            5549             271     93.9324E-03     92.6639E-03
            5549            5608     84.7386E-03     83.8278E-03
            5549            5616     80.1003E-03     79.3849E-03
            5550             654     82.3830E-03     81.3352E-03
            5550             655     76.8324E-03     76.4114E-03
            5550            5609     74.0709E-03     73.6051E-03
            5550            5617     69.4475E-03     69.4811E-03
            5551            5609     74.0709E-03     73.6051E-03
            5551            5610     58.9060E-03     59.0378E-03
            5551            5617     69.4475E-03     69.4811E-03
            5551            5618     56.1381E-03     56.5039E-03
            5552            5610     58.9060E-03     59.0378E-03
            5552            5611     47.3737E-03     47.1784E-03
            5552            5618     56.1381E-03     56.5039E-03
            5552            5619     46.1418E-03     45.5721E-03
            5553            5611     47.3737E-03     47.1784E-03
            5553            5612     41.5475E-03     40.7334E-03
            5553            5619     46.1418E-03     45.5721E-03
            5553            5620     40.9183E-03     39.0532E-03
            5554            5612     41.5475E-03     40.7334E-03
            5554            5613     43.1520E-03     42.2923E-03
            5554            5620     40.9183E-03     39.0532E-03
            5554            5621     42.3946E-03     40.5790E-03
            5555            5613     43.1520E-03     42.2923E-03
            5555            5614     51.5300E-03     51.1662E-03
            5555            5621     42.3946E-03     40.5790E-03
            5555            5622     50.0458E-03     49.4516E-03
            5556            5614     51.5300E-03     51.1662E-03
            5556            5615     64.4227E-03     64.2778E-03
            5556            5622     50.0458E-03     49.4516E-03
            5556            5623     61.4257E-03     61.5928E-03
            5557            5615     64.4227E-03     64.2778E-03
            5557            5616     80.1003E-03     79.3849E-03
            5557            5623     61.4257E-03     61.5928E-03
            5557            5624     75.3049E-03     75.0833E-03
            5558             269     82.8272E-03     82.1453E-03
            5558             270     88.5123E-03     87.2726E-03
            5558            5616     80.1003E-03     79.3849E-03
            5558            5624     75.3049E-03     75.0833E-03
            5559             655     76.8324E-03     76.4114E-03
            5559             656     70.9946E-03     70.8517E-03
            5559            5617     69.4475E-03     69.4811E-03
            5559            5625     64.7693E-03     65.4626E-03
            5560            5617     69.4475E-03     69.4811E-03
            5560            5618     56.1381E-03     56.5039E-03
            5560            5625     64.7693E-03     65.4626E-03
            5560            5626     53.7391E-03     54.4156E-03
            5561            5618     56.1381E-03     56.5039E-03
            5561            5619     46.1418E-03     45.5721E-03
            5561            5626     53.7391E-03     54.4156E-03
            5561            5627     45.1209E-03     43.7047E-03
            5562            5619     46.1418E-03     45.5721E-03
            5562            5620     40.9183E-03     39.0532E-03
            5562            5627     45.1209E-03     43.7047E-03
            5562            5628     40.2519E-03     37.2749E-03
            5563            5620     40.9183E-03     39.0532E-03
            5563            5621     42.3946E-03     40.5790E-03
            5563            5628     40.2519E-03     37.2749E-03
            5563            5629     41.5606E-03     38.7534E-03
            5564            5621     42.3946E-03     40.5790E-03
            5564            5622     50.0458E-03     49.4516E-03
            5564            5629     41.5606E-03     38.7534E-03
            5564            5630     48.6424E-03     47.4676E-03
            5565            5622     50.0458E-03     49.4516E-03
            5565            5623     61.4257E-03     61.5928E-03
            5565            5630     48.6424E-03     47.4676E-03
            5565            5631     58.7000E-03     59.3211E-03
            5566            5623     61.4257E-03     61.5928E-03
            5566            5624     75.3049E-03     75.0833E-03
            5566            5631     58.7000E-03     59.3211E-03
            5566            5632     70.3880E-03     70.8846E-03
            5567             268     76.7356E-03     76.4536E-03
            5567             269     82.8272E-03     82.1453E-03
            5567            5624     75.3049E-03     75.0833E-03
            5567            5632     70.3880E-03     70.8846E-03
            5568             656     70.9946E-03     70.8517E-03
            5568             657     64.0311E-03     65.7256E-03
            5568            5625     64.7693E-03     65.4626E-03
            5568            5633     59.9287E-03     61.2353E-03
            5569            5625     64.7693E-03     65.4626E-03
            5569            5626     53.7391E-03     54.4156E-03
            5569            5633     59.9287E-03     61.2353E-03
            5569            5634     51.7688E-03     51.1231E-03
            5570            5626     53.7391E-03     54.4156E-03
            5570            5627     45.1209E-03     43.7047E-03
            5570            5634     51.7688E-03     51.1231E-03
            5570            5635     44.2691E-03     41.4826E-03
            5571            5627     45.1209E-03     43.7047E-03
            5571            5628     40.2519E-03     37.2749E-03
            5571            5635     44.2691E-03     41.4826E-03
            5571            5636     39.8240E-03     36.2593E-03
            5572            5628     40.2519E-03     37.2749E-03
            5572            5629     41.5606E-03     38.7534E-03
            5572            5636     39.8240E-03     36.2593E-03
            5572            5637     40.9268E-03     37.5721E-03
            5573            5629     41.5606E-03     38.7534E-03
            5573            5630     48.6424E-03     47.4676E-03
            5573            5637     40.9268E-03     37.5721E-03
            5573            5638     47.2258E-03     44.9345E-03
            5574            5630     48.6424E-03     47.4676E-03
            5574            5631     58.7000E-03     59.3211E-03
            5574            5638     47.2258E-03     44.9345E-03
            5574            5639     56.0998E-03     55.8191E-03
            5575            5631     58.7000E-03     59.3211E-03
            5575            5632     70.3880E-03     70.8846E-03
            5575            5639     56.0998E-03     55.8191E-03
            5575            5640     65.2917E-03     66.4588E-03
            5576             267     69.8030E-03     71.0586E-03
            5576             268     76.7356E-03     76.4536E-03
            5576            5632     70.3880E-03     70.8846E-03
            5576            5640     65.2917E-03     66.4588E-03
            5577             657     64.0311E-03     65.7256E-03
            5577             658     56.0639E-03     53.4246E-03
            5577            5633     59.9287E-03     61.2353E-03
            5577            5641     54.4933E-03     51.0055E-03
            5578            5633     59.9287E-03     61.2353E-03
            5578            5634     51.7688E-03     51.1231E-03
            5578            5641     54.4933E-03     51.0055E-03
            5578            5642     49.6732E-03     45.5426E-03
            5579            5634     51.7688E-03     51.1231E-03
            5579            5635     44.2691E-03     41.4826E-03
            5579            5642     49.6732E-03     45.5426E-03
            5579            5643     43.9015E-03     40.4465E-03
            5580            5635     44.2691E-03     41.4826E-03
            5580            5636     39.8240E-03     36.2593E-03
            5580            5643     43.9015E-03     40.4465E-03
            5580            5644     40.7568E-03     37.9372E-03
            5581            5636     39.8240E-03     36.2593E-03
            5581            5637     40.9268E-03     37.5721E-03
            5581            5644     40.7568E-03     37.9372E-03
            5581            5645     41.5973E-03     38.9155E-03
            5582            5637     40.9268E-03     37.5721E-03
            5582            5638     47.2258E-03     44.9345E-03
            5582            5645     41.5973E-03     38.9155E-03
            5582            5646     46.2043E-03     43.1559E-03
            5583            5638     47.2258E-03     44.9345E-03
            5583            5639     56.0998E-03     55.8191E-03
            5583            5646     46.2043E-03     43.1559E-03
            5583            5647     53.0302E-03     49.5991E-03
            5584            5639     56.0998E-03     55.8191E-03
            5584            5640     65.2917E-03     66.4588E-03
            5584            5647     53.0302E-03     49.5991E-03
            5584            5648     59.0041E-03     56.1938E-03
            5585             266     61.2962E-03     59.1502E-03
            5585             267     69.8030E-03     71.0586E-03
            5585            5640     65.2917E-03     66.4588E-03
            5585            5648     59.0041E-03     56.1938E-03
            5586             658     56.0639E-03     53.4246E-03
            5586             659     67.7896E-03     61.4916E-03
            5586            5641     54.4933E-03     51.0055E-03
            5586            5649     60.9842E-03     55.4410E-03
            5587            5641     54.4933E-03     51.0055E-03
            5587            5642     49.6732E-03     45.5426E-03
            5587            5649     60.9842E-03     55.4410E-03
            5587            5650     49.0750E-03     45.4534E-03
            5588            5642     49.6732E-03     45.5426E-03
            5588            5643     43.9015E-03     40.4465E-03
            5588            5650     49.0750E-03     45.4534E-03
            5588            5651     41.3158E-03     39.5865E-03
            5589            5643     43.9015E-03     40.4465E-03
            5589            5644     40.7568E-03     37.9372E-03
            5589            5651     41.3158E-03     39.5865E-03
            5589            5652     37.4984E-03     36.8142E-03
            5590            5644     40.7568E-03     37.9372E-03
            5590            5645     41.5973E-03     38.9155E-03
            5590            5652     37.4984E-03     36.8142E-03
            5590            5653     38.1913E-03     37.4457E-03
            5591            5645     41.5973E-03     38.9155E-03
            5591            5646     46.2043E-03     43.1559E-03
            5591            5653     38.1913E-03     37.4457E-03
            5591            5654     43.2936E-03     41.3942E-03
            5592            5646     46.2043E-03     43.1559E-03
            5592            5647     53.0302E-03     49.5991E-03
            5592            5654     43.2936E-03     41.3942E-03
            5592            5655     51.9278E-03     48.2226E-03
            5593            5647     53.0302E-03     49.5991E-03
            5593            5648     59.0041E-03     56.1938E-03
            5593            5655     51.9278E-03     48.2226E-03
            5593            5656     64.7399E-03     59.3054E-03
            5594             265     72.1653E-03     66.0342E-03
            5594             266     61.2962E-03     59.1502E-03
            5594            5648     59.0041E-03     56.1938E-03
            5594            5656     64.7399E-03     59.3054E-03
            5595             659     67.7896E-03     61.4916E-03
            5595             660     78.0521E-03     76.1000E-03
            5595            5649     60.9842E-03     55.4410E-03
            5595            5657     68.5313E-03     67.4254E-03
            5596            5649     60.9842E-03     55.4410E-03
            5596            5650     49.0750E-03     45.4534E-03
            5596            5657     68.5313E-03     67.4254E-03
            5596            5658     51.6008E-03     51.6355E-03
            5597            5650     49.0750E-03     45.4534E-03
            5597            5651     41.3158E-03     39.5865E-03
            5597            5658     51.6008E-03     51.6355E-03
            5597            5659     40.6975E-03     41.3879E-03
            5598            5651     41.3158E-03     39.5865E-03
            5598            5652     37.4984E-03     36.8142E-03
            5598            5659     40.6975E-03     41.3879E-03
            5598            5660     35.9177E-03     37.0967E-03
            5599            5652     37.4984E-03     36.8142E-03
            5599            5653     38.1913E-03     37.4457E-03
            5599            5660     35.9177E-03     37.0967E-03
            5599            5661     36.6019E-03     37.6231E-03
            5600            5653     38.1913E-03     37.4457E-03
            5600            5654     43.2936E-03     41.3942E-03
            5600            5661     36.6019E-03     37.6231E-03
            5600            5662     42.5662E-03     42.8324E-03
            5601            5654     43.2936E-03     41.3942E-03
            5601            5655     51.9278E-03     48.2226E-03
            5601            5662     42.5662E-03     42.8324E-03
            5601            5663     54.3217E-03     53.8320E-03
            5602            5655     51.9278E-03     48.2226E-03
            5602            5656     64.7399E-03     59.3054E-03
            5602            5663     54.3217E-03     53.8320E-03
            5602            5664     71.9128E-03     70.2473E-03
            5603             264     81.7424E-03     79.1869E-03
            5603             265     72.1653E-03     66.0342E-03
            5603            5656     64.7399E-03     59.3054E-03
            5603            5664     71.9128E-03     70.2473E-03
            5604             660     78.0521E-03     76.1000E-03
            5604             661     67.8289E-03     67.4453E-03
            5604            5657     68.5313E-03     67.4254E-03
            5604            5665     62.8069E-03     62.9004E-03
            5605            5657     68.5313E-03     67.4254E-03
            5605            5658     51.6008E-03     51.6355E-03
            5605            5665     62.8069E-03     62.9004E-03
            5605            5666     52.5326E-03     53.5012E-03
            5606            5658     51.6008E-03     51.6355E-03
            5606            5659     40.6975E-03     41.3879E-03
            5606            5666     52.5326E-03     53.5012E-03
            5606            5667     43.9842E-03     45.5074E-03
            5607            5659     40.6975E-03     41.3879E-03
            5607            5660     35.9177E-03     37.0967E-03
            5607            5667     43.9842E-03     45.5074E-03
            5607            5668     40.1147E-03     41.8623E-03
            5608            5660     35.9177E-03     37.0967E-03
            5608            5661     36.6019E-03     37.6231E-03
            5608            5668     40.1147E-03     41.8623E-03
            5608            5669     40.7252E-03     42.3843E-03
            5609            5661     36.6019E-03     37.6231E-03
            5609            5662     42.5662E-03     42.8324E-03
            5609            5669     40.7252E-03     42.3843E-03
            5609            5670     45.6644E-03     47.0176E-03
            5610            5662     42.5662E-03     42.8324E-03
            5610            5663     54.3217E-03     53.8320E-03
            5610            5670     45.6644E-03     47.0176E-03
            5610            5671     55.0223E-03     55.8781E-03
            5611            5663     54.3217E-03     53.8320E-03
            5611            5664     71.9128E-03     70.2473E-03
            5611            5671     55.0223E-03     55.8781E-03
            5611            5672     65.8259E-03     65.8677E-03
            5612             263     71.0269E-03     70.6026E-03
            5612             264     81.7424E-03     79.1869E-03
            5612            5664     71.9128E-03     70.2473E-03
            5612            5672     65.8259E-03     65.8677E-03
            5613             661     67.8289E-03     67.4453E-03
            5613             662     60.5948E-03     60.0924E-03
            5613            5665     62.8069E-03     62.9004E-03
            5613            5673     56.6771E-03     56.4405E-03
            5614            5665     62.8069E-03     62.9004E-03
            5614            5666     52.5326E-03     53.5012E-03
            5614            5673     56.6771E-03     56.4405E-03
            5614            5674     49.8922E-03     50.4073E-03
            5615            5666     52.5326E-03     53.5012E-03
            5615            5667     43.9842E-03     45.5074E-03
            5615            5674     49.8922E-03     50.4073E-03
            5615            5675     45.0132E-03     46.2698E-03
            5616            5667     43.9842E-03     45.5074E-03
            5616            5668     40.1147E-03     41.8623E-03
            5616            5675     45.0132E-03     46.2698E-03
            5616            5676     42.3811E-03     43.9089E-03
            5617            5668     40.1147E-03     41.8623E-03
            5617            5669     40.7252E-03     42.3843E-03
            5617            5676     42.3811E-03     43.9089E-03
            5617            5677     42.9236E-03     44.4085E-03
            5618            5669     40.7252E-03     42.3843E-03
            5618            5670     45.6644E-03     47.0176E-03
            5618            5677     42.9236E-03     44.4085E-03
            5618            5678     46.5772E-03     47.7301E-03
            5619            5670     45.6644E-03     47.0176E-03
            5619            5671     55.0223E-03     55.8781E-03
            5619            5678     46.5772E-03     47.7301E-03
            5619            5679     52.2534E-03     52.6334E-03
            5620            5671     55.0223E-03     55.8781E-03
            5620            5672     65.8259E-03     65.8677E-03
            5620            5679     52.2534E-03     52.6334E-03
            5620            5680     59.5758E-03     59.1344E-03
            5621             262     63.7128E-03     62.9494E-03
            5621             263     71.0269E-03     70.6026E-03
            5621            5672     65.8259E-03     65.8677E-03
            5621            5680     59.5758E-03     59.1344E-03
            5622             662     60.5948E-03     60.0924E-03
            5622             663     55.1789E-03     54.5300E-03
            5622            5673     56.6771E-03     56.4405E-03
            5622            5681     52.0851E-03     51.7676E-03
            5623            5673     56.6771E-03     56.4405E-03
            5623            5674     49.8922E-03     50.4073E-03
            5623            5681     52.0851E-03     51.7676E-03
            5623            5682     47.0637E-03     47.3186E-03
            5624            5674     49.8922E-03     50.4073E-03
            5624            5675     45.0132E-03     46.2698E-03
            5624            5682     47.0637E-03     47.3186E-03
            5624            5683     44.2499E-03     44.9396E-03
            5625            5675     45.0132E-03     46.2698E-03
            5625            5676     42.3811E-03     43.9089E-03
            5625            5683     44.2499E-03     44.9396E-03
            5625            5684     43.2185E-03     44.1577E-03
            5626            5676     42.3811E-03     43.9089E-03
            5626            5677     42.9236E-03     44.4085E-03
            5626            5684     43.2185E-03     44.1577E-03
            5626            5685     43.7251E-03     44.6123E-03
            5627            5677     42.9236E-03     44.4085E-03
            5627            5678     46.5772E-03     47.7301E-03
            5627            5685     43.7251E-03     44.6123E-03
            5627            5686     45.7012E-03     46.2309E-03
            5628            5678     46.5772E-03     47.7301E-03
            5628            5679     52.2534E-03     52.6334E-03
            5628            5686     45.7012E-03     46.2309E-03
            5628            5687     49.2765E-03     49.3095E-03
            5629            5679     52.2534E-03     52.6334E-03
            5629            5680     59.5758E-03     59.1344E-03
            5629            5687     49.2765E-03     49.3095E-03
            5629            5688     54.8060E-03     54.3066E-03
            5630             261     58.0846E-03     57.2995E-03
            5630             262     63.7128E-03     62.9494E-03
            5630            5680     59.5758E-03     59.1344E-03
            5630            5688     54.8060E-03     54.3066E-03
            5631             663     55.1789E-03     54.5300E-03
            5631             664     49.5913E-03     49.1393E-03
            5631            5681     52.0851E-03     51.7676E-03
            5631            5689     47.5643E-03     47.3619E-03
            5632            5681     52.0851E-03     51.7676E-03
            5632            5682     47.0637E-03     47.3186E-03
            5632            5689     47.5643E-03     47.3619E-03
            5632            5690     44.5719E-03     44.7685E-03
            5633            5682     47.0637E-03     47.3186E-03
            5633            5683     44.2499E-03     44.9396E-03
            5633            5690     44.5719E-03     44.7685E-03
            5633            5691     43.3145E-03     43.6513E-03
            5634            5683     44.2499E-03     44.9396E-03
            5634            5684     43.2185E-03     44.1577E-03
            5634            5691     43.3145E-03     43.6513E-03
            5634            5692     43.1689E-03     43.4735E-03
            5635            5684     43.2185E-03     44.1577E-03
            5635            5685     43.7251E-03     44.6123E-03
            5635            5692     43.1689E-03     43.4735E-03
            5635            5693     43.6191E-03     43.8552E-03
            5636            5685     43.7251E-03     44.6123E-03
            5636            5686     45.7012E-03     46.2309E-03
            5636            5693     43.6191E-03     43.8552E-03
            5636            5694     44.6232E-03     44.7735E-03
            5637            5686     45.7012E-03     46.2309E-03
            5637            5687     49.2765E-03     49.3095E-03
            5637            5694     44.6232E-03     44.7735E-03
            5637            5695     46.5989E-03     46.5677E-03
            5638            5687     49.2765E-03     49.3095E-03
            5638            5688     54.8060E-03     54.3066E-03
            5638            5695     46.5989E-03     46.5677E-03
            5638            5696     50.1145E-03     49.7051E-03
            5639             260     52.3545E-03     51.7082E-03
            5639             261     58.0846E-03     57.2995E-03
            5639            5688     54.8060E-03     54.3066E-03
            5639            5696     50.1145E-03     49.7051E-03
            5640             664     49.5913E-03     49.1393E-03
            5640             665     44.4255E-03     44.1103E-03
            5640            5689     47.5643E-03     47.3619E-03
            5640            5697     43.3292E-03     43.2992E-03
            5641            5689     47.5643E-03     47.3619E-03
            5641            5690     44.5719E-03     44.7685E-03
            5641            5697     43.3292E-03     43.2992E-03
            5641            5698     42.1957E-03     42.4087E-03
            5642            5690     44.5719E-03     44.7685E-03
            5642            5691     43.3145E-03     43.6513E-03
            5642            5698     42.1957E-03     42.4087E-03
            5642            5699     42.4175E-03     42.4255E-03
            5643            5691     43.3145E-03     43.6513E-03
            5643            5692     43.1689E-03     43.4735E-03
            5643            5699     42.4175E-03     42.4255E-03
            5643            5700     42.8783E-03     42.6122E-03
            5644            5692     43.1689E-03     43.4735E-03
            5644            5693     43.6191E-03     43.8552E-03
            5644            5700     42.8783E-03     42.6122E-03
            5644            5701     43.2650E-03     42.9445E-03
            5645            5693     43.6191E-03     43.8552E-03
            5645            5694     44.6232E-03     44.7735E-03
            5645            5701     43.2650E-03     42.9445E-03
            5645            5702     43.5584E-03     43.4074E-03
            5646            5694     44.6232E-03     44.7735E-03
            5646            5695     46.5989E-03     46.5677E-03
            5646            5702     43.5584E-03     43.4074E-03
            5646            5703     44.0179E-03     43.9962E-03
            5647            5695     46.5989E-03     46.5677E-03
            5647            5696     50.1145E-03     49.7051E-03
            5647            5703     44.0179E-03     43.9962E-03
            5647            5704     45.6699E-03     45.4380E-03
            5648             259     46.9707E-03     46.5120E-03
            5648             260     52.3545E-03     51.7082E-03
            5648            5696     50.1145E-03     49.7051E-03
            5648            5704     45.6699E-03     45.4380E-03
            5649             665     44.4255E-03     44.1103E-03
            5649             666     39.2211E-03     39.3251E-03
            5649            5697     43.3292E-03     43.2992E-03
            5649            5705     39.3756E-03     39.6454E-03
            5650            5697     43.3292E-03     43.2992E-03
            5650            5698     42.1957E-03     42.4087E-03
            5650            5705     39.3756E-03     39.6454E-03
            5650            5706     40.2670E-03     40.4875E-03
            5651            5698     42.1957E-03     42.4087E-03
            5651            5699     42.4175E-03     42.4255E-03
            5651            5706     40.2670E-03     40.4875E-03
            5651            5707     41.5811E-03     41.2173E-03
            5652            5699     42.4175E-03     42.4255E-03
            5652            5700     42.8783E-03     42.6122E-03
            5652            5707     41.5811E-03     41.2173E-03
            5652            5708     42.4389E-03     41.5469E-03
            5653            5700     42.8783E-03     42.6122E-03
            5653            5701     43.2650E-03     42.9445E-03
            5653            5708     42.4389E-03     41.5469E-03
            5653            5709     42.7481E-03     41.8427E-03
            5654            5701     43.2650E-03     42.9445E-03
            5654            5702     43.5584E-03     43.4074E-03
            5654            5709     42.7481E-03     41.8427E-03
            5654            5710     42.5257E-03     42.0714E-03
            5655            5702     43.5584E-03     43.4074E-03
            5655            5703     44.0179E-03     43.9962E-03
            5655            5710     42.5257E-03     42.0714E-03
            5655            5711     41.8282E-03     41.8729E-03
            5656            5703     44.0179E-03     43.9962E-03
            5656            5704     45.6699E-03     45.4380E-03
            5656            5711     41.8282E-03     41.8729E-03
            5656            5712     41.4762E-03     41.5381E-03
            5657             258     41.5708E-03     41.4563E-03
            5657             259     46.9707E-03     46.5120E-03
            5657            5704     45.6699E-03     45.4380E-03
            5657            5712     41.4762E-03     41.5381E-03
            5658             666     39.2211E-03     39.3251E-03
            5658             667     34.1324E-03     34.6773E-03
            5658            5705     39.3756E-03     39.6454E-03
            5658            5713     35.7212E-03     36.3808E-03
            5659            5705     39.3756E-03     39.6454E-03
            5659            5706     40.2670E-03     40.4875E-03
            5659            5713     35.7212E-03     36.3808E-03
            5659            5714     38.8679E-03     38.9947E-03
            5660            5706     40.2670E-03     40.4875E-03
            5660            5707     41.5811E-03     41.2173E-03
            5660            5714     38.8679E-03     38.9947E-03
            5660            5715     40.9849E-03     40.0074E-03
            5661            5707     41.5811E-03     41.2173E-03
            5661            5708     42.4389E-03     41.5469E-03
            5661            5715     40.9849E-03     40.0074E-03
            5661            5716     41.6322E-03     40.1312E-03
            5662            5708     42.4389E-03     41.5469E-03
            5662            5709     42.7481E-03     41.8427E-03
            5662            5716     41.6322E-03     40.1312E-03
            5662            5717     41.8500E-03     40.4006E-03
            5663            5709     42.7481E-03     41.8427E-03
            5663            5710     42.5257E-03     42.0714E-03
            5663            5717     41.8500E-03     40.4006E-03
            5663            5718     41.6650E-03     40.7638E-03
            5664            5710     42.5257E-03     42.0714E-03
            5664            5711     41.8282E-03     41.8729E-03
            5664            5718     41.6650E-03     40.7638E-03
            5664            5719     40.0959E-03     40.1575E-03
            5665            5711     41.8282E-03     41.8729E-03
            5665            5712     41.4762E-03     41.5381E-03
            5665            5719     40.0959E-03     40.1575E-03
            5665            5720     37.5020E-03     37.9906E-03
            5666             257     36.1626E-03     36.5453E-03
            5666             258     41.5708E-03     41.4563E-03
            5666            5712     41.4762E-03     41.5381E-03
            5666            5720     37.5020E-03     37.9906E-03
            5667             667     34.1324E-03     34.6773E-03
            5667             668     29.0106E-03     30.6951E-03
            5667            5713     35.7212E-03     36.3808E-03
            5667            5721     32.7934E-03     33.6496E-03
            5668            5713     35.7212E-03     36.3808E-03
            5668            5714     38.8679E-03     38.9947E-03
            5668            5721     32.7934E-03     33.6496E-03
            5668            5722     38.2387E-03     37.5142E-03
            5669            5714     38.8679E-03     38.9947E-03
            5669            5715     40.9849E-03     40.0074E-03
            5669            5722     38.2387E-03     37.5142E-03
            5669            5723     40.1120E-03     38.5121E-03
            5670            5715     40.9849E-03     40.0074E-03
            5670            5716     41.6322E-03     40.1312E-03
            5670            5723     40.1120E-03     38.5121E-03
            5670            5724     40.5226E-03     38.7531E-03
            5671            5716     41.6322E-03     40.1312E-03
            5671            5717     41.8500E-03     40.4006E-03
            5671            5724     40.5226E-03     38.7531E-03
            5671            5725     40.6632E-03     38.9710E-03
            5672            5717     41.8500E-03     40.4006E-03
            5672            5718     41.6650E-03     40.7638E-03
            5672            5725     40.6632E-03     38.9710E-03
            5672            5726     40.5010E-03     39.1496E-03
            5673            5718     41.6650E-03     40.7638E-03
            5673            5719     40.0959E-03     40.1575E-03
            5673            5726     40.5010E-03     39.1496E-03
            5673            5727     38.9333E-03     38.4722E-03
            5674            5719     40.0959E-03     40.1575E-03
            5674            5720     37.5020E-03     37.9906E-03
            5674            5727     38.9333E-03     38.4722E-03
            5674            5728     34.0783E-03     34.8670E-03
            5675             256     30.6880E-03     32.0530E-03
            5675             257     36.1626E-03     36.5453E-03
            5675            5720     37.5020E-03     37.9906E-03
            5675            5728     34.0783E-03     34.8670E-03
            5676             668     29.0106E-03     30.6951E-03
            5676             669     25.0373E-03     25.6969E-03
            5676            5721     32.7934E-03     33.6496E-03
            5676            5729     30.5809E-03     30.0570E-03
            5677            5721     32.7934E-03     33.6496E-03
            5677            5722     38.2387E-03     37.5142E-03
            5677            5729     30.5809E-03     30.0570E-03
            5677            5730     37.2481E-03     35.5834E-03
            5678            5722     38.2387E-03     37.5142E-03
            5678            5723     40.1120E-03     38.5121E-03
            5678            5730     37.2481E-03     35.5834E-03
            5678            5731     38.9862E-03     37.4939E-03
            5679            5723     40.1120E-03     38.5121E-03
            5679            5724     40.5226E-03     38.7531E-03
            5679            5731     38.9862E-03     37.4939E-03
            5679            5732     39.7079E-03     38.3822E-03
            5680            5724     40.5226E-03     38.7531E-03
            5680            5725     40.6632E-03     38.9710E-03
            5680            5732     39.7079E-03     38.3822E-03
            5680            5733     39.7652E-03     38.5102E-03
            5681            5725     40.6632E-03     38.9710E-03
            5681            5726     40.5010E-03     39.1496E-03
            5681            5733     39.7652E-03     38.5102E-03
            5681            5734     39.1510E-03     37.8791E-03
            5682            5726     40.5010E-03     39.1496E-03
            5682            5727     38.9333E-03     38.4722E-03
            5682            5734     39.1510E-03     37.8791E-03
            5682            5735     37.4051E-03     36.1848E-03
            5683            5727     38.9333E-03     38.4722E-03
            5683            5728     34.0783E-03     34.8670E-03
            5683            5735     37.4051E-03     36.1848E-03
            5683            5736     30.8535E-03     30.6610E-03
            5684             255     25.4836E-03     26.2167E-03
            5684             256     30.6880E-03     32.0530E-03
            5684            5728     34.0783E-03     34.8670E-03
            5684            5736     30.8535E-03     30.6610E-03
            5685             669     25.0373E-03     25.6969E-03
            5685             670     32.4281E-03     31.5165E-03
            5685            5729     30.5809E-03     30.0570E-03
            5685            5737     34.6780E-03     33.7253E-03
            5686            5729     30.5809E-03     30.0570E-03
            5686            5730     37.2481E-03     35.5834E-03
            5686            5737     34.6780E-03     33.7253E-03
            5686            5738     37.2049E-03     36.4353E-03
            5687            5730     37.2481E-03     35.5834E-03
            5687            5731     38.9862E-03     37.4939E-03
            5687            5738     37.2049E-03     36.4353E-03
            5687            5739     38.3357E-03     37.8323E-03
            5688            5731     38.9862E-03     37.4939E-03
            5688            5732     39.7079E-03     38.3822E-03
            5688            5739     38.3357E-03     37.8323E-03
            5688            5740     39.2126E-03     38.8139E-03
            5689            5732     39.7079E-03     38.3822E-03
            5689            5733     39.7652E-03     38.5102E-03
            5689            5740     39.2126E-03     38.8139E-03
            5689            5741     39.2560E-03     38.8653E-03
            5690            5733     39.7652E-03     38.5102E-03
            5690            5734     39.1510E-03     37.8791E-03
            5690            5741     39.2560E-03     38.8653E-03
            5690            5742     38.4947E-03     37.9721E-03
            5691            5734     39.1510E-03     37.8791E-03
            5691            5735     37.4051E-03     36.1848E-03
            5691            5742     38.4947E-03     37.9721E-03
            5691            5743     37.4010E-03     36.6824E-03
            5692            5735     37.4051E-03     36.1848E-03
            5692            5736     30.8535E-03     30.6610E-03
            5692            5743     37.4010E-03     36.6824E-03
            5692            5744     34.8973E-03     33.9550E-03
            5693             254     32.7055E-03     31.6582E-03
            5693             255     25.4836E-03     26.2167E-03
            5693            5736     30.8535E-03     30.6610E-03
            5693            5744     34.8973E-03     33.9550E-03
            5694             670     32.4281E-03     31.5165E-03
            5694             671     36.6394E-03     36.4008E-03
            5694            5737     34.6780E-03     33.7253E-03
            5694            5745     37.8611E-03     37.9207E-03
            5695            5737     34.6780E-03     33.7253E-03
            5695            5738     37.2049E-03     36.4353E-03
            5695            5745     37.8611E-03     37.9207E-03
            5695            5746     38.9678E-03     39.2975E-03
            5696            5738     37.2049E-03     36.4353E-03
            5696            5739     38.3357E-03     37.8323E-03
            5696            5746     38.9678E-03     39.2975E-03
            5696            5747     39.3980E-03     39.6073E-03
            5697            5739     38.3357E-03     37.8323E-03
            5697            5740     39.2126E-03     38.8139E-03
            5697            5747     39.3980E-03     39.6073E-03
            5697            5748     39.8843E-03     39.9723E-03
            5698            5740     39.2126E-03     38.8139E-03
            5698            5741     39.2560E-03     38.8653E-03
            5698            5748     39.8843E-03     39.9723E-03
            5698            5749     39.9408E-03     39.9988E-03
            5699            5741     39.2560E-03     38.8653E-03
            5699            5742     38.4947E-03     37.9721E-03
            5699            5749     39.9408E-03     39.9988E-03
            5699            5750     39.5958E-03     39.6728E-03
            5700            5742     38.4947E-03     37.9721E-03
            5700            5743     37.4010E-03     36.6824E-03
            5700            5750     39.5958E-03     39.6728E-03
            5700            5751     39.3174E-03     39.4822E-03
            5701            5743     37.4010E-03     36.6824E-03
            5701            5744     34.8973E-03     33.9550E-03
            5701            5751     39.3174E-03     39.4822E-03
            5701            5752     38.4983E-03     38.2254E-03
            5702             253     37.4973E-03     36.7187E-03
            5702             254     32.7055E-03     31.6582E-03
            5702            5744     34.8973E-03     33.9550E-03
            5702            5752     38.4983E-03     38.2254E-03
            5703             671     36.6394E-03     36.4008E-03
            5703             672     28.4119E-03     28.7503E-03
            5703            5745     37.8611E-03     37.9207E-03
            5703            5753     33.2346E-03     33.5171E-03
            5704            5745     37.8611E-03     37.9207E-03
            5704            5746     38.9678E-03     39.2975E-03
            5704            5753     33.2346E-03     33.5171E-03
            5704            5754     39.7192E-03     39.9109E-03
            5705            5746     38.9678E-03     39.2975E-03
            5705            5747     39.3980E-03     39.6073E-03
            5705            5754     39.7192E-03     39.9109E-03
            5705            5755     41.2993E-03     41.4135E-03
            5706            5747     39.3980E-03     39.6073E-03
            5706            5748     39.8843E-03     39.9723E-03
            5706            5755     41.2993E-03     41.4135E-03
            5706            5756     41.2788E-03     41.3358E-03
            5707            5748     39.8843E-03     39.9723E-03
            5707            5749     39.9408E-03     39.9988E-03
            5707            5756     41.2788E-03     41.3358E-03
            5707            5757     41.3092E-03     41.3605E-03
            5708            5749     39.9408E-03     39.9988E-03
            5708            5750     39.5958E-03     39.6728E-03
            5708            5757     41.3092E-03     41.3605E-03
            5708            5758     41.3874E-03     41.4967E-03
            5709            5750     39.5958E-03     39.6728E-03
            5709            5751     39.3174E-03     39.4822E-03
            5709            5758     41.3874E-03     41.4967E-03
            5709            5759     39.9640E-03     40.0125E-03
            5710            5751     39.3174E-03     39.4822E-03
            5710            5752     38.4983E-03     38.2254E-03
            5710            5759     39.9640E-03     40.0125E-03
            5710            5760     33.6932E-03     33.6668E-03
            5711             252     28.9550E-03     28.9636E-03
            5711             253     37.4973E-03     36.7187E-03
            5711            5752     38.4983E-03     38.2254E-03
            5711            5760     33.6932E-03     33.6668E-03
            5712             672     28.4119E-03     28.7503E-03
            5712             673     24.9674E-03     25.6351E-03
            5712            5753     33.2346E-03     33.5171E-03
            5712            5761     31.0166E-03     31.3005E-03
            5713            5753     33.2346E-03     33.5171E-03
            5713            5754     39.7192E-03     39.9109E-03
            5713            5761     31.0166E-03     31.3005E-03
            5713            5762     39.2650E-03     39.1200E-03
            5714            5754     39.7192E-03     39.9109E-03
            5714            5755     41.2993E-03     41.4135E-03
            5714            5762     39.2650E-03     39.1200E-03
            5714            5763     41.5274E-03     41.4131E-03
            5715            5755     41.2993E-03     41.4135E-03
            5715            5756     41.2788E-03     41.3358E-03
            5715            5763     41.5274E-03     41.4131E-03
            5715            5764     41.6122E-03     41.5693E-03
            5716            5756     41.2788E-03     41.3358E-03
            5716            5757     41.3092E-03     41.3605E-03
            5716            5764     41.6122E-03     41.5693E-03
            5716            5765     41.6187E-03     41.5909E-03
            5717            5757     41.3092E-03     41.3605E-03
            5717            5758     41.3874E-03     41.4967E-03
            5717            5765     41.6187E-03     41.5909E-03
            5717            5766     41.5375E-03     41.4837E-03
            5718            5758     41.3874E-03     41.4967E-03
            5718            5759     39.9640E-03     40.0125E-03
            5718            5766     41.5375E-03     41.4837E-03
            5718            5767     39.3447E-03     39.1426E-03
            5719            5759     39.9640E-03     40.0125E-03
            5719            5760     33.6932E-03     33.6668E-03
            5719            5767     39.3447E-03     39.1426E-03
            5719            5768     31.2690E-03     31.2032E-03
            5720             251     25.3199E-03     25.4933E-03
            5720             252     28.9550E-03     28.9636E-03
            5720            5760     33.6932E-03     33.6668E-03
            5720            5768     31.2690E-03     31.2032E-03
            5721             673     24.9674E-03     25.6351E-03
            5721             674     26.8656E-03     27.1900E-03
            5721            5761     31.0166E-03     31.3005E-03
            5721            5769     31.9289E-03     31.9494E-03
            5722            5761     31.0166E-03     31.3005E-03
            5722            5762     39.2650E-03     39.1200E-03
            5722            5769     31.9289E-03     31.9494E-03
            5722            5770     38.1996E-03     37.9434E-03
            5723            5762     39.2650E-03     39.1200E-03
            5723            5763     41.5274E-03     41.4131E-03
            5723            5770     38.1996E-03     37.9434E-03
            5723            5771     40.2621E-03     40.0835E-03
            5724            5763     41.5274E-03     41.4131E-03
            5724            5764     41.6122E-03     41.5693E-03
            5724            5771     40.2621E-03     40.0835E-03
            5724            5772     41.1863E-03     41.0942E-03
            5725            5764     41.6122E-03     41.5693E-03
            5725            5765     41.6187E-03     41.5909E-03
            5725            5772     41.1863E-03     41.0942E-03
            5725            5773     41.1694E-03     41.1080E-03
            5726            5765     41.6187E-03     41.5909E-03
            5726            5766     41.5375E-03     41.4837E-03
            5726            5773     41.1694E-03     41.1080E-03
            5726            5774     40.2260E-03     40.1009E-03
            5727            5766     41.5375E-03     41.4837E-03
            5727            5767     39.3447E-03     39.1426E-03
            5727            5774     40.2260E-03     40.1009E-03
            5727            5775     38.0766E-03     37.9586E-03
            5728            5767     39.3447E-03     39.1426E-03
            5728            5768     31.2690E-03     31.2032E-03
            5728            5775     38.0766E-03     37.9586E-03
            5728            5776     31.7661E-03     31.7601E-03
            5729             250     26.7477E-03     26.7884E-03
            5729             251     25.3199E-03     25.4933E-03
            5729            5768     31.2690E-03     31.2032E-03
            5729            5776     31.7661E-03     31.7601E-03
            5730              13     14.9183E-03     14.9704E-03
            5730             674     26.8656E-03     27.1900E-03
            5730             792     16.8074E-03     16.7691E-03
            5730            5769     31.9289E-03     31.9494E-03
            5731             792     16.8074E-03     16.7691E-03
            5731             793     19.2372E-03     19.1332E-03
            5731            5769     31.9289E-03     31.9494E-03
            5731            5770     38.1996E-03     37.9434E-03
            5732             793     19.2372E-03     19.1332E-03
            5732             794     20.2943E-03     20.2246E-03
            5732            5770     38.1996E-03     37.9434E-03
            5732            5771     40.2621E-03     40.0835E-03
            5733             794     20.2943E-03     20.2246E-03
            5733             795     20.9755E-03     20.9371E-03
            5733            5771     40.2621E-03     40.0835E-03
            5733            5772     41.1863E-03     41.0942E-03
            5734             795     20.9755E-03     20.9371E-03
            5734             796     20.9620E-03     20.9398E-03
            5734            5772     41.1863E-03     41.0942E-03
            5734            5773     41.1694E-03     41.1080E-03
            5735             796     20.9620E-03     20.9398E-03
            5735             797     20.2618E-03     20.2218E-03
            5735            5773     41.1694E-03     41.1080E-03
            5735            5774     40.2260E-03     40.1009E-03
            5736             797     20.2618E-03     20.2218E-03
            5736             798     19.1459E-03     19.1274E-03
            5736            5774     40.2260E-03     40.1009E-03
            5736            5775     38.0766E-03     37.9586E-03
            5737             798     19.1459E-03     19.1274E-03
            5737             799     16.6440E-03     16.6325E-03
            5737            5775     38.0766E-03     37.9586E-03
            5737            5776     31.7661E-03     31.7601E-03
            5738              15     14.7361E-03     14.6978E-03
            5738             250     26.7477E-03     26.7884E-03
            5738             799     16.6440E-03     16.6325E-03
            5738            5776     31.7661E-03     31.7601E-03


  Minimum                            693.453E-06     710.381E-06
      At Element                            5369            5369
            Node                             768             768

  Maximum                            184.867E-03     178.359E-03
      At Element                            3958            3868
            Node                               8             182

           Total                         234.411         231.944


Field Output reported at element nodes for region: A320-1.Region_3
   Computation algorithm: EXTRAPOLATE_COMPUTE_AVERAGE
   Averaged at nodes
   Averaging regions: ODB_REGIONS

   Element Label      Node Label         S.Mises         S.Mises
                                          @Loc 1          @Loc 2
-----------------------------------------------------------------
               1               1     959.525E-06     954.172E-06
               1              29     967.701E-06     961.468E-06
               1              46     937.169E-06     930.208E-06
               1             831     942.261E-06     936.124E-06
               2              29     967.701E-06     961.468E-06
               2              30     981.220E-06     967.898E-06
               2             831     942.261E-06     936.124E-06
               2             832     954.547E-06     940.972E-06
               3              30     981.220E-06     967.898E-06
               3              31     972.131E-06     954.554E-06
               3             832     954.547E-06     940.972E-06
               3             833     948.820E-06     932.450E-06
               4               2     17.2809E-03     17.1802E-03
               4              31     972.131E-06     954.554E-06
               4              32     17.4453E-03     17.3110E-03
               4             833     948.820E-06     932.450E-06
               5              45     855.693E-06     847.351E-06
               5              46     937.169E-06     930.208E-06
               5             831     942.261E-06     936.124E-06
               5             834     863.268E-06     858.550E-06
               6             831     942.261E-06     936.124E-06
               6             832     954.547E-06     940.972E-06
               6             834     863.268E-06     858.550E-06
               6             835     881.947E-06     866.775E-06
               7             832     954.547E-06     940.972E-06
               7             833     948.820E-06     932.450E-06
               7             835     881.947E-06     866.775E-06
               7             836     875.229E-06     865.219E-06
               8              32     17.4453E-03     17.3110E-03
               8              33     16.6576E-03     16.5056E-03
               8             833     948.820E-06     932.450E-06
               8             836     875.229E-06     865.219E-06
               9              44     732.260E-06     722.452E-06
               9              45     855.693E-06     847.351E-06
               9             834     863.268E-06     858.550E-06
               9             837     737.197E-06     735.070E-06
              10             834     863.268E-06     858.550E-06
              10             835     881.947E-06     866.775E-06
              10             837     737.197E-06     735.070E-06
              10             838     765.812E-06     744.024E-06
              11             835     881.947E-06     866.775E-06
              11             836     875.229E-06     865.219E-06
              11             838     765.812E-06     744.024E-06
              11             839     766.296E-06     761.861E-06
              12              33     16.6576E-03     16.5056E-03
              12              34     14.9377E-03     14.8195E-03
              12             836     875.229E-06     865.219E-06
              12             839     766.296E-06     761.861E-06
              13              43     559.539E-06     546.024E-06
              13              44     732.260E-06     722.452E-06
              13             837     737.197E-06     735.070E-06
              13             840     566.707E-06     578.147E-06
              14             837     737.197E-06     735.070E-06
              14             838     765.812E-06     744.024E-06
              14             840     566.707E-06     578.147E-06
              14             841     615.380E-06     594.206E-06
              15             838     765.812E-06     744.024E-06
              15             839     766.296E-06     761.861E-06
              15             841     615.380E-06     594.206E-06
              15             842     622.556E-06     628.048E-06
              16              34     14.9377E-03     14.8195E-03
              16              35     12.2323E-03     12.3464E-03
              16             839     766.296E-06     761.861E-06
              16             842     622.556E-06     628.048E-06
              17              42     364.182E-06     333.512E-06
              17              43     559.539E-06     546.024E-06
              17             840     566.707E-06     578.147E-06
              17             843     361.985E-06     389.345E-06
              18             840     566.707E-06     578.147E-06
              18             841     615.380E-06     594.206E-06
              18             843     361.985E-06     389.345E-06
              18             844     454.108E-06     413.190E-06
              19             841     615.380E-06     594.206E-06
              19             842     622.556E-06     628.048E-06
              19             844     454.108E-06     413.190E-06
              19             845     474.731E-06     486.953E-06
              20              35     12.2323E-03     12.3464E-03
              20              36     9.23426E-03     9.63795E-03
              20             842     622.556E-06     628.048E-06
              20             845     474.731E-06     486.953E-06
              21              41     253.097E-06     310.833E-06
              21              42     364.182E-06     333.512E-06
              21             843     361.985E-06     389.345E-06
              21             846     245.695E-06     324.588E-06
              22             843     361.985E-06     389.345E-06
              22             844     454.108E-06     413.190E-06
              22             846     245.695E-06     324.588E-06
              22             847     400.847E-06     341.408E-06
              23             844     454.108E-06     413.190E-06
              23             845     474.731E-06     486.953E-06
              23             847     400.847E-06     341.408E-06
              23             848     520.211E-06     534.714E-06
              24              36     9.23426E-03     9.63795E-03
              24              37     6.78201E-03     8.18547E-03
              24             845     474.731E-06     486.953E-06
              24             848     520.211E-06     534.714E-06
              25               4     228.961E-06     390.242E-06
              25              40     236.155E-06     362.961E-06
              25              41     253.097E-06     310.833E-06
              25             846     245.695E-06     324.588E-06
              26              39     428.634E-06     376.302E-06
              26              40     236.155E-06     362.961E-06
              26             846     245.695E-06     324.588E-06
              26             847     400.847E-06     341.408E-06
              27              38     628.428E-06     647.988E-06
              27              39     428.634E-06     376.302E-06
              27             847     400.847E-06     341.408E-06
              27             848     520.211E-06     534.714E-06
              28               3     5.69302E-03     8.01509E-03
              28              37     6.78201E-03     8.18547E-03
              28              38     628.428E-06     647.988E-06
              28             848     520.211E-06     534.714E-06
              29               2     17.2809E-03     17.1802E-03
              29              32     17.4453E-03     17.3110E-03
              29              47     33.8113E-03     33.5395E-03
              29             849     34.1562E-03     33.8484E-03
              30              47     33.8113E-03     33.5395E-03
              30              48     33.9429E-03     33.7734E-03
              30             849     34.1562E-03     33.8484E-03
              30             850     34.2825E-03     34.0718E-03
              31              48     33.9429E-03     33.7734E-03
              31              49     33.8333E-03     33.7268E-03
              31             850     34.2825E-03     34.0718E-03
              31             851     34.2166E-03     34.0514E-03
              32              49     33.8333E-03     33.7268E-03
              32              50     33.7348E-03     33.8021E-03
              32             851     34.2166E-03     34.0514E-03
              32             852     34.0973E-03     34.1539E-03
              33              50     33.7348E-03     33.8021E-03
              33              51     34.1467E-03     33.9122E-03
              33             852     34.0973E-03     34.1539E-03
              33             853     34.4066E-03     34.2773E-03
              34              51     34.1467E-03     33.9122E-03
              34              52     34.0346E-03     33.3271E-03
              34             853     34.4066E-03     34.2773E-03
              34             854     34.3387E-03     33.6736E-03
              35              52     34.0346E-03     33.3271E-03
              35              53     33.1131E-03     32.8438E-03
              35             854     34.3387E-03     33.6736E-03
              35             855     33.3628E-03     33.0767E-03
              36              53     33.1131E-03     32.8438E-03
              36              54     32.8923E-03     32.5478E-03
              36             855     33.3628E-03     33.0767E-03
              36             856     33.0312E-03     32.7411E-03
              37              54     32.8923E-03     32.5478E-03
              37              55     33.1746E-03     32.4201E-03
              37             856     33.0312E-03     32.7411E-03
              37             857     33.2935E-03     32.6383E-03
              38              55     33.1746E-03     32.4201E-03
              38              56     33.3029E-03     32.6339E-03
              38             857     33.2935E-03     32.6383E-03
              38             858     33.4418E-03     32.9368E-03
              39              56     33.3029E-03     32.6339E-03
              39              57     33.3323E-03     32.7822E-03
              39             858     33.4418E-03     32.9368E-03
              39             859     33.4732E-03     33.1317E-03
              40              57     33.3323E-03     32.7822E-03
              40              58     33.2899E-03     33.0300E-03
              40             859     33.4732E-03     33.1317E-03
              40             860     33.5291E-03     33.4405E-03
              41              58     33.2899E-03     33.0300E-03
              41              59     33.3068E-03     33.4084E-03
              41             860     33.5291E-03     33.4405E-03
              41             861     33.6802E-03     33.7818E-03
              42              59     33.3068E-03     33.4084E-03
              42              60     33.2997E-03     33.5105E-03
              42             861     33.6802E-03     33.7818E-03
              42             862     33.8148E-03     33.8819E-03
              43              60     33.2997E-03     33.5105E-03
              43              61     32.9880E-03     34.0267E-03
              43             862     33.8148E-03     33.8819E-03
              43             863     33.5141E-03     34.3369E-03
              44              61     32.9880E-03     34.0267E-03
              44              62     34.0746E-03     34.2748E-03
              44             863     33.5141E-03     34.3369E-03
              44             864     34.4102E-03     34.4862E-03
              45              62     34.0746E-03     34.2748E-03
              45              63     34.0019E-03     32.9858E-03
              45             864     34.4102E-03     34.4862E-03
              45             865     34.3749E-03     33.0837E-03
              46              63     34.0019E-03     32.9858E-03
              46              64     32.4870E-03     32.6540E-03
              46             865     34.3749E-03     33.0837E-03
              46             866     32.6967E-03     32.7100E-03
              47              64     32.4870E-03     32.6540E-03
              47              65     32.4422E-03     32.2621E-03
              47             866     32.6967E-03     32.7100E-03
              47             867     32.5447E-03     32.4803E-03
              48              65     32.4422E-03     32.2621E-03
              48              66     33.0662E-03     31.7308E-03
              48             867     32.5447E-03     32.4803E-03
              48             868     33.1486E-03     31.9814E-03
              49              66     33.0662E-03     31.7308E-03
              49              67     33.4465E-03     32.3720E-03
              49             868     33.1486E-03     31.9814E-03
              49             869     33.5604E-03     32.7480E-03
              50              67     33.4465E-03     32.3720E-03
              50              68     33.5124E-03     32.6977E-03
              50             869     33.5604E-03     32.7480E-03
              50             870     33.6528E-03     33.1548E-03
              51              68     33.5124E-03     32.6977E-03
              51              69     33.4647E-03     33.1702E-03
              51             870     33.6528E-03     33.1548E-03
              51             871     33.7997E-03     33.6672E-03
              52              69     33.4647E-03     33.1702E-03
              52              70     33.4820E-03     33.8077E-03
              52             871     33.7997E-03     33.6672E-03
              52             872     33.9939E-03     34.2143E-03
              53              70     33.4820E-03     33.8077E-03
              53              71     33.4367E-03     33.9248E-03
              53             872     33.9939E-03     34.2143E-03
              53             873     34.0710E-03     34.3174E-03
              54              71     33.4367E-03     33.9248E-03
              54              72     32.8806E-03     34.7118E-03
              54             873     34.0710E-03     34.3174E-03
              54             874     33.4616E-03     34.9250E-03
              55              72     32.8806E-03     34.7118E-03
              55              73     34.5437E-03     34.8920E-03
              55             874     33.4616E-03     34.9250E-03
              55             875     34.7201E-03     34.9357E-03
              56              73     34.5437E-03     34.8920E-03
              56              74     34.2990E-03     33.0058E-03
              56             875     34.7201E-03     34.9357E-03
              56             876     34.5222E-03     32.7987E-03
              57              74     34.2990E-03     33.0058E-03
              57              75     32.3617E-03     33.2429E-03
              57             876     34.5222E-03     32.7987E-03
              57             877     32.3662E-03     32.8992E-03
              58              75     32.3617E-03     33.2429E-03
              58              76     33.0643E-03     32.9387E-03
              58             877     32.3662E-03     32.8992E-03
              58             878     32.9128E-03     32.9329E-03
              59              76     33.0643E-03     32.9387E-03
              59              77     34.0947E-03     32.1727E-03
              59             878     32.9128E-03     32.9329E-03
              59             879     33.8916E-03     32.1832E-03
              60              77     34.0947E-03     32.1727E-03
              60              78     34.5154E-03     33.2633E-03
              60             879     33.8916E-03     32.1832E-03
              60             880     34.4077E-03     33.4254E-03
              61              78     34.5154E-03     33.2633E-03
              61              79     34.6701E-03     33.6552E-03
              61             880     34.4077E-03     33.4254E-03
              61             881     34.5902E-03     33.9461E-03
              62              79     34.6701E-03     33.6552E-03
              62              80     34.6115E-03     34.3292E-03
              62             881     34.5902E-03     33.9461E-03
              62             882     34.7780E-03     34.6078E-03
              63              80     34.6115E-03     34.3292E-03
              63              81     34.6067E-03     35.1406E-03
              63             882     34.7780E-03     34.6078E-03
              63             883     34.9390E-03     35.2773E-03
              64              81     34.6067E-03     35.1406E-03
              64              82     34.5153E-03     35.2076E-03
              64             883     34.9390E-03     35.2773E-03
              64             884     34.8960E-03     35.3058E-03
              65              82     34.5153E-03     35.2076E-03
              65              83     33.6937E-03     36.2156E-03
              65             884     34.8960E-03     35.3058E-03
              65             885     33.9464E-03     35.9818E-03
              66              83     33.6937E-03     36.2156E-03
              66              84     35.8691E-03     36.2320E-03
              66             885     33.9464E-03     35.9818E-03
              66             886     35.4714E-03     35.7646E-03
              67              84     35.8691E-03     36.2320E-03
              67              85     35.3663E-03     33.8285E-03
              67             886     35.4714E-03     35.7646E-03
              67             887     35.0450E-03     32.9561E-03
              68              85     35.3663E-03     33.8285E-03
              68              86     32.9361E-03     34.7241E-03
              68             887     35.0450E-03     32.9561E-03
              68             888     32.5073E-03     33.6138E-03
              69              86     32.9361E-03     34.7241E-03
              69              87     34.5405E-03     34.6071E-03
              69             888     32.5073E-03     33.6138E-03
              69             889     33.7914E-03     34.0180E-03
              70              87     34.5405E-03     34.6071E-03
              70              88     35.8379E-03     33.7621E-03
              70             889     33.7914E-03     34.0180E-03
              70             890     35.1318E-03     33.1688E-03
              71              88     35.8379E-03     33.7621E-03
              71              89     36.1391E-03     35.2630E-03
              71             890     35.1318E-03     33.1688E-03
              71             891     35.4924E-03     34.7503E-03
              72              89     36.1391E-03     35.2630E-03
              72              90     36.0077E-03     35.6790E-03
              72             891     35.4924E-03     34.7503E-03
              72             892     35.5660E-03     35.4002E-03
              73              90     36.0077E-03     35.6790E-03
              73              91     36.1467E-03     36.3250E-03
              73             892     35.5660E-03     35.4002E-03
              73             893     35.7663E-03     35.9763E-03
              74              91     36.1467E-03     36.3250E-03
              74              92     35.8867E-03     36.3781E-03
              74             893     35.7663E-03     35.9763E-03
              74             894     35.6237E-03     36.0743E-03
              75              92     35.8867E-03     36.3781E-03
              75              93     34.7901E-03     37.4869E-03
              75             894     35.6237E-03     36.0743E-03
              75             895     34.2726E-03     36.7058E-03
              76              93     34.7901E-03     37.4869E-03
              76              94     37.2282E-03     37.3188E-03
              76             895     34.2726E-03     36.7058E-03
              76             896     35.9333E-03     36.2612E-03
              77              94     37.2282E-03     37.3188E-03
              77              95     36.4152E-03     34.6216E-03
              77             896     35.9333E-03     36.2612E-03
              77             897     35.2033E-03     32.9364E-03
              78               5     57.2580E-03     59.7974E-03
              78              95     36.4152E-03     34.6216E-03
              78              96     48.4887E-03     50.5486E-03
              78             897     35.2033E-03     32.9364E-03
              79              32     17.4453E-03     17.3110E-03
              79              33     16.6576E-03     16.5056E-03
              79             849     34.1562E-03     33.8484E-03
              79             898     32.6676E-03     32.3430E-03
              80             849     34.1562E-03     33.8484E-03
              80             850     34.2825E-03     34.0718E-03
              80             898     32.6676E-03     32.3430E-03
              80             899     32.8673E-03     32.6769E-03
              81             850     34.2825E-03     34.0718E-03
              81             851     34.2166E-03     34.0514E-03
              81             899     32.8673E-03     32.6769E-03
              81             900     32.8890E-03     32.7504E-03
              82             851     34.2166E-03     34.0514E-03
              82             852     34.0973E-03     34.1539E-03
              82             900     32.8890E-03     32.7504E-03
              82             901     32.9861E-03     33.2156E-03
              83             852     34.0973E-03     34.1539E-03
              83             853     34.4066E-03     34.2773E-03
              83             901     32.9861E-03     33.2156E-03
              83             902     33.8217E-03     33.5544E-03
              84             853     34.4066E-03     34.2773E-03
              84             854     34.3387E-03     33.6736E-03
              84             902     33.8217E-03     33.5544E-03
              84             903     33.8192E-03     33.1901E-03
              85             854     34.3387E-03     33.6736E-03
              85             855     33.3628E-03     33.0767E-03
              85             903     33.8192E-03     33.1901E-03
              85             904     32.3934E-03     32.5349E-03
              86             855     33.3628E-03     33.0767E-03
              86             856     33.0312E-03     32.7411E-03
              86             904     32.3934E-03     32.5349E-03
              86             905     32.1314E-03     32.0402E-03
              87             856     33.0312E-03     32.7411E-03
              87             857     33.2935E-03     32.6383E-03
              87             905     32.1314E-03     32.0402E-03
              87             906     32.7706E-03     32.6133E-03
              88             857     33.2935E-03     32.6383E-03
              88             858     33.4418E-03     32.9368E-03
              88             906     32.7706E-03     32.6133E-03
              88             907     33.3598E-03     33.5849E-03
              89             858     33.4418E-03     32.9368E-03
              89             859     33.4732E-03     33.1317E-03
              89             907     33.3598E-03     33.5849E-03
              89             908     34.1712E-03     34.3607E-03
              90             859     33.4732E-03     33.1317E-03
              90             860     33.5291E-03     33.4405E-03
              90             908     34.1712E-03     34.3607E-03
              90             909     34.9715E-03     35.2292E-03
              91             860     33.5291E-03     33.4405E-03
              91             861     33.6802E-03     33.7818E-03
              91             909     34.9715E-03     35.2292E-03
              91             910     36.0692E-03     35.9860E-03
              92             861     33.6802E-03     33.7818E-03
              92             862     33.8148E-03     33.8819E-03
              92             910     36.0692E-03     35.9860E-03
              92             911     37.0439E-03     36.4849E-03
              93             862     33.8148E-03     33.8819E-03
              93             863     33.5141E-03     34.3369E-03
              93             911     37.0439E-03     36.4849E-03
              93             912     37.3227E-03     38.0504E-03
              94             863     33.5141E-03     34.3369E-03
              94             864     34.4102E-03     34.4862E-03
              94             912     37.3227E-03     38.0504E-03
              94             913     39.7919E-03     38.2939E-03
              95             864     34.4102E-03     34.4862E-03
              95             865     34.3749E-03     33.0837E-03
              95             913     39.7919E-03     38.2939E-03
              95             914     39.3344E-03     37.5585E-03
              96             865     34.3749E-03     33.0837E-03
              96             866     32.6967E-03     32.7100E-03
              96             914     39.3344E-03     37.5585E-03
              96             915     35.7989E-03     37.7166E-03
              97             866     32.6967E-03     32.7100E-03
              97             867     32.5447E-03     32.4803E-03
              97             915     35.7989E-03     37.7166E-03
              97             916     36.9498E-03     36.7394E-03
              98             867     32.5447E-03     32.4803E-03
              98             868     33.1486E-03     31.9814E-03
              98             916     36.9498E-03     36.7394E-03
              98             917     38.6280E-03     37.7752E-03
              99             868     33.1486E-03     31.9814E-03
              99             869     33.5604E-03     32.7480E-03
              99             917     38.6280E-03     37.7752E-03
              99             918     39.1558E-03     39.8988E-03
             100             869     33.5604E-03     32.7480E-03
             100             870     33.6528E-03     33.1548E-03
             100             918     39.1558E-03     39.8988E-03
             100             919     40.6478E-03     40.6993E-03
             101             870     33.6528E-03     33.1548E-03
             101             871     33.7997E-03     33.6672E-03
             101             919     40.6478E-03     40.6993E-03
             101             920     41.8200E-03     41.9651E-03
             102             871     33.7997E-03     33.6672E-03
             102             872     33.9939E-03     34.2143E-03
             102             920     41.8200E-03     41.9651E-03
             102             921     43.2717E-03     42.9900E-03
             103             872     33.9939E-03     34.2143E-03
             103             873     34.0710E-03     34.3174E-03
             103             921     43.2717E-03     42.9900E-03
             103             922     44.4591E-03     43.5459E-03
             104             873     34.0710E-03     34.3174E-03
             104             874     33.4616E-03     34.9250E-03
             104             922     44.4591E-03     43.5459E-03
             104             923     44.3823E-03     45.8124E-03
             105             874     33.4616E-03     34.9250E-03
             105             875     34.7201E-03     34.9357E-03
             105             923     44.3823E-03     45.8124E-03
             105             924     47.8372E-03     45.4737E-03
             106             875     34.7201E-03     34.9357E-03
             106             876     34.5222E-03     32.7987E-03
             106             924     47.8372E-03     45.4737E-03
             106             925     46.5691E-03     44.0325E-03
             107             876     34.5222E-03     32.7987E-03
             107             877     32.3662E-03     32.8992E-03
             107             925     46.5691E-03     44.0325E-03
             107             926     41.1480E-03     45.0930E-03
             108             877     32.3662E-03     32.8992E-03
             108             878     32.9128E-03     32.9329E-03
             108             926     41.1480E-03     45.0930E-03
             108             927     44.3192E-03     43.7159E-03
             109             878     32.9128E-03     32.9329E-03
             109             879     33.8916E-03     32.1832E-03
             109             927     44.3192E-03     43.7159E-03
             109             928     47.0071E-03     45.2043E-03
             110             879     33.8916E-03     32.1832E-03
             110             880     34.4077E-03     33.4254E-03
             110             928     47.0071E-03     45.2043E-03
             110             929     46.9581E-03     48.2868E-03
             111             880     34.4077E-03     33.4254E-03
             111             881     34.5902E-03     33.9461E-03
             111             929     46.9581E-03     48.2868E-03
             111             930     48.9518E-03     48.7768E-03
             112             881     34.5902E-03     33.9461E-03
             112             882     34.7780E-03     34.6078E-03
             112             930     48.9518E-03     48.7768E-03
             112             931     50.2398E-03     50.2513E-03
             113             882     34.7780E-03     34.6078E-03
             113             883     34.9390E-03     35.2773E-03
             113             931     50.2398E-03     50.2513E-03
             113             932     51.7506E-03     51.3304E-03
             114             883     34.9390E-03     35.2773E-03
             114             884     34.8960E-03     35.3058E-03
             114             932     51.7506E-03     51.3304E-03
             114             933     52.9170E-03     51.7440E-03
             115             884     34.8960E-03     35.3058E-03
             115             885     33.9464E-03     35.9818E-03
             115             933     52.9170E-03     51.7440E-03
             115             934     52.3394E-03     54.4198E-03
             116             885     33.9464E-03     35.9818E-03
             116             886     35.4714E-03     35.7646E-03
             116             934     52.3394E-03     54.4198E-03
             116             935     56.4709E-03     53.3254E-03
             117             886     35.4714E-03     35.7646E-03
             117             887     35.0450E-03     32.9561E-03
             117             935     56.4709E-03     53.3254E-03
             117             936     54.3195E-03     51.1612E-03
             118             887     35.0450E-03     32.9561E-03
             118             888     32.5073E-03     33.6138E-03
             118             936     54.3195E-03     51.1612E-03
             118             937     47.1962E-03     52.9732E-03
             119             888     32.5073E-03     33.6138E-03
             119             889     33.7914E-03     34.0180E-03
             119             937     47.1962E-03     52.9732E-03
             119             938     52.3148E-03     51.2681E-03
             120             889     33.7914E-03     34.0180E-03
             120             890     35.1318E-03     33.1688E-03
             120             938     52.3148E-03     51.2681E-03
             120             939     55.9734E-03     53.2906E-03
             121             890     35.1318E-03     33.1688E-03
             121             891     35.4924E-03     34.7503E-03
             121             939     55.9734E-03     53.2906E-03
             121             940     55.3133E-03     57.1117E-03
             122             891     35.4924E-03     34.7503E-03
             122             892     35.5660E-03     35.4002E-03
             122             940     55.3133E-03     57.1117E-03
             122             941     57.4056E-03     57.5305E-03
             123             892     35.5660E-03     35.4002E-03
             123             893     35.7663E-03     35.9763E-03
             123             941     57.4056E-03     57.5305E-03
             123             942     59.2745E-03     58.8387E-03
             124             893     35.7663E-03     35.9763E-03
             124             894     35.6237E-03     36.0743E-03
             124             942     59.2745E-03     58.8387E-03
             124             943     60.0349E-03     59.3810E-03
             125             894     35.6237E-03     36.0743E-03
             125             895     34.2726E-03     36.7058E-03
             125             943     60.0349E-03     59.3810E-03
             125             944     59.1214E-03     61.9889E-03
             126             895     34.2726E-03     36.7058E-03
             126             896     35.9333E-03     36.2612E-03
             126             944     59.1214E-03     61.9889E-03
             126             945     63.5562E-03     60.1017E-03
             127             896     35.9333E-03     36.2612E-03
             127             897     35.2033E-03     32.9364E-03
             127             945     63.5562E-03     60.1017E-03
             127             946     60.5835E-03     57.1350E-03
             128              96     48.4887E-03     50.5486E-03
             128              97     59.8821E-03     63.4598E-03
             128             897     35.2033E-03     32.9364E-03
             128             946     60.5835E-03     57.1350E-03
             129              33     16.6576E-03     16.5056E-03
             129              34     14.9377E-03     14.8195E-03
             129             898     32.6676E-03     32.3430E-03
             129             947     29.3162E-03     29.1446E-03
             130             898     32.6676E-03     32.3430E-03
             130             899     32.8673E-03     32.6769E-03
             130             947     29.3162E-03     29.1446E-03
             130             948     29.5552E-03     29.6454E-03
             131             899     32.8673E-03     32.6769E-03
             131             900     32.8890E-03     32.7504E-03
             131             948     29.5552E-03     29.6454E-03
             131             949     29.8965E-03     30.0889E-03
             132             900     32.8890E-03     32.7504E-03
             132             901     32.9861E-03     33.2156E-03
             132             949     29.8965E-03     30.0889E-03
             132             950     30.4153E-03     30.9786E-03
             133             901     32.9861E-03     33.2156E-03
             133             902     33.8217E-03     33.5544E-03
             133             950     30.4153E-03     30.9786E-03
             133             951     32.3675E-03     31.3476E-03
             134             902     33.8217E-03     33.5544E-03
             134             903     33.8192E-03     33.1901E-03
             134             951     32.3675E-03     31.3476E-03
             134             952     32.6844E-03     31.8086E-03
             135             903     33.8192E-03     33.1901E-03
             135             904     32.3934E-03     32.5349E-03
             135             952     32.6844E-03     31.8086E-03
             135             953     30.6526E-03     31.8267E-03
             136             904     32.3934E-03     32.5349E-03
             136             905     32.1314E-03     32.0402E-03
             136             953     30.6526E-03     31.8267E-03
             136             954     30.9205E-03     31.3905E-03
             137             905     32.1314E-03     32.0402E-03
             137             906     32.7706E-03     32.6133E-03
             137             954     30.9205E-03     31.3905E-03
             137             955     32.1776E-03     32.8827E-03
             138             906     32.7706E-03     32.6133E-03
             138             907     33.3598E-03     33.5849E-03
             138             955     32.1776E-03     32.8827E-03
             138             956     33.4396E-03     34.5524E-03
             139             907     33.3598E-03     33.5849E-03
             139             908     34.1712E-03     34.3607E-03
             139             956     33.4396E-03     34.5524E-03
             139             957     35.2072E-03     35.5997E-03
             140             908     34.1712E-03     34.3607E-03
             140             909     34.9715E-03     35.2292E-03
             140             957     35.2072E-03     35.5997E-03
             140             958     36.8487E-03     37.0827E-03
             141             909     34.9715E-03     35.2292E-03
             141             910     36.0692E-03     35.9860E-03
             141             958     36.8487E-03     37.0827E-03
             141             959     38.9422E-03     38.5309E-03
             142             910     36.0692E-03     35.9860E-03
             142             911     37.0439E-03     36.4849E-03
             142             959     38.9422E-03     38.5309E-03
             142             960     40.9370E-03     39.8492E-03
             143             911     37.0439E-03     36.4849E-03
             143             912     37.3227E-03     38.0504E-03
             143             960     40.9370E-03     39.8492E-03
             143             961     42.1179E-03     43.2313E-03
             144             912     37.3227E-03     38.0504E-03
             144             913     39.7919E-03     38.2939E-03
             144             961     42.1179E-03     43.2313E-03
             144             962     47.6229E-03     43.9399E-03
             145             913     39.7919E-03     38.2939E-03
             145             914     39.3344E-03     37.5585E-03
             145             962     47.6229E-03     43.9399E-03
             145             963     47.2015E-03     45.1430E-03
             146             914     39.3344E-03     37.5585E-03
             146             915     35.7989E-03     37.7166E-03
             146             963     47.2015E-03     45.1430E-03
             146             964     41.2110E-03     47.1572E-03
             147             915     35.7989E-03     37.7166E-03
             147             916     36.9498E-03     36.7394E-03
             147             964     41.2110E-03     47.1572E-03
             147             965     44.9676E-03     45.0096E-03
             148             916     36.9498E-03     36.7394E-03
             148             917     38.6280E-03     37.7752E-03
             148             965     44.9676E-03     45.0096E-03
             148             966     47.8888E-03     47.1597E-03
             149             917     38.6280E-03     37.7752E-03
             149             918     39.1558E-03     39.8988E-03
             149             966     47.8888E-03     47.1597E-03
             149             967     47.7855E-03     50.0439E-03
             150             918     39.1558E-03     39.8988E-03
             150             919     40.6478E-03     40.6993E-03
             150             967     47.7855E-03     50.0439E-03
             150             968     50.2858E-03     50.2751E-03
             151             919     40.6478E-03     40.6993E-03
             151             920     41.8200E-03     41.9651E-03
             151             968     50.2858E-03     50.2751E-03
             151             969     52.0961E-03     52.1265E-03
             152             920     41.8200E-03     41.9651E-03
             152             921     43.2717E-03     42.9900E-03
             152             969     52.0961E-03     52.1265E-03
             152             970     54.5445E-03     53.8139E-03
             153             921     43.2717E-03     42.9900E-03
             153             922     44.4591E-03     43.5459E-03
             153             970     54.5445E-03     53.8139E-03
             153             971     57.0057E-03     55.2057E-03
             154             922     44.4591E-03     43.5459E-03
             154             923     44.3823E-03     45.8124E-03
             154             971     57.0057E-03     55.2057E-03
             154             972     58.0002E-03     60.0436E-03
             155             923     44.3823E-03     45.8124E-03
             155             924     47.8372E-03     45.4737E-03
             155             972     58.0002E-03     60.0436E-03
             155             973     65.6663E-03     60.1476E-03
             156             924     47.8372E-03     45.4737E-03
             156             925     46.5691E-03     44.0325E-03
             156             973     65.6663E-03     60.1476E-03
             156             974     64.0033E-03     61.0944E-03
             157             925     46.5691E-03     44.0325E-03
             157             926     41.1480E-03     45.0930E-03
             157             974     64.0033E-03     61.0944E-03
             157             975     54.5961E-03     64.9119E-03
             158             926     41.1480E-03     45.0930E-03
             158             927     44.3192E-03     43.7159E-03
             158             975     54.5961E-03     64.9119E-03
             158             976     61.9511E-03     61.3566E-03
             159             927     44.3192E-03     43.7159E-03
             159             928     47.0071E-03     45.2043E-03
             159             976     61.9511E-03     61.3566E-03
             159             977     66.1828E-03     63.7260E-03
             160             928     47.0071E-03     45.2043E-03
             160             929     46.9581E-03     48.2868E-03
             160             977     66.1828E-03     63.7260E-03
             160             978     64.1007E-03     67.3977E-03
             161             929     46.9581E-03     48.2868E-03
             161             930     48.9518E-03     48.7768E-03
             161             978     64.1007E-03     67.3977E-03
             161             979     66.9329E-03     66.4132E-03
             162             930     48.9518E-03     48.7768E-03
             162             931     50.2398E-03     50.2513E-03
             162             979     66.9329E-03     66.4132E-03
             162             980     68.5335E-03     68.3133E-03
             163             931     50.2398E-03     50.2513E-03
             163             932     51.7506E-03     51.3304E-03
             163             980     68.5335E-03     68.3133E-03
             163             981     70.9293E-03     69.9519E-03
             164             932     51.7506E-03     51.3304E-03
             164             933     52.9170E-03     51.7440E-03
             164             981     70.9293E-03     69.9519E-03
             164             982     73.5178E-03     71.1802E-03
             165             933     52.9170E-03     51.7440E-03
             165             934     52.3394E-03     54.4198E-03
             165             982     73.5178E-03     71.1802E-03
             165             983     74.1134E-03     77.0570E-03
             166             934     52.3394E-03     54.4198E-03
             166             935     56.4709E-03     53.3254E-03
             166             983     74.1134E-03     77.0570E-03
             166             984     83.4327E-03     76.4068E-03
             167             935     56.4709E-03     53.3254E-03
             167             936     54.3195E-03     51.1612E-03
             167             984     83.4327E-03     76.4068E-03
             167             985     80.5396E-03     76.9689E-03
             168             936     54.3195E-03     51.1612E-03
             168             937     47.1962E-03     52.9732E-03
             168             985     80.5396E-03     76.9689E-03
             168             986     67.9248E-03     81.9392E-03
             169             937     47.1962E-03     52.9732E-03
             169             938     52.3148E-03     51.2681E-03
             169             986     67.9248E-03     81.9392E-03
             169             987     78.2726E-03     76.9799E-03
             170             938     52.3148E-03     51.2681E-03
             170             939     55.9734E-03     53.2906E-03
             170             987     78.2726E-03     76.9799E-03
             170             988     83.8333E-03     79.5665E-03
             171             939     55.9734E-03     53.2906E-03
             171             940     55.3133E-03     57.1117E-03
             171             988     83.8333E-03     79.5665E-03
             171             989     80.0767E-03     83.8240E-03
             172             940     55.3133E-03     57.1117E-03
             172             941     57.4056E-03     57.5305E-03
             172             989     80.0767E-03     83.8240E-03
             172             990     82.9513E-03     82.4025E-03
             173             941     57.4056E-03     57.5305E-03
             173             942     59.2745E-03     58.8387E-03
             173             990     82.9513E-03     82.4025E-03
             173             991     85.5737E-03     83.8518E-03
             174             942     59.2745E-03     58.8387E-03
             174             943     60.0349E-03     59.3810E-03
             174             991     85.5737E-03     83.8518E-03
             174             992     87.1947E-03     85.0848E-03
             175             943     60.0349E-03     59.3810E-03
             175             944     59.1214E-03     61.9889E-03
             175             992     87.1947E-03     85.0848E-03
             175             993     87.4512E-03     90.9630E-03
             176             944     59.1214E-03     61.9889E-03
             176             945     63.5562E-03     60.1017E-03
             176             993     87.4512E-03     90.9630E-03
             176             994     97.6881E-03     89.5188E-03
             177             945     63.5562E-03     60.1017E-03
             177             946     60.5835E-03     57.1350E-03
             177             994     97.6881E-03     89.5188E-03
             177             995     93.5843E-03     89.5028E-03
             178              97     59.8821E-03     63.4598E-03
             178              98     83.7149E-03     92.9265E-03
             178             946     60.5835E-03     57.1350E-03
             178             995     93.5843E-03     89.5028E-03
             179              34     14.9377E-03     14.8195E-03
             179              35     12.2323E-03     12.3464E-03
             179             947     29.3162E-03     29.1446E-03
             179             996     24.0009E-03     24.4449E-03
             180             947     29.3162E-03     29.1446E-03
             180             948     29.5552E-03     29.6454E-03
             180             996     24.0009E-03     24.4449E-03
             180             997     24.6575E-03     25.1257E-03
             181             948     29.5552E-03     29.6454E-03
             181             949     29.8965E-03     30.0889E-03
             181             997     24.6575E-03     25.1257E-03
             181             998     25.5974E-03     25.6530E-03
             182             949     29.8965E-03     30.0889E-03
             182             950     30.4153E-03     30.9786E-03
             182             998     25.5974E-03     25.6530E-03
             182             999     26.5102E-03     27.3648E-03
             183             950     30.4153E-03     30.9786E-03
             183             951     32.3675E-03     31.3476E-03
             183             999     26.5102E-03     27.3648E-03
             183            1000     29.8033E-03     27.9549E-03
             184             951     32.3675E-03     31.3476E-03
             184             952     32.6844E-03     31.8086E-03
             184            1000     29.8033E-03     27.9549E-03
             184            1001     30.4045E-03     29.7101E-03
             185             952     32.6844E-03     31.8086E-03
             185             953     30.6526E-03     31.8267E-03
             185            1001     30.4045E-03     29.7101E-03
             185            1002     28.3301E-03     31.8510E-03
             186             953     30.6526E-03     31.8267E-03
             186             954     30.9205E-03     31.3905E-03
             186            1002     28.3301E-03     31.8510E-03
             186            1003     30.3811E-03     31.5152E-03
             187             954     30.9205E-03     31.3905E-03
             187             955     32.1776E-03     32.8827E-03
             187            1003     30.3811E-03     31.5152E-03
             187            1004     32.2126E-03     33.0909E-03
             188             955     32.1776E-03     32.8827E-03
             188             956     33.4396E-03     34.5524E-03
             188            1004     32.2126E-03     33.0909E-03
             188            1005     33.3849E-03     34.7819E-03
             189             956     33.4396E-03     34.5524E-03
             189             957     35.2072E-03     35.5997E-03
             189            1005     33.3849E-03     34.7819E-03
             189            1006     35.8616E-03     35.9565E-03
             190             957     35.2072E-03     35.5997E-03
             190             958     36.8487E-03     37.0827E-03
             190            1006     35.8616E-03     35.9565E-03
             190            1007     38.0263E-03     38.5915E-03
             191             958     36.8487E-03     37.0827E-03
             191             959     38.9422E-03     38.5309E-03
             191            1007     38.0263E-03     38.5915E-03
             191            1008     41.2358E-03     41.2209E-03
             192             959     38.9422E-03     38.5309E-03
             192             960     40.9370E-03     39.8492E-03
             192            1008     41.2358E-03     41.2209E-03
             192            1009     44.3587E-03     43.7733E-03
             193             960     40.9370E-03     39.8492E-03
             193             961     42.1179E-03     43.2313E-03
             193            1009     44.3587E-03     43.7733E-03
             193            1010     46.2924E-03     49.4929E-03
             194             961     42.1179E-03     43.2313E-03
             194             962     47.6229E-03     43.9399E-03
             194            1010     46.2924E-03     49.4929E-03
             194            1011     55.1993E-03     50.1511E-03
             195             962     47.6229E-03     43.9399E-03
             195             963     47.2015E-03     45.1430E-03
             195            1011     55.1993E-03     50.1511E-03
             195            1012     55.2645E-03     53.7724E-03
             196             963     47.2015E-03     45.1430E-03
             196             964     41.2110E-03     47.1572E-03
             196            1012     55.2645E-03     53.7724E-03
             196            1013     47.5723E-03     59.6493E-03
             197             964     41.2110E-03     47.1572E-03
             197             965     44.9676E-03     45.0096E-03
             197            1013     47.5723E-03     59.6493E-03
             197            1014     54.6829E-03     55.3931E-03
             198             965     44.9676E-03     45.0096E-03
             198             966     47.8888E-03     47.1597E-03
             198            1014     54.6829E-03     55.3931E-03
             198            1015     57.9765E-03     56.4099E-03
             199             966     47.8888E-03     47.1597E-03
             199             967     47.7855E-03     50.0439E-03
             199            1015     57.9765E-03     56.4099E-03
             199            1016     55.8178E-03     59.2287E-03
             200             967     47.7855E-03     50.0439E-03
             200             968     50.2858E-03     50.2751E-03
             200            1016     55.8178E-03     59.2287E-03
             200            1017     58.8144E-03     58.8255E-03
             201             968     50.2858E-03     50.2751E-03
             201             969     52.0961E-03     52.1265E-03
             201            1017     58.8144E-03     58.8255E-03
             201            1018     60.7685E-03     61.8835E-03
             202             969     52.0961E-03     52.1265E-03
             202             970     54.5445E-03     53.8139E-03
             202            1018     60.7685E-03     61.8835E-03
             202            1019     64.1392E-03     64.6268E-03
             203             970     54.5445E-03     53.8139E-03
             203             971     57.0057E-03     55.2057E-03
             203            1019     64.1392E-03     64.6268E-03
             203            1020     67.7635E-03     66.9815E-03
             204             971     57.0057E-03     55.2057E-03
             204             972     58.0002E-03     60.0436E-03
             204            1020     67.7635E-03     66.9815E-03
             204            1021     69.4618E-03     74.5194E-03
             205             972     58.0002E-03     60.0436E-03
             205             973     65.6663E-03     60.1476E-03
             205            1021     69.4618E-03     74.5194E-03
             205            1022     81.8434E-03     74.3884E-03
             206             973     65.6663E-03     60.1476E-03
             206             974     64.0033E-03     61.0944E-03
             206            1022     81.8434E-03     74.3884E-03
             206            1023     80.8265E-03     78.7546E-03
             207             974     64.0033E-03     61.0944E-03
             207             975     54.5961E-03     64.9119E-03
             207            1023     80.8265E-03     78.7546E-03
             207            1024     68.5264E-03     88.0046E-03
             208             975     54.5961E-03     64.9119E-03
             208             976     61.9511E-03     61.3566E-03
             208            1024     68.5264E-03     88.0046E-03
             208            1025     80.3885E-03     80.6534E-03
             209             976     61.9511E-03     61.3566E-03
             209             977     66.1828E-03     63.7260E-03
             209            1025     80.3885E-03     80.6534E-03
             209            1026     84.6936E-03     80.7234E-03
             210             977     66.1828E-03     63.7260E-03
             210             978     64.1007E-03     67.3977E-03
             210            1026     84.6936E-03     80.7234E-03
             210            1027     78.9301E-03     84.2268E-03
             211             978     64.1007E-03     67.3977E-03
             211             979     66.9329E-03     66.4132E-03
             211            1027     78.9301E-03     84.2268E-03
             211            1028     82.0539E-03     81.9089E-03
             212             979     66.9329E-03     66.4132E-03
             212             980     68.5335E-03     68.3133E-03
             212            1028     82.0539E-03     81.9089E-03
             212            1029     83.4789E-03     85.0077E-03
             213             980     68.5335E-03     68.3133E-03
             213             981     70.9293E-03     69.9519E-03
             213            1029     83.4789E-03     85.0077E-03
             213            1030     86.6582E-03     87.5854E-03
             214             981     70.9293E-03     69.9519E-03
             214             982     73.5178E-03     71.1802E-03
             214            1030     86.6582E-03     87.5854E-03
             214            1031     90.4974E-03     89.5603E-03
             215             982     73.5178E-03     71.1802E-03
             215             983     74.1134E-03     77.0570E-03
             215            1031     90.4974E-03     89.5603E-03
             215            1032     91.7994E-03     98.5512E-03
             216             983     74.1134E-03     77.0570E-03
             216             984     83.4327E-03     76.4068E-03
             216            1032     91.7994E-03     98.5512E-03
             216            1033     107.087E-03     97.6205E-03
             217             984     83.4327E-03     76.4068E-03
             217             985     80.5396E-03     76.9689E-03
             217            1033     107.087E-03     97.6205E-03
             217            1034     105.009E-03     102.538E-03
             218             985     80.5396E-03     76.9689E-03
             218             986     67.9248E-03     81.9392E-03
             218            1034     105.009E-03     102.538E-03
             218            1035     88.2472E-03     114.097E-03
             219             986     67.9248E-03     81.9392E-03
             219             987     78.2726E-03     76.9799E-03
             219            1035     88.2472E-03     114.097E-03
             219            1036     103.801E-03     103.600E-03
             220             987     78.2726E-03     76.9799E-03
             220             988     83.8333E-03     79.5665E-03
             220            1036     103.801E-03     103.600E-03
             220            1037     109.289E-03     102.917E-03
             221             988     83.8333E-03     79.5665E-03
             221             989     80.0767E-03     83.8240E-03
             221            1037     109.289E-03     102.917E-03
             221            1038     100.542E-03     106.799E-03
             222             989     80.0767E-03     83.8240E-03
             222             990     82.9513E-03     82.4025E-03
             222            1038     100.542E-03     106.799E-03
             222            1039     103.332E-03     103.819E-03
             223             990     82.9513E-03     82.4025E-03
             223             991     85.5737E-03     83.8518E-03
             223            1039     103.332E-03     103.819E-03
             223            1040     106.397E-03     106.252E-03
             224             991     85.5737E-03     83.8518E-03
             224             992     87.1947E-03     85.0848E-03
             224            1040     106.397E-03     106.252E-03
             224            1041     108.650E-03     108.111E-03
             225             992     87.1947E-03     85.0848E-03
             225             993     87.4512E-03     90.9630E-03
             225            1041     108.650E-03     108.111E-03
             225            1042     109.801E-03     117.243E-03
             226             993     87.4512E-03     90.9630E-03
             226             994     97.6881E-03     89.5188E-03
             226            1042     109.801E-03     117.243E-03
             226            1043     127.005E-03     115.748E-03
             227             994     97.6881E-03     89.5188E-03
             227             995     93.5843E-03     89.5028E-03
             227            1043     127.005E-03     115.748E-03
             227            1044     123.820E-03     120.965E-03
             228              98     83.7149E-03     92.9265E-03
             228              99     107.827E-03     124.615E-03
             228             995     93.5843E-03     89.5028E-03
             228            1044     123.820E-03     120.965E-03
             229              35     12.2323E-03     12.3464E-03
             229              36     9.23426E-03     9.63795E-03
             229             996     24.0009E-03     24.4449E-03
             229            1045     18.1902E-03     18.6915E-03
             230             996     24.0009E-03     24.4449E-03
             230             997     24.6575E-03     25.1257E-03
             230            1045     18.1902E-03     18.6915E-03
             230            1046     18.4273E-03     18.3956E-03
             231             997     24.6575E-03     25.1257E-03
             231             998     25.5974E-03     25.6530E-03
             231            1046     18.4273E-03     18.3956E-03
             231            1047     19.5233E-03     18.8218E-03
             232             998     25.5974E-03     25.6530E-03
             232             999     26.5102E-03     27.3648E-03
             232            1047     19.5233E-03     18.8218E-03
             232            1048     21.2571E-03     22.6665E-03
             233             999     26.5102E-03     27.3648E-03
             233            1000     29.8033E-03     27.9549E-03
             233            1048     21.2571E-03     22.6665E-03
             233            1049     27.1157E-03     25.0287E-03
             234            1000     29.8033E-03     27.9549E-03
             234            1001     30.4045E-03     29.7101E-03
             234            1049     27.1157E-03     25.0287E-03
             234            1050     28.4646E-03     28.6199E-03
             235            1001     30.4045E-03     29.7101E-03
             235            1002     28.3301E-03     31.8510E-03
             235            1050     28.4646E-03     28.6199E-03
             235            1051     26.6815E-03     32.2914E-03
             236            1002     28.3301E-03     31.8510E-03
             236            1003     30.3811E-03     31.5152E-03
             236            1051     26.6815E-03     32.2914E-03
             236            1052     30.6612E-03     31.0703E-03
             237            1003     30.3811E-03     31.5152E-03
             237            1004     32.2126E-03     33.0909E-03
             237            1052     30.6612E-03     31.0703E-03
             237            1053     31.7119E-03     31.9590E-03
             238            1004     32.2126E-03     33.0909E-03
             238            1005     33.3849E-03     34.7819E-03
             238            1053     31.7119E-03     31.9590E-03
             238            1054     32.4509E-03     33.9543E-03
             239            1005     33.3849E-03     34.7819E-03
             239            1006     35.8616E-03     35.9565E-03
             239            1054     32.4509E-03     33.9543E-03
             239            1055     35.8598E-03     36.2996E-03
             240            1006     35.8616E-03     35.9565E-03
             240            1007     38.0263E-03     38.5915E-03
             240            1055     35.8598E-03     36.2996E-03
             240            1056     38.8079E-03     40.4839E-03
             241            1007     38.0263E-03     38.5915E-03
             241            1008     41.2358E-03     41.2209E-03
             241            1056     38.8079E-03     40.4839E-03
             241            1057     43.2231E-03     44.5664E-03
             242            1008     41.2358E-03     41.2209E-03
             242            1009     44.3587E-03     43.7733E-03
             242            1057     43.2231E-03     44.5664E-03
             242            1058     47.8423E-03     48.2607E-03
             243            1009     44.3587E-03     43.7733E-03
             243            1010     46.2924E-03     49.4929E-03
             243            1058     47.8423E-03     48.2607E-03
             243            1059     50.2806E-03     56.0827E-03
             244            1010     46.2924E-03     49.4929E-03
             244            1011     55.1993E-03     50.1511E-03
             244            1059     50.2806E-03     56.0827E-03
             244            1060     62.0292E-03     57.5986E-03
             245            1011     55.1993E-03     50.1511E-03
             245            1012     55.2645E-03     53.7724E-03
             245            1060     62.0292E-03     57.5986E-03
             245            1061     62.6081E-03     62.4618E-03
             246            1012     55.2645E-03     53.7724E-03
             246            1013     47.5723E-03     59.6493E-03
             246            1061     62.6081E-03     62.4618E-03
             246            1062     53.9539E-03     70.0146E-03
             247            1013     47.5723E-03     59.6493E-03
             247            1014     54.6829E-03     55.3931E-03
             247            1062     53.9539E-03     70.0146E-03
             247            1063     63.2135E-03     63.4945E-03
             248            1014     54.6829E-03     55.3931E-03
             248            1015     57.9765E-03     56.4099E-03
             248            1063     63.2135E-03     63.4945E-03
             248            1064     64.9994E-03     63.1828E-03
             249            1015     57.9765E-03     56.4099E-03
             249            1016     55.8178E-03     59.2287E-03
             249            1064     64.9994E-03     63.1828E-03
             249            1065     61.3573E-03     66.3870E-03
             250            1016     55.8178E-03     59.2287E-03
             250            1017     58.8144E-03     58.8255E-03
             250            1065     61.3573E-03     66.3870E-03
             250            1066     65.6604E-03     66.7877E-03
             251            1017     58.8144E-03     58.8255E-03
             251            1018     60.7685E-03     61.8835E-03
             251            1066     65.6604E-03     66.7877E-03
             251            1067     68.0564E-03     71.3895E-03
             252            1018     60.7685E-03     61.8835E-03
             252            1019     64.1392E-03     64.6268E-03
             252            1067     68.0564E-03     71.3895E-03
             252            1068     72.3577E-03     75.3511E-03
             253            1019     64.1392E-03     64.6268E-03
             253            1020     67.7635E-03     66.9815E-03
             253            1068     72.3577E-03     75.3511E-03
             253            1069     77.3602E-03     78.4200E-03
             254            1020     67.7635E-03     66.9815E-03
             254            1021     69.4618E-03     74.5194E-03
             254            1069     77.3602E-03     78.4200E-03
             254            1070     78.8915E-03     87.9373E-03
             255            1021     69.4618E-03     74.5194E-03
             255            1022     81.8434E-03     74.3884E-03
             255            1070     78.8915E-03     87.9373E-03
             255            1071     94.6819E-03     88.3875E-03
             256            1022     81.8434E-03     74.3884E-03
             256            1023     80.8265E-03     78.7546E-03
             256            1071     94.6819E-03     88.3875E-03
             256            1072     94.6718E-03     94.4058E-03
             257            1023     80.8265E-03     78.7546E-03
             257            1024     68.5264E-03     88.0046E-03
             257            1072     94.6718E-03     94.4058E-03
             257            1073     80.8645E-03     106.207E-03
             258            1024     68.5264E-03     88.0046E-03
             258            1025     80.3885E-03     80.6534E-03
             258            1073     80.8645E-03     106.207E-03
             258            1074     95.4600E-03     95.6714E-03
             259            1025     80.3885E-03     80.6534E-03
             259            1026     84.6936E-03     80.7234E-03
             259            1074     95.4600E-03     95.6714E-03
             259            1075     97.6412E-03     93.8449E-03
             260            1026     84.6936E-03     80.7234E-03
             260            1027     78.9301E-03     84.2268E-03
             260            1075     97.6412E-03     93.8449E-03
             260            1076     89.4798E-03     97.7288E-03
             261            1027     78.9301E-03     84.2268E-03
             261            1028     82.0539E-03     81.9089E-03
             261            1076     89.4798E-03     97.7288E-03
             261            1077     94.2492E-03     95.9345E-03
             262            1028     82.0539E-03     81.9089E-03
             262            1029     83.4789E-03     85.0077E-03
             262            1077     94.2492E-03     95.9345E-03
             262            1078     95.8714E-03     100.644E-03
             263            1029     83.4789E-03     85.0077E-03
             263            1030     86.6582E-03     87.5854E-03
             263            1078     95.8714E-03     100.644E-03
             263            1079     99.8509E-03     104.310E-03
             264            1030     86.6582E-03     87.5854E-03
             264            1031     90.4974E-03     89.5603E-03
             264            1079     99.8509E-03     104.310E-03
             264            1080     105.076E-03     106.695E-03
             265            1031     90.4974E-03     89.5603E-03
             265            1032     91.7994E-03     98.5512E-03
             265            1080     105.076E-03     106.695E-03
             265            1081     105.709E-03     117.660E-03
             266            1032     91.7994E-03     98.5512E-03
             266            1033     107.087E-03     97.6205E-03
             266            1081     105.709E-03     117.660E-03
             266            1082     125.083E-03     117.162E-03
             267            1033     107.087E-03     97.6205E-03
             267            1034     105.009E-03     102.538E-03
             267            1082     125.083E-03     117.162E-03
             267            1083     124.533E-03     124.214E-03
             268            1034     105.009E-03     102.538E-03
             268            1035     88.2472E-03     114.097E-03
             268            1083     124.533E-03     124.214E-03
             268            1084     105.652E-03     139.242E-03
             269            1035     88.2472E-03     114.097E-03
             269            1036     103.801E-03     103.600E-03
             269            1084     105.652E-03     139.242E-03
             269            1085     124.512E-03     124.642E-03
             270            1036     103.801E-03     103.600E-03
             270            1037     109.289E-03     102.917E-03
             270            1085     124.512E-03     124.642E-03
             270            1086     127.135E-03     121.647E-03
             271            1037     109.289E-03     102.917E-03
             271            1038     100.542E-03     106.799E-03
             271            1086     127.135E-03     121.647E-03
             271            1087     115.411E-03     125.785E-03
             272            1038     100.542E-03     106.799E-03
             272            1039     103.332E-03     103.819E-03
             272            1087     115.411E-03     125.785E-03
             272            1088     119.656E-03     123.038E-03
             273            1039     103.332E-03     103.819E-03
             273            1040     106.397E-03     106.252E-03
             273            1088     119.656E-03     123.038E-03
             273            1089     122.887E-03     127.422E-03
             274            1040     106.397E-03     106.252E-03
             274            1041     108.650E-03     108.111E-03
             274            1089     122.887E-03     127.422E-03
             274            1090     126.511E-03     129.338E-03
             275            1041     108.650E-03     108.111E-03
             275            1042     109.801E-03     117.243E-03
             275            1090     126.511E-03     129.338E-03
             275            1091     127.001E-03     140.624E-03
             276            1042     109.801E-03     117.243E-03
             276            1043     127.005E-03     115.748E-03
             276            1091     127.001E-03     140.624E-03
             276            1092     148.839E-03     139.666E-03
             277            1043     127.005E-03     115.748E-03
             277            1044     123.820E-03     120.965E-03
             277            1092     148.839E-03     139.666E-03
             277            1093     147.866E-03     147.522E-03
             278              99     107.827E-03     124.615E-03
             278             100     128.046E-03     150.490E-03
             278            1044     123.820E-03     120.965E-03
             278            1093     147.866E-03     147.522E-03
             279              36     9.23426E-03     9.63795E-03
             279              37     6.78201E-03     8.18547E-03
             279            1045     18.1902E-03     18.6915E-03
             279            1094     11.9115E-03     12.6285E-03
             280            1045     18.1902E-03     18.6915E-03
             280            1046     18.4273E-03     18.3956E-03
             280            1094     11.9115E-03     12.6285E-03
             280            1095     10.5447E-03     9.19510E-03
             281            1046     18.4273E-03     18.3956E-03
             281            1047     19.5233E-03     18.8218E-03
             281            1095     10.5447E-03     9.19510E-03
             281            1096     12.7746E-03     11.4460E-03
             282            1047     19.5233E-03     18.8218E-03
             282            1048     21.2571E-03     22.6665E-03
             282            1096     12.7746E-03     11.4460E-03
             282            1097     16.8048E-03     18.5819E-03
             283            1048     21.2571E-03     22.6665E-03
             283            1049     27.1157E-03     25.0287E-03
             283            1097     16.8048E-03     18.5819E-03
             283            1098     25.6132E-03     23.5754E-03
             284            1049     27.1157E-03     25.0287E-03
             284            1050     28.4646E-03     28.6199E-03
             284            1098     25.6132E-03     23.5754E-03
             284            1099     30.3711E-03     30.7561E-03
             285            1050     28.4646E-03     28.6199E-03
             285            1051     26.6815E-03     32.2914E-03
             285            1099     30.3711E-03     30.7561E-03
             285            1100     27.0199E-03     31.5347E-03
             286            1051     26.6815E-03     32.2914E-03
             286            1052     30.6612E-03     31.0703E-03
             286            1100     27.0199E-03     31.5347E-03
             286            1101     27.5255E-03     25.8502E-03
             287            1052     30.6612E-03     31.0703E-03
             287            1053     31.7119E-03     31.9590E-03
             287            1101     27.5255E-03     25.8502E-03
             287            1102     29.1166E-03     28.2439E-03
             288            1053     31.7119E-03     31.9590E-03
             288            1054     32.4509E-03     33.9543E-03
             288            1102     29.1166E-03     28.2439E-03
             288            1103     31.7446E-03     32.2913E-03
             289            1054     32.4509E-03     33.9543E-03
             289            1055     35.8598E-03     36.2996E-03
             289            1103     31.7446E-03     32.2913E-03
             289            1104     36.4826E-03     36.6853E-03
             290            1055     35.8598E-03     36.2996E-03
             290            1056     38.8079E-03     40.4839E-03
             290            1104     36.4826E-03     36.6853E-03
             290            1105     40.9965E-03     41.9062E-03
             291            1056     38.8079E-03     40.4839E-03
             291            1057     43.2231E-03     44.5664E-03
             291            1105     40.9965E-03     41.9062E-03
             291            1106     46.0990E-03     47.2153E-03
             292            1057     43.2231E-03     44.5664E-03
             292            1058     47.8423E-03     48.2607E-03
             292            1106     46.0990E-03     47.2153E-03
             292            1107     51.9041E-03     51.6640E-03
             293            1058     47.8423E-03     48.2607E-03
             293            1059     50.2806E-03     56.0827E-03
             293            1107     51.9041E-03     51.6640E-03
             293            1108     55.3266E-03     59.9665E-03
             294            1059     50.2806E-03     56.0827E-03
             294            1060     62.0292E-03     57.5986E-03
             294            1108     55.3266E-03     59.9665E-03
             294            1109     67.1763E-03     63.4657E-03
             295            1060     62.0292E-03     57.5986E-03
             295            1061     62.6081E-03     62.4618E-03
             295            1109     67.1763E-03     63.4657E-03
             295            1110     71.0537E-03     70.5465E-03
             296            1061     62.6081E-03     62.4618E-03
             296            1062     53.9539E-03     70.0146E-03
             296            1110     71.0537E-03     70.5465E-03
             296            1111     61.6754E-03     73.6131E-03
             297            1062     53.9539E-03     70.0146E-03
             297            1063     63.2135E-03     63.4945E-03
             297            1111     61.6754E-03     73.6131E-03
             297            1112     65.7625E-03     63.1850E-03
             298            1063     63.2135E-03     63.4945E-03
             298            1064     64.9994E-03     63.1828E-03
             298            1112     65.7625E-03     63.1850E-03
             298            1113     67.4121E-03     64.8265E-03
             299            1064     64.9994E-03     63.1828E-03
             299            1065     61.3573E-03     66.3870E-03
             299            1113     67.4121E-03     64.8265E-03
             299            1114     66.5234E-03     69.7002E-03
             300            1065     61.3573E-03     66.3870E-03
             300            1066     65.6604E-03     66.7877E-03
             300            1114     66.5234E-03     69.7002E-03
             300            1115     72.0384E-03     72.3206E-03
             301            1066     65.6604E-03     66.7877E-03
             301            1067     68.0564E-03     71.3895E-03
             301            1115     72.0384E-03     72.3206E-03
             301            1116     75.8344E-03     77.7101E-03
             302            1067     68.0564E-03     71.3895E-03
             302            1068     72.3577E-03     75.3511E-03
             302            1116     75.8344E-03     77.7101E-03
             302            1117     80.5963E-03     82.6664E-03
             303            1068     72.3577E-03     75.3511E-03
             303            1069     77.3602E-03     78.4200E-03
             303            1117     80.5963E-03     82.6664E-03
             303            1118     86.4656E-03     86.3301E-03
             304            1069     77.3602E-03     78.4200E-03
             304            1070     78.8915E-03     87.9373E-03
             304            1118     86.4656E-03     86.3301E-03
             304            1119     88.6875E-03     95.6233E-03
             305            1070     78.8915E-03     87.9373E-03
             305            1071     94.6819E-03     88.3875E-03
             305            1119     88.6875E-03     95.6233E-03
             305            1120     103.341E-03     98.0188E-03
             306            1071     94.6819E-03     88.3875E-03
             306            1072     94.6718E-03     94.4058E-03
             306            1120     103.341E-03     98.0188E-03
             306            1121     107.130E-03     105.818E-03
             307            1072     94.6718E-03     94.4058E-03
             307            1073     80.8645E-03     106.207E-03
             307            1121     107.130E-03     105.818E-03
             307            1122     94.0969E-03     112.827E-03
             308            1073     80.8645E-03     106.207E-03
             308            1074     95.4600E-03     95.6714E-03
             308            1122     94.0969E-03     112.827E-03
             308            1123     102.520E-03     99.1865E-03
             309            1074     95.4600E-03     95.6714E-03
             309            1075     97.6412E-03     93.8449E-03
             309            1123     102.520E-03     99.1865E-03
             309            1124     103.700E-03     99.4039E-03
             310            1075     97.6412E-03     93.8449E-03
             310            1076     89.4798E-03     97.7288E-03
             310            1124     103.700E-03     99.4039E-03
             310            1125     99.1378E-03     104.663E-03
             311            1076     89.4798E-03     97.7288E-03
             311            1077     94.2492E-03     95.9345E-03
             311            1125     99.1378E-03     104.663E-03
             311            1126     105.136E-03     105.458E-03
             312            1077     94.2492E-03     95.9345E-03
             312            1078     95.8714E-03     100.644E-03
             312            1126     105.136E-03     105.458E-03
             312            1127     108.137E-03     110.880E-03
             313            1078     95.8714E-03     100.644E-03
             313            1079     99.8509E-03     104.310E-03
             313            1127     108.137E-03     110.880E-03
             313            1128     112.506E-03     115.433E-03
             314            1079     99.8509E-03     104.310E-03
             314            1080     105.076E-03     106.695E-03
             314            1128     112.506E-03     115.433E-03
             314            1129     118.378E-03     118.333E-03
             315            1080     105.076E-03     106.695E-03
             315            1081     105.709E-03     117.660E-03
             315            1129     118.378E-03     118.333E-03
             315            1130     119.490E-03     128.487E-03
             316            1081     105.709E-03     117.660E-03
             316            1082     125.083E-03     117.162E-03
             316            1130     119.490E-03     128.487E-03
             316            1131     136.688E-03     129.884E-03
             317            1082     125.083E-03     117.162E-03
             317            1083     124.533E-03     124.214E-03
             317            1131     136.688E-03     129.884E-03
             317            1132     140.442E-03     138.369E-03
             318            1083     124.533E-03     124.214E-03
             318            1084     105.652E-03     139.242E-03
             318            1132     140.442E-03     138.369E-03
             318            1133     123.776E-03     148.654E-03
             319            1084     105.652E-03     139.242E-03
             319            1085     124.512E-03     124.642E-03
             319            1133     123.776E-03     148.654E-03
             319            1134     135.779E-03     131.881E-03
             320            1085     124.512E-03     124.642E-03
             320            1086     127.135E-03     121.647E-03
             320            1134     135.779E-03     131.881E-03
             320            1135     136.611E-03     130.851E-03
             321            1086     127.135E-03     121.647E-03
             321            1087     115.411E-03     125.785E-03
             321            1135     136.611E-03     130.851E-03
             321            1136     128.949E-03     136.374E-03
             322            1087     115.411E-03     125.785E-03
             322            1088     119.656E-03     123.038E-03
             322            1136     128.949E-03     136.374E-03
             322            1137     135.025E-03     135.953E-03
             323            1088     119.656E-03     123.038E-03
             323            1089     122.887E-03     127.422E-03
             323            1137     135.025E-03     135.953E-03
             323            1138     138.156E-03     141.702E-03
             324            1089     122.887E-03     127.422E-03
             324            1090     126.511E-03     129.338E-03
             324            1138     138.156E-03     141.702E-03
             324            1139     143.365E-03     143.808E-03
             325            1090     126.511E-03     129.338E-03
             325            1091     127.001E-03     140.624E-03
             325            1139     143.365E-03     143.808E-03
             325            1140     143.885E-03     154.309E-03
             326            1091     127.001E-03     140.624E-03
             326            1092     148.839E-03     139.666E-03
             326            1140     143.885E-03     154.309E-03
             326            1141     162.977E-03     155.034E-03
             327            1092     148.839E-03     139.666E-03
             327            1093     147.866E-03     147.522E-03
             327            1141     162.977E-03     155.034E-03
             327            1142     166.735E-03     164.132E-03
             328             100     128.046E-03     150.490E-03
             328             101     147.577E-03     165.749E-03
             328            1093     147.866E-03     147.522E-03
             328            1142     166.735E-03     164.132E-03
             329               3     5.69302E-03     8.01509E-03
             329              37     6.78201E-03     8.18547E-03
             329             150     8.26543E-03     9.60539E-03
             329            1094     11.9115E-03     12.6285E-03
             330             149     6.15956E-03     4.14881E-03
             330             150     8.26543E-03     9.60539E-03
             330            1094     11.9115E-03     12.6285E-03
             330            1095     10.5447E-03     9.19510E-03
             331             148     9.65410E-03     8.07467E-03
             331             149     6.15956E-03     4.14881E-03
             331            1095     10.5447E-03     9.19510E-03
             331            1096     12.7746E-03     11.4460E-03
             332             147     15.3267E-03     17.0222E-03
             332             148     9.65410E-03     8.07467E-03
             332            1096     12.7746E-03     11.4460E-03
             332            1097     16.8048E-03     18.5819E-03
             333             146     25.2446E-03     23.2341E-03
             333             147     15.3267E-03     17.0222E-03
             333            1097     16.8048E-03     18.5819E-03
             333            1098     25.6132E-03     23.5754E-03
             334             145     32.6207E-03     32.7672E-03
             334             146     25.2446E-03     23.2341E-03
             334            1098     25.6132E-03     23.5754E-03
             334            1099     30.3711E-03     30.7561E-03
             335             144     27.6293E-03     30.6183E-03
             335             145     32.6207E-03     32.7672E-03
             335            1099     30.3711E-03     30.7561E-03
             335            1100     27.0199E-03     31.5347E-03
             336             143     24.1161E-03     21.3491E-03
             336             144     27.6293E-03     30.6183E-03
             336            1100     27.0199E-03     31.5347E-03
             336            1101     27.5255E-03     25.8502E-03
             337             142     27.2833E-03     25.6047E-03
             337             143     24.1161E-03     21.3491E-03
             337            1101     27.5255E-03     25.8502E-03
             337            1102     29.1166E-03     28.2439E-03
             338             141     31.7504E-03     31.1624E-03
             338             142     27.2833E-03     25.6047E-03
             338            1102     29.1166E-03     28.2439E-03
             338            1103     31.7446E-03     32.2913E-03
             339             140     37.2270E-03     36.6566E-03
             339             141     31.7504E-03     31.1624E-03
             339            1103     31.7446E-03     32.2913E-03
             339            1104     36.4826E-03     36.6853E-03
             340             139     42.6783E-03     42.1911E-03
             340             140     37.2270E-03     36.6566E-03
             340            1104     36.4826E-03     36.6853E-03
             340            1105     40.9965E-03     41.9062E-03
             341             138     47.9540E-03     48.0183E-03
             341             139     42.6783E-03     42.1911E-03
             341            1105     40.9965E-03     41.9062E-03
             341            1106     46.0990E-03     47.2153E-03
             342             137     54.0693E-03     52.7372E-03
             342             138     47.9540E-03     48.0183E-03
             342            1106     46.0990E-03     47.2153E-03
             342            1107     51.9041E-03     51.6640E-03
             343             136     58.2587E-03     60.7774E-03
             343             137     54.0693E-03     52.7372E-03
             343            1107     51.9041E-03     51.6640E-03
             343            1108     55.3266E-03     59.9665E-03
             344             135     68.9977E-03     65.0892E-03
             344             136     58.2587E-03     60.7774E-03
             344            1108     55.3266E-03     59.9665E-03
             344            1109     67.1763E-03     63.4657E-03
             345             134     75.7418E-03     74.1511E-03
             345             135     68.9977E-03     65.0892E-03
             345            1109     67.1763E-03     63.4657E-03
             345            1110     71.0537E-03     70.5465E-03
             346             133     66.1743E-03     73.6243E-03
             346             134     75.7418E-03     74.1511E-03
             346            1110     71.0537E-03     70.5465E-03
             346            1111     61.6754E-03     73.6131E-03
             347             132     64.7289E-03     60.0775E-03
             347             133     66.1743E-03     73.6243E-03
             347            1111     61.6754E-03     73.6131E-03
             347            1112     65.7625E-03     63.1850E-03
             348             131     67.6113E-03     63.7182E-03
             348             132     64.7289E-03     60.0775E-03
             348            1112     65.7625E-03     63.1850E-03
             348            1113     67.4121E-03     64.8265E-03
             349             130     69.4825E-03     69.8442E-03
             349             131     67.6113E-03     63.7182E-03
             349            1113     67.4121E-03     64.8265E-03
             349            1114     66.5234E-03     69.7002E-03
             350             129     75.2829E-03     73.8632E-03
             350             130     69.4825E-03     69.8442E-03
             350            1114     66.5234E-03     69.7002E-03
             350            1115     72.0384E-03     72.3206E-03
             351             128     80.0391E-03     79.3892E-03
             351             129     75.2829E-03     73.8632E-03
             351            1115     72.0384E-03     72.3206E-03
             351            1116     75.8344E-03     77.7101E-03
             352             127     84.9105E-03     84.7747E-03
             352             128     80.0391E-03     79.3892E-03
             352            1116     75.8344E-03     77.7101E-03
             352            1117     80.5963E-03     82.6664E-03
             353             126     90.8313E-03     88.7351E-03
             353             127     84.9105E-03     84.7747E-03
             353            1117     80.5963E-03     82.6664E-03
             353            1118     86.4656E-03     86.3301E-03
             354             125     94.0012E-03     97.2477E-03
             354             126     90.8313E-03     88.7351E-03
             354            1118     86.4656E-03     86.3301E-03
             354            1119     88.6875E-03     95.6233E-03
             355             124     106.364E-03     100.357E-03
             355             125     94.0012E-03     97.2477E-03
             355            1119     88.6875E-03     95.6233E-03
             355            1120     103.341E-03     98.0188E-03
             356             123     113.225E-03     109.917E-03
             356             124     106.364E-03     100.357E-03
             356            1120     103.341E-03     98.0188E-03
             356            1121     107.130E-03     105.818E-03
             357             122     101.648E-03     113.244E-03
             357             123     113.225E-03     109.917E-03
             357            1121     107.130E-03     105.818E-03
             357            1122     94.0969E-03     112.827E-03
             358             121     103.308E-03     97.0359E-03
             358             122     101.648E-03     113.244E-03
             358            1122     94.0969E-03     112.827E-03
             358            1123     102.520E-03     99.1865E-03
             359             120     105.200E-03     99.1880E-03
             359             121     103.308E-03     97.0359E-03
             359            1123     102.520E-03     99.1865E-03
             359            1124     103.700E-03     99.4039E-03
             360             119     104.386E-03     105.614E-03
             360             120     105.200E-03     99.1880E-03
             360            1124     103.700E-03     99.4039E-03
             360            1125     99.1378E-03     104.663E-03
             361             118     110.398E-03     108.198E-03
             361             119     104.386E-03     105.614E-03
             361            1125     99.1378E-03     104.663E-03
             361            1126     105.136E-03     105.458E-03
             362             117     114.468E-03     113.669E-03
             362             118     110.398E-03     108.198E-03
             362            1126     105.136E-03     105.458E-03
             362            1127     108.137E-03     110.880E-03
             363             116     118.933E-03     118.611E-03
             363             117     114.468E-03     113.669E-03
             363            1127     108.137E-03     110.880E-03
             363            1128     112.506E-03     115.433E-03
             364             115     124.641E-03     121.845E-03
             364             116     118.933E-03     118.611E-03
             364            1128     112.506E-03     115.433E-03
             364            1129     118.378E-03     118.333E-03
             365             114     126.855E-03     130.758E-03
             365             115     124.641E-03     121.845E-03
             365            1129     118.378E-03     118.333E-03
             365            1130     119.490E-03     128.487E-03
             366             113     140.690E-03     132.750E-03
             366             114     126.855E-03     130.758E-03
             366            1130     119.490E-03     128.487E-03
             366            1131     136.688E-03     129.884E-03
             367             112     147.688E-03     142.774E-03
             367             113     140.690E-03     132.750E-03
             367            1131     136.688E-03     129.884E-03
             367            1132     140.442E-03     138.369E-03
             368             111     134.034E-03     149.439E-03
             368             112     147.688E-03     142.774E-03
             368            1132     140.442E-03     138.369E-03
             368            1133     123.776E-03     148.654E-03
             369             110     138.295E-03     130.745E-03
             369             111     134.034E-03     149.439E-03
             369            1133     123.776E-03     148.654E-03
             369            1134     135.779E-03     131.881E-03
             370             109     139.474E-03     131.441E-03
             370             110     138.295E-03     130.745E-03
             370            1134     135.779E-03     131.881E-03
             370            1135     136.611E-03     130.851E-03
             371             108     136.174E-03     138.385E-03
             371             109     139.474E-03     131.441E-03
             371            1135     136.611E-03     130.851E-03
             371            1136     128.949E-03     136.374E-03
             372             107     142.574E-03     139.629E-03
             372             108     136.174E-03     138.385E-03
             372            1136     128.949E-03     136.374E-03
             372            1137     135.025E-03     135.953E-03
             373             106     145.940E-03     145.752E-03
             373             107     142.574E-03     139.629E-03
             373            1137     135.025E-03     135.953E-03
             373            1138     138.156E-03     141.702E-03
             374             105     151.512E-03     148.115E-03
             374             106     145.940E-03     145.752E-03
             374            1138     138.156E-03     141.702E-03
             374            1139     143.365E-03     143.808E-03
             375             104     152.915E-03     157.341E-03
             375             105     151.512E-03     148.115E-03
             375            1139     143.365E-03     143.808E-03
             375            1140     143.885E-03     154.309E-03
             376             103     168.008E-03     158.352E-03
             376             104     152.915E-03     157.341E-03
             376            1140     143.885E-03     154.309E-03
             376            1141     162.977E-03     155.034E-03
             377             102     175.002E-03     168.844E-03
             377             103     168.008E-03     158.352E-03
             377            1141     162.977E-03     155.034E-03
             377            1142     166.735E-03     164.132E-03
             378               6     158.269E-03     170.929E-03
             378             101     147.577E-03     165.749E-03
             378             102     175.002E-03     168.844E-03
             378            1142     166.735E-03     164.132E-03
             379               5     57.2580E-03     59.7974E-03
             379              96     48.4887E-03     50.5486E-03
             379             151     92.7508E-03     96.7016E-03
             379            1143     76.0256E-03     81.4066E-03
             380             151     92.7508E-03     96.7016E-03
             380             152     102.642E-03     106.513E-03
             380            1143     76.0256E-03     81.4066E-03
             380            1144     87.8636E-03     91.6063E-03
             381             152     102.642E-03     106.513E-03
             381             153     101.791E-03     105.664E-03
             381            1144     87.8636E-03     91.6063E-03
             381            1145     90.6781E-03     94.5683E-03
             382             153     101.791E-03     105.664E-03
             382             154     105.582E-03     105.639E-03
             382            1145     90.6781E-03     94.5683E-03
             382            1146     100.507E-03     97.0763E-03
             383             154     105.582E-03     105.639E-03
             383             155     105.270E-03     104.317E-03
             383            1146     100.507E-03     97.0763E-03
             383            1147     100.882E-03     101.175E-03
             384               7     71.3918E-03     71.9969E-03
             384             155     105.270E-03     104.317E-03
             384             156     75.6182E-03     87.3737E-03
             384            1147     100.882E-03     101.175E-03
             385              96     48.4887E-03     50.5486E-03
             385              97     59.8821E-03     63.4598E-03
             385            1143     76.0256E-03     81.4066E-03
             385            1148     77.0813E-03     78.9407E-03
             386            1143     76.0256E-03     81.4066E-03
             386            1144     87.8636E-03     91.6063E-03
             386            1148     77.0813E-03     78.9407E-03
             386            1149     90.2312E-03     90.6021E-03
             387            1144     87.8636E-03     91.6063E-03
             387            1145     90.6781E-03     94.5683E-03
             387            1149     90.2312E-03     90.6021E-03
             387            1150     96.3482E-03     101.645E-03
             388            1145     90.6781E-03     94.5683E-03
             388            1146     100.507E-03     97.0763E-03
             388            1150     96.3482E-03     101.645E-03
             388            1151     112.070E-03     106.148E-03
             389            1146     100.507E-03     97.0763E-03
             389            1147     100.882E-03     101.175E-03
             389            1151     112.070E-03     106.148E-03
             389            1152     111.352E-03     112.308E-03
             390             156     75.6182E-03     87.3737E-03
             390             157     90.4508E-03     113.549E-03
             390            1147     100.882E-03     101.175E-03
             390            1152     111.352E-03     112.308E-03
             391              97     59.8821E-03     63.4598E-03
             391              98     83.7149E-03     92.9265E-03
             391            1148     77.0813E-03     78.9407E-03
             391            1153     91.9805E-03     95.3483E-03
             392            1148     77.0813E-03     78.9407E-03
             392            1149     90.2312E-03     90.6021E-03
             392            1153     91.9805E-03     95.3483E-03
             392            1154     107.408E-03     103.370E-03
             393            1149     90.2312E-03     90.6021E-03
             393            1150     96.3482E-03     101.645E-03
             393            1154     107.408E-03     103.370E-03
             393            1155     117.476E-03     121.248E-03
             394            1150     96.3482E-03     101.645E-03
             394            1151     112.070E-03     106.148E-03
             394            1155     117.476E-03     121.248E-03
             394            1156     134.369E-03     125.796E-03
             395            1151     112.070E-03     106.148E-03
             395            1152     111.352E-03     112.308E-03
             395            1156     134.369E-03     125.796E-03
             395            1157     131.900E-03     130.763E-03
             396             157     90.4508E-03     113.549E-03
             396             158     109.578E-03     141.779E-03
             396            1152     111.352E-03     112.308E-03
             396            1157     131.900E-03     130.763E-03
             397              98     83.7149E-03     92.9265E-03
             397              99     107.827E-03     124.615E-03
             397            1153     91.9805E-03     95.3483E-03
             397            1158     111.640E-03     121.255E-03
             398            1153     91.9805E-03     95.3483E-03
             398            1154     107.408E-03     103.370E-03
             398            1158     111.640E-03     121.255E-03
             398            1159     130.293E-03     125.420E-03
             399            1154     107.408E-03     103.370E-03
             399            1155     117.476E-03     121.248E-03
             399            1159     130.293E-03     125.420E-03
             399            1160     142.418E-03     141.612E-03
             400            1155     117.476E-03     121.248E-03
             400            1156     134.369E-03     125.796E-03
             400            1160     142.418E-03     141.612E-03
             400            1161     157.706E-03     144.597E-03
             401            1156     134.369E-03     125.796E-03
             401            1157     131.900E-03     130.763E-03
             401            1161     157.706E-03     144.597E-03
             401            1162     153.434E-03     150.391E-03
             402             158     109.578E-03     141.779E-03
             402             159     128.491E-03     172.523E-03
             402            1157     131.900E-03     130.763E-03
             402            1162     153.434E-03     150.391E-03
             403              99     107.827E-03     124.615E-03
             403             100     128.046E-03     150.490E-03
             403            1158     111.640E-03     121.255E-03
             403            1163     130.395E-03     146.490E-03
             404            1158     111.640E-03     121.255E-03
             404            1159     130.293E-03     125.420E-03
             404            1163     130.395E-03     146.490E-03
             404            1164     152.136E-03     147.732E-03
             405            1159     130.293E-03     125.420E-03
             405            1160     142.418E-03     141.612E-03
             405            1164     152.136E-03     147.732E-03
             405            1165     160.130E-03     160.297E-03
             406            1160     142.418E-03     141.612E-03
             406            1161     157.706E-03     144.597E-03
             406            1165     160.130E-03     160.297E-03
             406            1166     173.132E-03     163.014E-03
             407            1161     157.706E-03     144.597E-03
             407            1162     153.434E-03     150.391E-03
             407            1166     173.132E-03     163.014E-03
             407            1167     171.546E-03     169.150E-03
             408             159     128.491E-03     172.523E-03
             408             160     144.252E-03     198.880E-03
             408            1162     153.434E-03     150.391E-03
             408            1167     171.546E-03     169.150E-03
             409             100     128.046E-03     150.490E-03
             409             101     147.577E-03     165.749E-03
             409            1163     130.395E-03     146.490E-03
             409            1168     146.251E-03     160.795E-03
             410            1163     130.395E-03     146.490E-03
             410            1164     152.136E-03     147.732E-03
             410            1168     146.251E-03     160.795E-03
             410            1169     166.501E-03     160.341E-03
             411            1164     152.136E-03     147.732E-03
             411            1165     160.130E-03     160.297E-03
             411            1169     166.501E-03     160.341E-03
             411            1170     170.424E-03     170.246E-03
             412            1165     160.130E-03     160.297E-03
             412            1166     173.132E-03     163.014E-03
             412            1170     170.424E-03     170.246E-03
             412            1171     182.294E-03     175.115E-03
             413            1166     173.132E-03     163.014E-03
             413            1167     171.546E-03     169.150E-03
             413            1171     182.294E-03     175.115E-03
             413            1172     188.169E-03     183.026E-03
             414             160     144.252E-03     198.880E-03
             414             161     169.674E-03     213.033E-03
             414            1167     171.546E-03     169.150E-03
             414            1172     188.169E-03     183.026E-03
             415               6     158.269E-03     170.929E-03
             415             101     147.577E-03     165.749E-03
             415             166     153.853E-03     164.532E-03
             415            1168     146.251E-03     160.795E-03
             416             165     170.944E-03     162.820E-03
             416             166     153.853E-03     164.532E-03
             416            1168     146.251E-03     160.795E-03
             416            1169     166.501E-03     160.341E-03
             417             164     174.527E-03     170.744E-03
             417             165     170.944E-03     162.820E-03
             417            1169     166.501E-03     160.341E-03
             417            1170     170.424E-03     170.246E-03
             418             163     186.239E-03     176.907E-03
             418             164     174.527E-03     170.744E-03
             418            1170     170.424E-03     170.246E-03
             418            1171     182.294E-03     175.115E-03
             419             162     196.325E-03     187.522E-03
             419             163     186.239E-03     176.907E-03
             419            1171     182.294E-03     175.115E-03
             419            1172     188.169E-03     183.026E-03
             420               8     187.995E-03     217.394E-03
             420             161     169.674E-03     213.033E-03
             420             162     196.325E-03     187.522E-03
             420            1172     188.169E-03     183.026E-03
             421               7     71.3918E-03     71.9969E-03
             421             156     75.6182E-03     87.3737E-03
             421             167     45.5369E-03     42.0866E-03
             421            1173     67.1245E-03     64.7683E-03
             422             167     45.5369E-03     42.0866E-03
             422             168     46.2311E-03     44.9319E-03
             422            1173     67.1245E-03     64.7683E-03
             422            1174     69.1528E-03     65.4411E-03
             423             168     46.2311E-03     44.9319E-03
             423             169     43.4572E-03     45.0736E-03
             423            1174     69.1528E-03     65.4411E-03
             423            1175     61.9712E-03     67.4695E-03
             424             169     43.4572E-03     45.0736E-03
             424             170     43.6807E-03     43.0476E-03
             424            1175     61.9712E-03     67.4695E-03
             424            1176     64.2617E-03     61.8914E-03
             425             170     43.6807E-03     43.0476E-03
             425             171     42.9743E-03     45.4410E-03
             425            1176     64.2617E-03     61.8914E-03
             425            1177     61.1866E-03     60.9951E-03
             426               9     35.4656E-03     38.4196E-03
             426             171     42.9743E-03     45.4410E-03
             426             172     52.2812E-03     56.6090E-03
             426            1177     61.1866E-03     60.9951E-03
             427             156     75.6182E-03     87.3737E-03
             427             157     90.4508E-03     113.549E-03
             427            1173     67.1245E-03     64.7683E-03
             427            1178     98.5481E-03     95.8875E-03
             428            1173     67.1245E-03     64.7683E-03
             428            1174     69.1528E-03     65.4411E-03
             428            1178     98.5481E-03     95.8875E-03
             428            1179     103.169E-03     96.3667E-03
             429            1174     69.1528E-03     65.4411E-03
             429            1175     61.9712E-03     67.4695E-03
             429            1179     103.169E-03     96.3667E-03
             429            1180     91.3857E-03     101.649E-03
             430            1175     61.9712E-03     67.4695E-03
             430            1176     64.2617E-03     61.8914E-03
             430            1180     91.3857E-03     101.649E-03
             430            1181     96.0747E-03     91.0747E-03
             431            1176     64.2617E-03     61.8914E-03
             431            1177     61.1866E-03     60.9951E-03
             431            1181     96.0747E-03     91.0747E-03
             431            1182     89.6471E-03     86.3209E-03
             432             172     52.2812E-03     56.6090E-03
             432             173     77.5050E-03     84.1587E-03
             432            1177     61.1866E-03     60.9951E-03
             432            1182     89.6471E-03     86.3209E-03
             433             157     90.4508E-03     113.549E-03
             433             158     109.578E-03     141.779E-03
             433            1178     98.5481E-03     95.8875E-03
             433            1183     130.071E-03     125.642E-03
             434            1178     98.5481E-03     95.8875E-03
             434            1179     103.169E-03     96.3667E-03
             434            1183     130.071E-03     125.642E-03
             434            1184     137.294E-03     125.235E-03
             435            1179     103.169E-03     96.3667E-03
             435            1180     91.3857E-03     101.649E-03
             435            1184     137.294E-03     125.235E-03
             435            1185     120.760E-03     133.310E-03
             436            1180     91.3857E-03     101.649E-03
             436            1181     96.0747E-03     91.0747E-03
             436            1185     120.760E-03     133.310E-03
             436            1186     127.572E-03     119.230E-03
             437            1181     96.0747E-03     91.0747E-03
             437            1182     89.6471E-03     86.3209E-03
             437            1186     127.572E-03     119.230E-03
             437            1187     117.790E-03     112.736E-03
             438             173     77.5050E-03     84.1587E-03
             438             174     101.833E-03     111.721E-03
             438            1182     89.6471E-03     86.3209E-03
             438            1187     117.790E-03     112.736E-03
             439             158     109.578E-03     141.779E-03
             439             159     128.491E-03     172.523E-03
             439            1183     130.071E-03     125.642E-03
             439            1188     157.288E-03     152.346E-03
             440            1183     130.071E-03     125.642E-03
             440            1184     137.294E-03     125.235E-03
             440            1188     157.288E-03     152.346E-03
             440            1189     164.800E-03     146.584E-03
             441            1184     137.294E-03     125.235E-03
             441            1185     120.760E-03     133.310E-03
             441            1189     164.800E-03     146.584E-03
             441            1190     142.318E-03     157.747E-03
             442            1185     120.760E-03     133.310E-03
             442            1186     127.572E-03     119.230E-03
             442            1190     142.318E-03     157.747E-03
             442            1191     153.636E-03     141.026E-03
             443            1186     127.572E-03     119.230E-03
             443            1187     117.790E-03     112.736E-03
             443            1191     153.636E-03     141.026E-03
             443            1192     142.968E-03     137.808E-03
             444             174     101.833E-03     111.721E-03
             444             175     122.693E-03     138.567E-03
             444            1187     117.790E-03     112.736E-03
             444            1192     142.968E-03     137.808E-03
             445             159     128.491E-03     172.523E-03
             445             160     144.252E-03     198.880E-03
             445            1188     157.288E-03     152.346E-03
             445            1193     178.451E-03     176.302E-03
             446            1188     157.288E-03     152.346E-03
             446            1189     164.800E-03     146.584E-03
             446            1193     178.451E-03     176.302E-03
             446            1194     183.440E-03     165.968E-03
             447            1189     164.800E-03     146.584E-03
             447            1190     142.318E-03     157.747E-03
             447            1194     183.440E-03     165.968E-03
             447            1195     154.249E-03     176.716E-03
             448            1190     142.318E-03     157.747E-03
             448            1191     153.636E-03     141.026E-03
             448            1195     154.249E-03     176.716E-03
             448            1196     170.537E-03     158.083E-03
             449            1191     153.636E-03     141.026E-03
             449            1192     142.968E-03     137.808E-03
             449            1196     170.537E-03     158.083E-03
             449            1197     161.971E-03     158.669E-03
             450             175     122.693E-03     138.567E-03
             450             176     138.928E-03     159.638E-03
             450            1192     142.968E-03     137.808E-03
             450            1197     161.971E-03     158.669E-03
             451             160     144.252E-03     198.880E-03
             451             161     169.674E-03     213.033E-03
             451            1193     178.451E-03     176.302E-03
             451            1198     196.652E-03     193.192E-03
             452            1193     178.451E-03     176.302E-03
             452            1194     183.440E-03     165.968E-03
             452            1198     196.652E-03     193.192E-03
             452            1199     194.146E-03     179.583E-03
             453            1194     183.440E-03     165.968E-03
             453            1195     154.249E-03     176.716E-03
             453            1199     194.146E-03     179.583E-03
             453            1200     166.320E-03     184.638E-03
             454            1195     154.249E-03     176.716E-03
             454            1196     170.537E-03     158.083E-03
             454            1200     166.320E-03     184.638E-03
             454            1201     177.902E-03     166.375E-03
             455            1196     170.537E-03     158.083E-03
             455            1197     161.971E-03     158.669E-03
             455            1201     177.902E-03     166.375E-03
             455            1202     170.632E-03     166.305E-03
             456             176     138.928E-03     159.638E-03
             456             177     151.272E-03     167.102E-03
             456            1197     161.971E-03     158.669E-03
             456            1202     170.632E-03     166.305E-03
             457               8     187.995E-03     217.394E-03
             457             161     169.674E-03     213.033E-03
             457             182     205.535E-03     198.420E-03
             457            1198     196.652E-03     193.192E-03
             458             181     197.401E-03     182.234E-03
             458             182     205.535E-03     198.420E-03
             458            1198     196.652E-03     193.192E-03
             458            1199     194.146E-03     179.583E-03
             459             180     174.336E-03     184.203E-03
             459             181     197.401E-03     182.234E-03
             459            1199     194.146E-03     179.583E-03
             459            1200     166.320E-03     184.638E-03
             460             179     179.307E-03     166.244E-03
             460             180     174.336E-03     184.203E-03
             460            1200     166.320E-03     184.638E-03
             460            1201     177.902E-03     166.375E-03
             461             178     171.931E-03     164.903E-03
             461             179     179.307E-03     166.244E-03
             461            1201     177.902E-03     166.375E-03
             461            1202     170.632E-03     166.305E-03
             462              10     156.744E-03     166.853E-03
             462             177     151.272E-03     167.102E-03
             462             178     171.931E-03     164.903E-03
             462            1202     170.632E-03     166.305E-03
             463              11     991.862E-06     985.630E-06
             463             183     1.00083E-03     990.685E-06
             463             204     965.966E-06     958.406E-06
             463            1203     973.352E-06     961.760E-06
             464             183     1.00083E-03     990.685E-06
             464             184     1.00464E-03     994.789E-06
             464            1203     973.352E-06     961.760E-06
             464            1204     978.294E-06     967.050E-06
             465             184     1.00464E-03     994.789E-06
             465             185     996.756E-06     997.263E-06
             465            1204     978.294E-06     967.050E-06
             465            1205     973.348E-06     974.642E-06
             466             185     996.756E-06     997.263E-06
             466             186     1.00802E-03     998.531E-06
             466            1205     973.348E-06     974.642E-06
             466            1206     988.504E-06     977.527E-06
             467             186     1.00802E-03     998.531E-06
             467             187     1.00491E-03     979.713E-06
             467            1206     988.504E-06     977.527E-06
             467            1207     987.780E-06     966.273E-06
             468              12     20.0550E-03     19.9714E-03
             468             187     1.00491E-03     979.713E-06
             468             188     20.0236E-03     19.8976E-03
             468            1207     987.780E-06     966.273E-06
             469             203     879.063E-06     870.398E-06
             469             204     965.966E-06     958.406E-06
             469            1203     973.352E-06     961.760E-06
             469            1208     888.975E-06     877.610E-06
             470            1203     973.352E-06     961.760E-06
             470            1204     978.294E-06     967.050E-06
             470            1208     888.975E-06     877.610E-06
             470            1209     897.829E-06     886.997E-06
             471            1204     978.294E-06     967.050E-06
             471            1205     973.348E-06     974.642E-06
             471            1209     897.829E-06     886.997E-06
             471            1210     901.046E-06     906.230E-06
             472            1205     973.348E-06     974.642E-06
             472            1206     988.504E-06     977.527E-06
             472            1210     901.046E-06     906.230E-06
             472            1211     937.278E-06     919.843E-06
             473            1206     988.504E-06     977.527E-06
             473            1207     987.780E-06     966.273E-06
             473            1211     937.278E-06     919.843E-06
             473            1212     939.866E-06     925.796E-06
             474             188     20.0236E-03     19.8976E-03
             474             189     18.9650E-03     18.8548E-03
             474            1207     987.780E-06     966.273E-06
             474            1212     939.866E-06     925.796E-06
             475             202     744.632E-06     732.364E-06
             475             203     879.063E-06     870.398E-06
             475            1208     888.975E-06     877.610E-06
             475            1213     749.889E-06     743.214E-06
             476            1208     888.975E-06     877.610E-06
             476            1209     897.829E-06     886.997E-06
             476            1213     749.889E-06     743.214E-06
             476            1214     761.541E-06     762.714E-06
             477            1209     897.829E-06     886.997E-06
             477            1210     901.046E-06     906.230E-06
             477            1214     761.541E-06     762.714E-06
             477            1215     782.007E-06     801.057E-06
             478            1210     901.046E-06     906.230E-06
             478            1211     937.278E-06     919.843E-06
             478            1215     782.007E-06     801.057E-06
             478            1216     861.678E-06     822.795E-06
             479            1211     937.278E-06     919.843E-06
             479            1212     939.866E-06     925.796E-06
             479            1216     861.678E-06     822.795E-06
             479            1217     878.455E-06     860.587E-06
             480             189     18.9650E-03     18.8548E-03
             480             190     16.9823E-03     16.8624E-03
             480            1212     939.866E-06     925.796E-06
             480            1217     878.455E-06     860.587E-06
             481             201     541.756E-06     541.457E-06
             481             202     744.632E-06     732.364E-06
             481            1213     749.889E-06     743.214E-06
             481            1218     554.603E-06     563.142E-06
             482            1213     749.889E-06     743.214E-06
             482            1214     761.541E-06     762.714E-06
             482            1218     554.603E-06     563.142E-06
             482            1219     584.011E-06     598.129E-06
             483            1214     761.541E-06     762.714E-06
             483            1215     782.007E-06     801.057E-06
             483            1219     584.011E-06     598.129E-06
             483            1220     630.525E-06     664.498E-06
             484            1215     782.007E-06     801.057E-06
             484            1216     861.678E-06     822.795E-06
             484            1220     630.525E-06     664.498E-06
             484            1221     766.302E-06     694.753E-06
             485            1216     861.678E-06     822.795E-06
             485            1217     878.455E-06     860.587E-06
             485            1221     766.302E-06     694.753E-06
             485            1222     796.494E-06     785.104E-06
             486             190     16.9823E-03     16.8624E-03
             486             191     13.9629E-03     13.8861E-03
             486            1217     878.455E-06     860.587E-06
             486            1222     796.494E-06     785.104E-06
             487             200     321.215E-06     338.721E-06
             487             201     541.756E-06     541.457E-06
             487            1218     554.603E-06     563.142E-06
             487            1223     324.378E-06     351.833E-06
             488            1218     554.603E-06     563.142E-06
             488            1219     584.011E-06     598.129E-06
             488            1223     324.378E-06     351.833E-06
             488            1224     372.452E-06     371.058E-06
             489            1219     584.011E-06     598.129E-06
             489            1220     630.525E-06     664.498E-06
             489            1224     372.452E-06     371.058E-06
             489            1225     465.403E-06     504.841E-06
             490            1220     630.525E-06     664.498E-06
             490            1221     766.302E-06     694.753E-06
             490            1225     465.403E-06     504.841E-06
             490            1226     695.029E-06     615.553E-06
             491            1221     766.302E-06     694.753E-06
             491            1222     796.494E-06     785.104E-06
             491            1226     695.029E-06     615.553E-06
             491            1227     757.575E-06     768.728E-06
             492             191     13.9629E-03     13.8861E-03
             492             192     10.0314E-03     10.3331E-03
             492            1222     796.494E-06     785.104E-06
             492            1227     757.575E-06     768.728E-06
             493             199     255.524E-06     342.715E-06
             493             200     321.215E-06     338.721E-06
             493            1223     324.378E-06     351.833E-06
             493            1228     236.255E-06     296.341E-06
             494            1223     324.378E-06     351.833E-06
             494            1224     372.452E-06     371.058E-06
             494            1228     236.255E-06     296.341E-06
             494            1229     293.954E-06     268.611E-06
             495            1224     372.452E-06     371.058E-06
             495            1225     465.403E-06     504.841E-06
             495            1229     293.954E-06     268.611E-06
             495            1230     425.483E-06     468.954E-06
             496            1225     465.403E-06     504.841E-06
             496            1226     695.029E-06     615.553E-06
             496            1230     425.483E-06     468.954E-06
             496            1231     729.856E-06     671.989E-06
             497            1226     695.029E-06     615.553E-06
             497            1227     757.575E-06     768.728E-06
             497            1231     729.856E-06     671.989E-06
             497            1232     911.026E-06     917.507E-06
             498             192     10.0314E-03     10.3331E-03
             498             193     6.50221E-03     8.28589E-03
             498            1227     757.575E-06     768.728E-06
             498            1232     911.026E-06     917.507E-06
             499              14     280.922E-06     435.786E-06
             499             198     265.262E-06     351.258E-06
             499             199     255.524E-06     342.715E-06
             499            1228     236.255E-06     296.341E-06
             500             197     331.658E-06     300.620E-06
             500             198     265.262E-06     351.258E-06
             500            1228     236.255E-06     296.341E-06
             500            1229     293.954E-06     268.611E-06
             501             196     469.348E-06     515.547E-06
             501             197     331.658E-06     300.620E-06
             501            1229     293.954E-06     268.611E-06
             501            1230     425.483E-06     468.954E-06
             502             195     784.470E-06     739.948E-06
             502             196     469.348E-06     515.547E-06
             502            1230     425.483E-06     468.954E-06
             502            1231     729.856E-06     671.989E-06
             503             194     1.05207E-03     1.04535E-03
             503             195     784.470E-06     739.948E-06
             503            1231     729.856E-06     671.989E-06
             503            1232     911.026E-06     917.507E-06
             504              13     5.06469E-03     8.06258E-03
             504             193     6.50221E-03     8.28589E-03
             504             194     1.05207E-03     1.04535E-03
             504            1232     911.026E-06     917.507E-06
             505               9     35.4656E-03     38.4196E-03
             505             172     52.2812E-03     56.6090E-03
             505             205     32.5821E-03     32.3048E-03
             505            1233     50.1642E-03     53.2796E-03
             506             205     32.5821E-03     32.3048E-03
             506             206     39.7817E-03     37.9156E-03
             506            1233     50.1642E-03     53.2796E-03
             506            1234     58.4896E-03     55.9589E-03
             507             206     39.7817E-03     37.9156E-03
             507             207     40.3243E-03     40.9796E-03
             507            1234     58.4896E-03     55.9589E-03
             507            1235     60.3801E-03     58.2103E-03
             508             207     40.3243E-03     40.9796E-03
             508             208     38.2617E-03     40.9449E-03
             508            1235     60.3801E-03     58.2103E-03
             508            1236     55.9130E-03     59.4585E-03
             509             208     38.2617E-03     40.9449E-03
             509             209     39.2603E-03     40.1018E-03
             509            1236     55.9130E-03     59.4585E-03
             509            1237     56.7511E-03     57.0317E-03
             510             209     39.2603E-03     40.1018E-03
             510             210     39.5877E-03     40.1653E-03
             510            1237     56.7511E-03     57.0317E-03
             510            1238     55.9868E-03     56.4997E-03
             511             210     39.5877E-03     40.1653E-03
             511             211     39.7531E-03     39.4141E-03
             511            1238     55.9868E-03     56.4997E-03
             511            1239     54.7125E-03     54.9948E-03
             512             211     39.7531E-03     39.4141E-03
             512             212     39.9675E-03     38.8546E-03
             512            1239     54.7125E-03     54.9948E-03
             512            1240     53.5367E-03     52.9577E-03
             513             212     39.9675E-03     38.8546E-03
             513             213     40.0184E-03     38.4451E-03
             513            1240     53.5367E-03     52.9577E-03
             513            1241     51.6984E-03     51.8606E-03
             514             213     40.0184E-03     38.4451E-03
             514             214     39.4980E-03     37.4320E-03
             514            1241     51.6984E-03     51.8606E-03
             514            1242     51.2032E-03     48.8062E-03
             515             214     39.4980E-03     37.4320E-03
             515             215     38.5498E-03     38.5898E-03
             515            1242     51.2032E-03     48.8062E-03
             515            1243     48.5035E-03     47.4412E-03
             516             215     38.5498E-03     38.5898E-03
             516             216     37.9949E-03     38.4758E-03
             516            1243     48.5035E-03     47.4412E-03
             516            1244     45.4611E-03     49.0177E-03
             517             216     37.9949E-03     38.4758E-03
             517             217     39.7008E-03     38.1209E-03
             517            1244     45.4611E-03     49.0177E-03
             517            1245     50.6189E-03     48.5790E-03
             518             217     39.7008E-03     38.1209E-03
             518             218     39.9207E-03     40.5193E-03
             518            1245     50.6189E-03     48.5790E-03
             518            1246     51.5732E-03     50.0521E-03
             519             218     39.9207E-03     40.5193E-03
             519             219     38.2615E-03     40.3502E-03
             519            1246     51.5732E-03     50.0521E-03
             519            1247     47.9411E-03     50.4737E-03
             520             219     38.2615E-03     40.3502E-03
             520             220     38.8522E-03     39.6645E-03
             520            1247     47.9411E-03     50.4737E-03
             520            1248     48.2514E-03     48.4126E-03
             521             220     38.8522E-03     39.6645E-03
             521             221     38.9559E-03     39.6186E-03
             521            1248     48.2514E-03     48.4126E-03
             521            1249     47.4662E-03     47.6848E-03
             522             221     38.9559E-03     39.6186E-03
             522             222     39.0173E-03     39.0151E-03
             522            1249     47.4662E-03     47.6848E-03
             522            1250     46.2697E-03     46.5254E-03
             523             222     39.0173E-03     39.0151E-03
             523             223     39.2441E-03     38.3955E-03
             523            1250     46.2697E-03     46.5254E-03
             523            1251     45.3903E-03     44.9927E-03
             524             223     39.2441E-03     38.3955E-03
             524             224     39.1890E-03     38.0495E-03
             524            1251     45.3903E-03     44.9927E-03
             524            1252     44.2695E-03     43.6167E-03
             525             224     39.1890E-03     38.0495E-03
             525             225     39.2464E-03     37.7623E-03
             525            1252     44.2695E-03     43.6167E-03
             525            1253     43.0309E-03     42.4990E-03
             526             225     39.2464E-03     37.7623E-03
             526             226     38.8100E-03     37.2569E-03
             526            1253     43.0309E-03     42.4990E-03
             526            1254     42.2162E-03     40.7451E-03
             527             226     38.8100E-03     37.2569E-03
             527             227     38.2512E-03     37.9973E-03
             527            1254     42.2162E-03     40.7451E-03
             527            1255     40.6790E-03     40.0431E-03
             528             227     38.2512E-03     37.9973E-03
             528             228     38.3091E-03     38.1841E-03
             528            1255     40.6790E-03     40.0431E-03
             528            1256     39.9093E-03     41.1477E-03
             529             228     38.3091E-03     38.1841E-03
             529             229     39.6836E-03     38.5229E-03
             529            1256     39.9093E-03     41.1477E-03
             529            1257     42.8879E-03     41.5711E-03
             530             229     39.6836E-03     38.5229E-03
             530             230     39.7856E-03     40.0091E-03
             530            1257     42.8879E-03     41.5711E-03
             530            1258     43.0663E-03     42.3072E-03
             531             230     39.7856E-03     40.0091E-03
             531             231     38.8292E-03     39.7724E-03
             531            1258     43.0663E-03     42.3072E-03
             531            1259     40.8505E-03     42.1218E-03
             532             231     38.8292E-03     39.7724E-03
             532             232     39.1914E-03     39.3567E-03
             532            1259     40.8505E-03     42.1218E-03
             532            1260     40.7738E-03     40.7890E-03
             533             232     39.1914E-03     39.3567E-03
             533             233     39.2817E-03     39.3323E-03
             533            1260     40.7738E-03     40.7890E-03
             533            1261     40.1452E-03     40.1975E-03
             534             233     39.2817E-03     39.3323E-03
             534             234     39.3331E-03     39.0469E-03
             534            1261     40.1452E-03     40.1975E-03
             534            1262     39.4118E-03     39.3962E-03
             535             234     39.3331E-03     39.0469E-03
             535             235     39.4301E-03     38.8773E-03
             535            1262     39.4118E-03     39.3962E-03
             535            1263     38.9128E-03     38.5755E-03
             536             235     39.4301E-03     38.8773E-03
             536             236     39.4415E-03     38.8102E-03
             536            1263     38.9128E-03     38.5755E-03
             536            1264     38.4371E-03     37.9905E-03
             537             236     39.4415E-03     38.8102E-03
             537             237     39.4188E-03     38.6797E-03
             537            1264     38.4371E-03     37.9905E-03
             537            1265     37.9676E-03     37.3978E-03
             538             237     39.4188E-03     38.6797E-03
             538             238     39.1710E-03     38.7355E-03
             538            1265     37.9676E-03     37.3978E-03
             538            1266     37.5053E-03     37.0750E-03
             539             238     39.1710E-03     38.7355E-03
             539             239     38.9894E-03     38.6281E-03
             539            1266     37.5053E-03     37.0750E-03
             539            1267     37.2909E-03     37.1234E-03
             540             239     38.9894E-03     38.6281E-03
             540             240     39.4538E-03     38.7570E-03
             540            1267     37.2909E-03     37.1234E-03
             540            1268     37.8743E-03     37.3220E-03
             541             240     39.4538E-03     38.7570E-03
             541             241     39.5214E-03     39.3215E-03
             541            1268     37.8743E-03     37.3220E-03
             541            1269     37.8821E-03     37.6052E-03
             542             241     39.5214E-03     39.3215E-03
             542             242     39.2937E-03     39.2356E-03
             542            1269     37.8821E-03     37.6052E-03
             542            1270     37.4682E-03     37.4774E-03
             543             242     39.2937E-03     39.2356E-03
             543             243     39.2975E-03     38.9892E-03
             543            1270     37.4682E-03     37.4774E-03
             543            1271     37.4379E-03     37.1368E-03
             544              12     20.0550E-03     19.9714E-03
             544             243     39.2975E-03     38.9892E-03
             544             244     19.1258E-03     19.0116E-03
             544            1271     37.4379E-03     37.1368E-03
             545             172     52.2812E-03     56.6090E-03
             545             173     77.5050E-03     84.1587E-03
             545            1233     50.1642E-03     53.2796E-03
             545            1272     76.1082E-03     83.7655E-03
             546            1233     50.1642E-03     53.2796E-03
             546            1234     58.4896E-03     55.9589E-03
             546            1272     76.1082E-03     83.7655E-03
             546            1273     87.1899E-03     83.5585E-03
             547            1234     58.4896E-03     55.9589E-03
             547            1235     60.3801E-03     58.2103E-03
             547            1273     87.1899E-03     83.5585E-03
             547            1274     91.0949E-03     84.8380E-03
             548            1235     60.3801E-03     58.2103E-03
             548            1236     55.9130E-03     59.4585E-03
             548            1274     91.0949E-03     84.8380E-03
             548            1275     82.6838E-03     87.1521E-03
             549            1236     55.9130E-03     59.4585E-03
             549            1237     56.7511E-03     57.0317E-03
             549            1275     82.6838E-03     87.1521E-03
             549            1276     82.9442E-03     81.7013E-03
             550            1237     56.7511E-03     57.0317E-03
             550            1238     55.9868E-03     56.4997E-03
             550            1276     82.9442E-03     81.7013E-03
             550            1277     80.6120E-03     80.2573E-03
             551            1238     55.9868E-03     56.4997E-03
             551            1239     54.7125E-03     54.9948E-03
             551            1277     80.6120E-03     80.2573E-03
             551            1278     77.6520E-03     77.9525E-03
             552            1239     54.7125E-03     54.9948E-03
             552            1240     53.5367E-03     52.9577E-03
             552            1278     77.6520E-03     77.9525E-03
             552            1279     75.1049E-03     74.7127E-03
             553            1240     53.5367E-03     52.9577E-03
             553            1241     51.6984E-03     51.8606E-03
             553            1279     75.1049E-03     74.7127E-03
             553            1280     70.9960E-03     73.6458E-03
             554            1241     51.6984E-03     51.8606E-03
             554            1242     51.2032E-03     48.8062E-03
             554            1280     70.9960E-03     73.6458E-03
             554            1281     71.2184E-03     68.0995E-03
             555            1242     51.2032E-03     48.8062E-03
             555            1243     48.5035E-03     47.4412E-03
             555            1281     71.2184E-03     68.0995E-03
             555            1282     66.0075E-03     63.8063E-03
             556            1243     48.5035E-03     47.4412E-03
             556            1244     45.4611E-03     49.0177E-03
             556            1282     66.0075E-03     63.8063E-03
             556            1283     59.1156E-03     67.8513E-03
             557            1244     45.4611E-03     49.0177E-03
             557            1245     50.6189E-03     48.5790E-03
             557            1283     59.1156E-03     67.8513E-03
             557            1284     68.9828E-03     66.2215E-03
             558            1245     50.6189E-03     48.5790E-03
             558            1246     51.5732E-03     50.0521E-03
             558            1284     68.9828E-03     66.2215E-03
             558            1285     71.2586E-03     66.3991E-03
             559            1246     51.5732E-03     50.0521E-03
             559            1247     47.9411E-03     50.4737E-03
             559            1285     71.2586E-03     66.3991E-03
             559            1286     64.1803E-03     67.2428E-03
             560            1247     47.9411E-03     50.4737E-03
             560            1248     48.2514E-03     48.4126E-03
             560            1286     64.1803E-03     67.2428E-03
             560            1287     63.6712E-03     62.4971E-03
             561            1248     48.2514E-03     48.4126E-03
             561            1249     47.4662E-03     47.6848E-03
             561            1287     63.6712E-03     62.4971E-03
             561            1288     61.4241E-03     60.6708E-03
             562            1249     47.4662E-03     47.6848E-03
             562            1250     46.2697E-03     46.5254E-03
             562            1288     61.4241E-03     60.6708E-03
             562            1289     58.3643E-03     58.6604E-03
             563            1250     46.2697E-03     46.5254E-03
             563            1251     45.3903E-03     44.9927E-03
             563            1289     58.3643E-03     58.6604E-03
             563            1290     56.2092E-03     56.0761E-03
             564            1251     45.3903E-03     44.9927E-03
             564            1252     44.2695E-03     43.6167E-03
             564            1290     56.2092E-03     56.0761E-03
             564            1291     53.6008E-03     53.6374E-03
             565            1252     44.2695E-03     43.6167E-03
             565            1253     43.0309E-03     42.4990E-03
             565            1291     53.6008E-03     53.6374E-03
             565            1292     50.5456E-03     51.8490E-03
             566            1253     43.0309E-03     42.4990E-03
             566            1254     42.2162E-03     40.7451E-03
             566            1292     50.5456E-03     51.8490E-03
             566            1293     49.4306E-03     48.1435E-03
             567            1254     42.2162E-03     40.7451E-03
             567            1255     40.6790E-03     40.0431E-03
             567            1293     49.4306E-03     48.1435E-03
             567            1294     46.2950E-03     45.2028E-03
             568            1255     40.6790E-03     40.0431E-03
             568            1256     39.9093E-03     41.1477E-03
             568            1294     46.2950E-03     45.2028E-03
             568            1295     43.5205E-03     47.6758E-03
             569            1256     39.9093E-03     41.1477E-03
             569            1257     42.8879E-03     41.5711E-03
             569            1295     43.5205E-03     47.6758E-03
             569            1296     49.0775E-03     47.4669E-03
             570            1257     42.8879E-03     41.5711E-03
             570            1258     43.0663E-03     42.3072E-03
             570            1296     49.0775E-03     47.4669E-03
             570            1297     49.6739E-03     46.9150E-03
             571            1258     43.0663E-03     42.3072E-03
             571            1259     40.8505E-03     42.1218E-03
             571            1297     49.6739E-03     46.9150E-03
             571            1298     44.9238E-03     46.5215E-03
             572            1259     40.8505E-03     42.1218E-03
             572            1260     40.7738E-03     40.7890E-03
             572            1298     44.9238E-03     46.5215E-03
             572            1299     43.8731E-03     43.3270E-03
             573            1260     40.7738E-03     40.7890E-03
             573            1261     40.1452E-03     40.1975E-03
             573            1299     43.8731E-03     43.3270E-03
             573            1300     41.9763E-03     41.8395E-03
             574            1261     40.1452E-03     40.1975E-03
             574            1262     39.4118E-03     39.3962E-03
             574            1300     41.9763E-03     41.8395E-03
             574            1301     39.8190E-03     40.2069E-03
             575            1262     39.4118E-03     39.3962E-03
             575            1263     38.9128E-03     38.5755E-03
             575            1301     39.8190E-03     40.2069E-03
             575            1302     38.2131E-03     38.3741E-03
             576            1263     38.9128E-03     38.5755E-03
             576            1264     38.4371E-03     37.9905E-03
             576            1302     38.2131E-03     38.3741E-03
             576            1303     36.6047E-03     36.7932E-03
             577            1264     38.4371E-03     37.9905E-03
             577            1265     37.9676E-03     37.3978E-03
             577            1303     36.6047E-03     36.7932E-03
             577            1304     35.3028E-03     35.2586E-03
             578            1265     37.9676E-03     37.3978E-03
             578            1266     37.5053E-03     37.0750E-03
             578            1304     35.3028E-03     35.2586E-03
             578            1305     34.2781E-03     33.9782E-03
             579            1266     37.5053E-03     37.0750E-03
             579            1267     37.2909E-03     37.1234E-03
             579            1305     34.2781E-03     33.9782E-03
             579            1306     33.9045E-03     34.2724E-03
             580            1267     37.2909E-03     37.1234E-03
             580            1268     37.8743E-03     37.3220E-03
             580            1306     33.9045E-03     34.2724E-03
             580            1307     34.8313E-03     34.5676E-03
             581            1268     37.8743E-03     37.3220E-03
             581            1269     37.8821E-03     37.6052E-03
             581            1307     34.8313E-03     34.5676E-03
             581            1308     34.7847E-03     34.2465E-03
             582            1269     37.8821E-03     37.6052E-03
             582            1270     37.4682E-03     37.4774E-03
             582            1308     34.7847E-03     34.2465E-03
             582            1309     33.8855E-03     33.9464E-03
             583            1270     37.4682E-03     37.4774E-03
             583            1271     37.4379E-03     37.1368E-03
             583            1309     33.8855E-03     33.9464E-03
             583            1310     33.6811E-03     33.4075E-03
             584             244     19.1258E-03     19.0116E-03
             584             245     17.2179E-03     17.1282E-03
             584            1271     37.4379E-03     37.1368E-03
             584            1310     33.6811E-03     33.4075E-03
             585             173     77.5050E-03     84.1587E-03
             585             174     101.833E-03     111.721E-03
             585            1272     76.1082E-03     83.7655E-03
             585            1311     101.465E-03     114.559E-03
             586            1272     76.1082E-03     83.7655E-03
             586            1273     87.1899E-03     83.5585E-03
             586            1311     101.465E-03     114.559E-03
             586            1312     116.964E-03     113.023E-03
             587            1273     87.1899E-03     83.5585E-03
             587            1274     91.0949E-03     84.8380E-03
             587            1312     116.964E-03     113.023E-03
             587            1313     121.728E-03     111.425E-03
             588            1274     91.0949E-03     84.8380E-03
             588            1275     82.6838E-03     87.1521E-03
             588            1313     121.728E-03     111.425E-03
             588            1314     107.526E-03     113.083E-03
             589            1275     82.6838E-03     87.1521E-03
             589            1276     82.9442E-03     81.7013E-03
             589            1314     107.526E-03     113.083E-03
             589            1315     106.408E-03     104.013E-03
             590            1276     82.9442E-03     81.7013E-03
             590            1277     80.6120E-03     80.2573E-03
             590            1315     106.408E-03     104.013E-03
             590            1316     102.532E-03     101.527E-03
             591            1277     80.6120E-03     80.2573E-03
             591            1278     77.6520E-03     77.9525E-03
             591            1316     102.532E-03     101.527E-03
             591            1317     98.5949E-03     98.5131E-03
             592            1278     77.6520E-03     77.9525E-03
             592            1279     75.1049E-03     74.7127E-03
             592            1317     98.5949E-03     98.5131E-03
             592            1318     95.7217E-03     94.7890E-03
             593            1279     75.1049E-03     74.7127E-03
             593            1280     70.9960E-03     73.6458E-03
             593            1318     95.7217E-03     94.7890E-03
             593            1319     90.9094E-03     95.3225E-03
             594            1280     70.9960E-03     73.6458E-03
             594            1281     71.2184E-03     68.0995E-03
             594            1319     90.9094E-03     95.3225E-03
             594            1320     93.4916E-03     89.1832E-03
             595            1281     71.2184E-03     68.0995E-03
             595            1282     66.0075E-03     63.8063E-03
             595            1320     93.4916E-03     89.1832E-03
             595            1321     86.5278E-03     84.2221E-03
             596            1282     66.0075E-03     63.8063E-03
             596            1283     59.1156E-03     67.8513E-03
             596            1321     86.5278E-03     84.2221E-03
             596            1322     75.0147E-03     90.9224E-03
             597            1283     59.1156E-03     67.8513E-03
             597            1284     68.9828E-03     66.2215E-03
             597            1322     75.0147E-03     90.9224E-03
             597            1323     89.2880E-03     86.4112E-03
             598            1284     68.9828E-03     66.2215E-03
             598            1285     71.2586E-03     66.3991E-03
             598            1323     89.2880E-03     86.4112E-03
             598            1324     92.0565E-03     84.0187E-03
             599            1285     71.2586E-03     66.3991E-03
             599            1286     64.1803E-03     67.2428E-03
             599            1324     92.0565E-03     84.0187E-03
             599            1325     80.1557E-03     84.2781E-03
             600            1286     64.1803E-03     67.2428E-03
             600            1287     63.6712E-03     62.4971E-03
             600            1325     80.1557E-03     84.2781E-03
             600            1326     78.3025E-03     76.5477E-03
             601            1287     63.6712E-03     62.4971E-03
             601            1288     61.4241E-03     60.6708E-03
             601            1326     78.3025E-03     76.5477E-03
             601            1327     74.5453E-03     73.4082E-03
             602            1288     61.4241E-03     60.6708E-03
             602            1289     58.3643E-03     58.6604E-03
             602            1327     74.5453E-03     73.4082E-03
             602            1328     69.9986E-03     70.4306E-03
             603            1289     58.3643E-03     58.6604E-03
             603            1290     56.2092E-03     56.0761E-03
             603            1328     69.9986E-03     70.4306E-03
             603            1329     67.1133E-03     66.8336E-03
             604            1290     56.2092E-03     56.0761E-03
             604            1291     53.6008E-03     53.6374E-03
             604            1329     67.1133E-03     66.8336E-03
             604            1330     63.8402E-03     63.8867E-03
             605            1291     53.6008E-03     53.6374E-03
             605            1292     50.5456E-03     51.8490E-03
             605            1330     63.8402E-03     63.8867E-03
             605            1331     59.7543E-03     62.6191E-03
             606            1292     50.5456E-03     51.8490E-03
             606            1293     49.4306E-03     48.1435E-03
             606            1331     59.7543E-03     62.6191E-03
             606            1332     59.4188E-03     57.9940E-03
             607            1293     49.4306E-03     48.1435E-03
             607            1294     46.2950E-03     45.2028E-03
             607            1332     59.4188E-03     57.9940E-03
             607            1333     54.8279E-03     53.8475E-03
             608            1294     46.2950E-03     45.2028E-03
             608            1295     43.5205E-03     47.6758E-03
             608            1333     54.8279E-03     53.8475E-03
             608            1334     48.9183E-03     57.5566E-03
             609            1295     43.5205E-03     47.6758E-03
             609            1296     49.0775E-03     47.4669E-03
             609            1334     48.9183E-03     57.5566E-03
             609            1335     56.9661E-03     55.2521E-03
             610            1296     49.0775E-03     47.4669E-03
             610            1297     49.6739E-03     46.9150E-03
             610            1335     56.9661E-03     55.2521E-03
             610            1336     57.5153E-03     52.4590E-03
             611            1297     49.6739E-03     46.9150E-03
             611            1298     44.9238E-03     46.5215E-03
             611            1336     57.5153E-03     52.4590E-03
             611            1337     49.2581E-03     51.4383E-03
             612            1298     44.9238E-03     46.5215E-03
             612            1299     43.8731E-03     43.3270E-03
             612            1337     49.2581E-03     51.4383E-03
             612            1338     47.0256E-03     46.0405E-03
             613            1299     43.8731E-03     43.3270E-03
             613            1300     41.9763E-03     41.8395E-03
             613            1338     47.0256E-03     46.0405E-03
             613            1339     43.8338E-03     43.3968E-03
             614            1300     41.9763E-03     41.8395E-03
             614            1301     39.8190E-03     40.2069E-03
             614            1339     43.8338E-03     43.3968E-03
             614            1340     40.3402E-03     40.7480E-03
             615            1301     39.8190E-03     40.2069E-03
             615            1302     38.2131E-03     38.3741E-03
             615            1340     40.3402E-03     40.7480E-03
             615            1341     37.5858E-03     37.9355E-03
             616            1302     38.2131E-03     38.3741E-03
             616            1303     36.6047E-03     36.7932E-03
             616            1341     37.5858E-03     37.9355E-03
             616            1342     34.7251E-03     35.6880E-03
             617            1303     36.6047E-03     36.7932E-03
             617            1304     35.3028E-03     35.2586E-03
             617            1342     34.7251E-03     35.6880E-03
             617            1343     32.3306E-03     33.1708E-03
             618            1304     35.3028E-03     35.2586E-03
             618            1305     34.2781E-03     33.9782E-03
             618            1343     32.3306E-03     33.1708E-03
             618            1344     30.4987E-03     30.6133E-03
             619            1305     34.2781E-03     33.9782E-03
             619            1306     33.9045E-03     34.2724E-03
             619            1344     30.4987E-03     30.6133E-03
             619            1345     29.6384E-03     30.8684E-03
             620            1306     33.9045E-03     34.2724E-03
             620            1307     34.8313E-03     34.5676E-03
             620            1345     29.6384E-03     30.8684E-03
             620            1346     30.9794E-03     30.7922E-03
             621            1307     34.8313E-03     34.5676E-03
             621            1308     34.7847E-03     34.2465E-03
             621            1346     30.9794E-03     30.7922E-03
             621            1347     30.4333E-03     29.4649E-03
             622            1308     34.7847E-03     34.2465E-03
             622            1309     33.8855E-03     33.9464E-03
             622            1347     30.4333E-03     29.4649E-03
             622            1348     28.4455E-03     28.9339E-03
             623            1309     33.8855E-03     33.9464E-03
             623            1310     33.6811E-03     33.4075E-03
             623            1348     28.4455E-03     28.9339E-03
             623            1349     28.2069E-03     28.1037E-03
             624             245     17.2179E-03     17.1282E-03
             624             246     14.4801E-03     14.3855E-03
             624            1310     33.6811E-03     33.4075E-03
             624            1349     28.2069E-03     28.1037E-03
             625             174     101.833E-03     111.721E-03
             625             175     122.693E-03     138.567E-03
             625            1311     101.465E-03     114.559E-03
             625            1350     123.322E-03     143.447E-03
             626            1311     101.465E-03     114.559E-03
             626            1312     116.964E-03     113.023E-03
             626            1350     123.322E-03     143.447E-03
             626            1351     143.215E-03     140.474E-03
             627            1312     116.964E-03     113.023E-03
             627            1313     121.728E-03     111.425E-03
             627            1351     143.215E-03     140.474E-03
             627            1352     147.121E-03     133.916E-03
             628            1313     121.728E-03     111.425E-03
             628            1314     107.526E-03     113.083E-03
             628            1352     147.121E-03     133.916E-03
             628            1353     126.409E-03     135.871E-03
             629            1314     107.526E-03     113.083E-03
             629            1315     106.408E-03     104.013E-03
             629            1353     126.409E-03     135.871E-03
             629            1354     124.360E-03     123.503E-03
             630            1315     106.408E-03     104.013E-03
             630            1316     102.532E-03     101.527E-03
             630            1354     124.360E-03     123.503E-03
             630            1355     119.145E-03     120.189E-03
             631            1316     102.532E-03     101.527E-03
             631            1317     98.5949E-03     98.5131E-03
             631            1355     119.145E-03     120.189E-03
             631            1356     114.282E-03     116.173E-03
             632            1317     98.5949E-03     98.5131E-03
             632            1318     95.7217E-03     94.7890E-03
             632            1356     114.282E-03     116.173E-03
             632            1357     111.479E-03     111.162E-03
             633            1318     95.7217E-03     94.7890E-03
             633            1319     90.9094E-03     95.3225E-03
             633            1357     111.479E-03     111.162E-03
             633            1358     106.433E-03     113.081E-03
             634            1319     90.9094E-03     95.3225E-03
             634            1320     93.4916E-03     89.1832E-03
             634            1358     106.433E-03     113.081E-03
             634            1359     113.139E-03     106.947E-03
             635            1320     93.4916E-03     89.1832E-03
             635            1321     86.5278E-03     84.2221E-03
             635            1359     113.139E-03     106.947E-03
             635            1360     106.168E-03     104.765E-03
             636            1321     86.5278E-03     84.2221E-03
             636            1322     75.0147E-03     90.9224E-03
             636            1360     106.168E-03     104.765E-03
             636            1361     90.0619E-03     115.933E-03
             637            1322     75.0147E-03     90.9224E-03
             637            1323     89.2880E-03     86.4112E-03
             637            1361     90.0619E-03     115.933E-03
             637            1362     107.587E-03     105.643E-03
             638            1323     89.2880E-03     86.4112E-03
             638            1324     92.0565E-03     84.0187E-03
             638            1362     107.587E-03     105.643E-03
             638            1363     109.748E-03     99.5408E-03
             639            1324     92.0565E-03     84.0187E-03
             639            1325     80.1557E-03     84.2781E-03
             639            1363     109.748E-03     99.5408E-03
             639            1364     92.8220E-03     100.129E-03
             640            1325     80.1557E-03     84.2781E-03
             640            1326     78.3025E-03     76.5477E-03
             640            1364     92.8220E-03     100.129E-03
             640            1365     90.0567E-03     89.7465E-03
             641            1326     78.3025E-03     76.5477E-03
             641            1327     74.5453E-03     73.4082E-03
             641            1365     90.0567E-03     89.7465E-03
             641            1366     85.1421E-03     85.4617E-03
             642            1327     74.5453E-03     73.4082E-03
             642            1328     69.9986E-03     70.4306E-03
             642            1366     85.1421E-03     85.4617E-03
             642            1367     79.1220E-03     81.3538E-03
             643            1328     69.9986E-03     70.4306E-03
             643            1329     67.1133E-03     66.8336E-03
             643            1367     79.1220E-03     81.3538E-03
             643            1368     75.7859E-03     76.4246E-03
             644            1329     67.1133E-03     66.8336E-03
             644            1330     63.8402E-03     63.8867E-03
             644            1368     75.7859E-03     76.4246E-03
             644            1369     72.0871E-03     72.4494E-03
             645            1330     63.8402E-03     63.8867E-03
             645            1331     59.7543E-03     62.6191E-03
             645            1369     72.0871E-03     72.4494E-03
             645            1370     67.5174E-03     71.5988E-03
             646            1331     59.7543E-03     62.6191E-03
             646            1332     59.4188E-03     57.9940E-03
             646            1370     67.5174E-03     71.5988E-03
             646            1371     69.4282E-03     66.9375E-03
             647            1332     59.4188E-03     57.9940E-03
             647            1333     54.8279E-03     53.8475E-03
             647            1371     69.4282E-03     66.9375E-03
             647            1372     64.3875E-03     64.0453E-03
             648            1333     54.8279E-03     53.8475E-03
             648            1334     48.9183E-03     57.5566E-03
             648            1372     64.3875E-03     64.0453E-03
             648            1373     55.0444E-03     69.9649E-03
             649            1334     48.9183E-03     57.5566E-03
             649            1335     56.9661E-03     55.2521E-03
             649            1373     55.0444E-03     69.9649E-03
             649            1374     64.7065E-03     63.5709E-03
             650            1335     56.9661E-03     55.2521E-03
             650            1336     57.5153E-03     52.4590E-03
             650            1374     64.7065E-03     63.5709E-03
             650            1375     64.7451E-03     58.1752E-03
             651            1336     57.5153E-03     52.4590E-03
             651            1337     49.2581E-03     51.4383E-03
             651            1375     64.7451E-03     58.1752E-03
             651            1376     52.9636E-03     57.2060E-03
             652            1337     49.2581E-03     51.4383E-03
             652            1338     47.0256E-03     46.0405E-03
             652            1376     52.9636E-03     57.2060E-03
             652            1377     49.7767E-03     49.3553E-03
             653            1338     47.0256E-03     46.0405E-03
             653            1339     43.8338E-03     43.3968E-03
             653            1377     49.7767E-03     49.3553E-03
             653            1378     45.2828E-03     45.2313E-03
             654            1339     43.8338E-03     43.3968E-03
             654            1340     40.3402E-03     40.7480E-03
             654            1378     45.2828E-03     45.2313E-03
             654            1379     40.3450E-03     41.1473E-03
             655            1340     40.3402E-03     40.7480E-03
             655            1341     37.5858E-03     37.9355E-03
             655            1379     40.3450E-03     41.1473E-03
             655            1380     36.7444E-03     36.8413E-03
             656            1341     37.5858E-03     37.9355E-03
             656            1342     34.7251E-03     35.6880E-03
             656            1380     36.7444E-03     36.8413E-03
             656            1381     32.8585E-03     34.0657E-03
             657            1342     34.7251E-03     35.6880E-03
             657            1343     32.3306E-03     33.1708E-03
             657            1381     32.8585E-03     34.0657E-03
             657            1382     30.1215E-03     31.2138E-03
             658            1343     32.3306E-03     33.1708E-03
             658            1344     30.4987E-03     30.6133E-03
             658            1382     30.1215E-03     31.2138E-03
             658            1383     27.4982E-03     28.0847E-03
             659            1344     30.4987E-03     30.6133E-03
             659            1345     29.6384E-03     30.8684E-03
             659            1383     27.4982E-03     28.0847E-03
             659            1384     24.8952E-03     28.0516E-03
             660            1345     29.6384E-03     30.8684E-03
             660            1346     30.9794E-03     30.7922E-03
             660            1384     24.8952E-03     28.0516E-03
             660            1385     26.1798E-03     26.0470E-03
             661            1346     30.9794E-03     30.7922E-03
             661            1347     30.4333E-03     29.4649E-03
             661            1385     26.1798E-03     26.0470E-03
             661            1386     25.2404E-03     23.5192E-03
             662            1347     30.4333E-03     29.4649E-03
             662            1348     28.4455E-03     28.9339E-03
             662            1386     25.2404E-03     23.5192E-03
             662            1387     21.6698E-03     23.1125E-03
             663            1348     28.4455E-03     28.9339E-03
             663            1349     28.2069E-03     28.1037E-03
             663            1387     21.6698E-03     23.1125E-03
             663            1388     20.9824E-03     21.3357E-03
             664             246     14.4801E-03     14.3855E-03
             664             247     10.8587E-03     10.7936E-03
             664            1349     28.2069E-03     28.1037E-03
             664            1388     20.9824E-03     21.3357E-03
             665             175     122.693E-03     138.567E-03
             665             176     138.928E-03     159.638E-03
             665            1350     123.322E-03     143.447E-03
             665            1389     140.107E-03     164.960E-03
             666            1350     123.322E-03     143.447E-03
             666            1351     143.215E-03     140.474E-03
             666            1389     140.107E-03     164.960E-03
             666            1390     163.631E-03     162.841E-03
             667            1351     143.215E-03     140.474E-03
             667            1352     147.121E-03     133.916E-03
             667            1390     163.631E-03     162.841E-03
             667            1391     165.469E-03     153.963E-03
             668            1352     147.121E-03     133.916E-03
             668            1353     126.409E-03     135.871E-03
             668            1391     165.469E-03     153.963E-03
             668            1392     140.194E-03     155.220E-03
             669            1353     126.409E-03     135.871E-03
             669            1354     124.360E-03     123.503E-03
             669            1392     140.194E-03     155.220E-03
             669            1393     138.890E-03     140.734E-03
             670            1354     124.360E-03     123.503E-03
             670            1355     119.145E-03     120.189E-03
             670            1393     138.890E-03     140.734E-03
             670            1394     132.109E-03     137.068E-03
             671            1355     119.145E-03     120.189E-03
             671            1356     114.282E-03     116.173E-03
             671            1394     132.109E-03     137.068E-03
             671            1395     126.300E-03     131.893E-03
             672            1356     114.282E-03     116.173E-03
             672            1357     111.479E-03     111.162E-03
             672            1395     126.300E-03     131.893E-03
             672            1396     123.229E-03     125.212E-03
             673            1357     111.479E-03     111.162E-03
             673            1358     106.433E-03     113.081E-03
             673            1396     123.229E-03     125.212E-03
             673            1397     116.211E-03     126.529E-03
             674            1358     106.433E-03     113.081E-03
             674            1359     113.139E-03     106.947E-03
             674            1397     116.211E-03     126.529E-03
             674            1398     125.356E-03     119.758E-03
             675            1359     113.139E-03     106.947E-03
             675            1360     106.168E-03     104.765E-03
             675            1398     125.356E-03     119.758E-03
             675            1399     120.456E-03     119.768E-03
             676            1360     106.168E-03     104.765E-03
             676            1361     90.0619E-03     115.933E-03
             676            1399     120.456E-03     119.768E-03
             676            1400     102.392E-03     134.535E-03
             677            1361     90.0619E-03     115.933E-03
             677            1362     107.587E-03     105.643E-03
             677            1400     102.392E-03     134.535E-03
             677            1401     122.287E-03     121.765E-03
             678            1362     107.587E-03     105.643E-03
             678            1363     109.748E-03     99.5408E-03
             678            1401     122.287E-03     121.765E-03
             678            1402     123.109E-03     114.091E-03
             679            1363     109.748E-03     99.5408E-03
             679            1364     92.8220E-03     100.129E-03
             679            1402     123.109E-03     114.091E-03
             679            1403     102.657E-03     113.942E-03
             680            1364     92.8220E-03     100.129E-03
             680            1365     90.0567E-03     89.7465E-03
             680            1403     102.657E-03     113.942E-03
             680            1404     100.123E-03     101.623E-03
             681            1365     90.0567E-03     89.7465E-03
             681            1366     85.1421E-03     85.4617E-03
             681            1404     100.123E-03     101.623E-03
             681            1405     93.9328E-03     96.8161E-03
             682            1366     85.1421E-03     85.4617E-03
             682            1367     79.1220E-03     81.3538E-03
             682            1405     93.9328E-03     96.8161E-03
             682            1406     86.9149E-03     91.4517E-03
             683            1367     79.1220E-03     81.3538E-03
             683            1368     75.7859E-03     76.4246E-03
             683            1406     86.9149E-03     91.4517E-03
             683            1407     82.7634E-03     85.4791E-03
             684            1368     75.7859E-03     76.4246E-03
             684            1369     72.0871E-03     72.4494E-03
             684            1407     82.7634E-03     85.4791E-03
             684            1408     78.1209E-03     79.9670E-03
             685            1369     72.0871E-03     72.4494E-03
             685            1370     67.5174E-03     71.5988E-03
             685            1408     78.1209E-03     79.9670E-03
             685            1409     72.2619E-03     78.0678E-03
             686            1370     67.5174E-03     71.5988E-03
             686            1371     69.4282E-03     66.9375E-03
             686            1409     72.2619E-03     78.0678E-03
             686            1410     75.2462E-03     72.8017E-03
             687            1371     69.4282E-03     66.9375E-03
             687            1372     64.3875E-03     64.0453E-03
             687            1410     75.2462E-03     72.8017E-03
             687            1411     71.5297E-03     71.2634E-03
             688            1372     64.3875E-03     64.0453E-03
             688            1373     55.0444E-03     69.9649E-03
             688            1411     71.5297E-03     71.2634E-03
             688            1412     60.8292E-03     79.7374E-03
             689            1373     55.0444E-03     69.9649E-03
             689            1374     64.7065E-03     63.5709E-03
             689            1412     60.8292E-03     79.7374E-03
             689            1413     72.1263E-03     71.9871E-03
             690            1374     64.7065E-03     63.5709E-03
             690            1375     64.7451E-03     58.1752E-03
             690            1413     72.1263E-03     71.9871E-03
             690            1414     71.4770E-03     65.5217E-03
             691            1375     64.7451E-03     58.1752E-03
             691            1376     52.9636E-03     57.2060E-03
             691            1414     71.4770E-03     65.5217E-03
             691            1415     56.8203E-03     63.5502E-03
             692            1376     52.9636E-03     57.2060E-03
             692            1377     49.7767E-03     49.3553E-03
             692            1415     56.8203E-03     63.5502E-03
             692            1416     53.0720E-03     53.5335E-03
             693            1377     49.7767E-03     49.3553E-03
             693            1378     45.2828E-03     45.2313E-03
             693            1416     53.0720E-03     53.5335E-03
             693            1417     46.9606E-03     48.2127E-03
             694            1378     45.2828E-03     45.2313E-03
             694            1379     40.3450E-03     41.1473E-03
             694            1417     46.9606E-03     48.2127E-03
             694            1418     40.5908E-03     42.5133E-03
             695            1379     40.3450E-03     41.1473E-03
             695            1380     36.7444E-03     36.8413E-03
             695            1418     40.5908E-03     42.5133E-03
             695            1419     35.9050E-03     36.4807E-03
             696            1380     36.7444E-03     36.8413E-03
             696            1381     32.8585E-03     34.0657E-03
             696            1419     35.9050E-03     36.4807E-03
             696            1420     30.6799E-03     32.1174E-03
             697            1381     32.8585E-03     34.0657E-03
             697            1382     30.1215E-03     31.2138E-03
             697            1420     30.6799E-03     32.1174E-03
             697            1421     27.7205E-03     28.3616E-03
             698            1382     30.1215E-03     31.2138E-03
             698            1383     27.4982E-03     28.0847E-03
             698            1421     27.7205E-03     28.3616E-03
             698            1422     25.3216E-03     25.5034E-03
             699            1383     27.4982E-03     28.0847E-03
             699            1384     24.8952E-03     28.0516E-03
             699            1422     25.3216E-03     25.5034E-03
             699            1423     20.9592E-03     26.3665E-03
             700            1384     24.8952E-03     28.0516E-03
             700            1385     26.1798E-03     26.0470E-03
             700            1423     20.9592E-03     26.3665E-03
             700            1424     22.2120E-03     22.7449E-03
             701            1385     26.1798E-03     26.0470E-03
             701            1386     25.2404E-03     23.5192E-03
             701            1424     22.2120E-03     22.7449E-03
             701            1425     20.3203E-03     17.4769E-03
             702            1386     25.2404E-03     23.5192E-03
             702            1387     21.6698E-03     23.1125E-03
             702            1425     20.3203E-03     17.4769E-03
             702            1426     13.8776E-03     15.6427E-03
             703            1387     21.6698E-03     23.1125E-03
             703            1388     20.9824E-03     21.3357E-03
             703            1426     13.8776E-03     15.6427E-03
             703            1427     12.5701E-03     13.3547E-03
             704             247     10.8587E-03     10.7936E-03
             704             248     6.46796E-03     6.91901E-03
             704            1388     20.9824E-03     21.3357E-03
             704            1427     12.5701E-03     13.3547E-03
             705             176     138.928E-03     159.638E-03
             705             177     151.272E-03     167.102E-03
             705            1389     140.107E-03     164.960E-03
             705            1428     156.851E-03     176.521E-03
             706            1389     140.107E-03     164.960E-03
             706            1390     163.631E-03     162.841E-03
             706            1428     156.851E-03     176.521E-03
             706            1429     180.290E-03     176.948E-03
             707            1390     163.631E-03     162.841E-03
             707            1391     165.469E-03     153.963E-03
             707            1429     180.290E-03     176.948E-03
             707            1430     175.792E-03     166.207E-03
             708            1391     165.469E-03     153.963E-03
             708            1392     140.194E-03     155.220E-03
             708            1430     175.792E-03     166.207E-03
             708            1431     153.341E-03     164.520E-03
             709            1392     140.194E-03     155.220E-03
             709            1393     138.890E-03     140.734E-03
             709            1431     153.341E-03     164.520E-03
             709            1432     151.584E-03     151.300E-03
             710            1393     138.890E-03     140.734E-03
             710            1394     132.109E-03     137.068E-03
             710            1432     151.584E-03     151.300E-03
             710            1433     143.980E-03     147.253E-03
             711            1394     132.109E-03     137.068E-03
             711            1395     126.300E-03     131.893E-03
             711            1433     143.980E-03     147.253E-03
             711            1434     137.917E-03     141.148E-03
             712            1395     126.300E-03     131.893E-03
             712            1396     123.229E-03     125.212E-03
             712            1434     137.917E-03     141.148E-03
             712            1435     133.356E-03     133.853E-03
             713            1396     123.229E-03     125.212E-03
             713            1397     116.211E-03     126.529E-03
             713            1435     133.356E-03     133.853E-03
             713            1436     125.032E-03     132.128E-03
             714            1397     116.211E-03     126.529E-03
             714            1398     125.356E-03     119.758E-03
             714            1436     125.032E-03     132.128E-03
             714            1437     129.346E-03     123.852E-03
             715            1398     125.356E-03     119.758E-03
             715            1399     120.456E-03     119.768E-03
             715            1437     129.346E-03     123.852E-03
             715            1438     125.207E-03     121.659E-03
             716            1399     120.456E-03     119.768E-03
             716            1400     102.392E-03     134.535E-03
             716            1438     125.207E-03     121.659E-03
             716            1439     116.103E-03     140.015E-03
             717            1400     102.392E-03     134.535E-03
             717            1401     122.287E-03     121.765E-03
             717            1439     116.103E-03     140.015E-03
             717            1440     135.662E-03     133.386E-03
             718            1401     122.287E-03     121.765E-03
             718            1402     123.109E-03     114.091E-03
             718            1440     135.662E-03     133.386E-03
             718            1441     131.070E-03     123.664E-03
             719            1402     123.109E-03     114.091E-03
             719            1403     102.657E-03     113.942E-03
             719            1441     131.070E-03     123.664E-03
             719            1442     112.241E-03     120.720E-03
             720            1403     102.657E-03     113.942E-03
             720            1404     100.123E-03     101.623E-03
             720            1442     112.241E-03     120.720E-03
             720            1443     109.210E-03     108.936E-03
             721            1404     100.123E-03     101.623E-03
             721            1405     93.9328E-03     96.8161E-03
             721            1443     109.210E-03     108.936E-03
             721            1444     101.956E-03     103.959E-03
             722            1405     93.9328E-03     96.8161E-03
             722            1406     86.9149E-03     91.4517E-03
             722            1444     101.956E-03     103.959E-03
             722            1445     95.2896E-03     97.5947E-03
             723            1406     86.9149E-03     91.4517E-03
             723            1407     82.7634E-03     85.4791E-03
             723            1445     95.2896E-03     97.5947E-03
             723            1446     89.6911E-03     91.3129E-03
             724            1407     82.7634E-03     85.4791E-03
             724            1408     78.1209E-03     79.9670E-03
             724            1446     89.6911E-03     91.3129E-03
             724            1447     84.0151E-03     84.6495E-03
             725            1408     78.1209E-03     79.9670E-03
             725            1409     72.2619E-03     78.0678E-03
             725            1447     84.0151E-03     84.6495E-03
             725            1448     76.7130E-03     80.5148E-03
             726            1409     72.2619E-03     78.0678E-03
             726            1410     75.2462E-03     72.8017E-03
             726            1448     76.7130E-03     80.5148E-03
             726            1449     76.0733E-03     73.2213E-03
             727            1410     75.2462E-03     72.8017E-03
             727            1411     71.5297E-03     71.2634E-03
             727            1449     76.0733E-03     73.2213E-03
             727            1450     71.7622E-03     69.3873E-03
             728            1411     71.5297E-03     71.2634E-03
             728            1412     60.8292E-03     79.7374E-03
             728            1450     71.7622E-03     69.3873E-03
             728            1451     68.4216E-03     82.4912E-03
             729            1412     60.8292E-03     79.7374E-03
             729            1413     72.1263E-03     71.9871E-03
             729            1451     68.4216E-03     82.4912E-03
             729            1452     81.7271E-03     80.7454E-03
             730            1413     72.1263E-03     71.9871E-03
             730            1414     71.4770E-03     65.5217E-03
             730            1452     81.7271E-03     80.7454E-03
             730            1453     76.7345E-03     71.9907E-03
             731            1414     71.4770E-03     65.5217E-03
             731            1415     56.8203E-03     63.5502E-03
             731            1453     76.7345E-03     71.9907E-03
             731            1454     62.1091E-03     67.3872E-03
             732            1415     56.8203E-03     63.5502E-03
             732            1416     53.0720E-03     53.5335E-03
             732            1454     62.1091E-03     67.3872E-03
             732            1455     57.4947E-03     57.0723E-03
             733            1416     53.0720E-03     53.5335E-03
             733            1417     46.9606E-03     48.2127E-03
             733            1455     57.4947E-03     57.0723E-03
             733            1456     50.1351E-03     51.2034E-03
             734            1417     46.9606E-03     48.2127E-03
             734            1418     40.5908E-03     42.5133E-03
             734            1456     50.1351E-03     51.2034E-03
             734            1457     43.3226E-03     44.3428E-03
             735            1418     40.5908E-03     42.5133E-03
             735            1419     35.9050E-03     36.4807E-03
             735            1457     43.3226E-03     44.3428E-03
             735            1458     37.0390E-03     37.4777E-03
             736            1419     35.9050E-03     36.4807E-03
             736            1420     30.6799E-03     32.1174E-03
             736            1458     37.0390E-03     37.4777E-03
             736            1459     30.3766E-03     31.0271E-03
             737            1420     30.6799E-03     32.1174E-03
             737            1421     27.7205E-03     28.3616E-03
             737            1459     30.3766E-03     31.0271E-03
             737            1460     24.6540E-03     24.6139E-03
             738            1421     27.7205E-03     28.3616E-03
             738            1422     25.3216E-03     25.5034E-03
             738            1460     24.6540E-03     24.6139E-03
             738            1461     20.0422E-03     18.9904E-03
             739            1422     25.3216E-03     25.5034E-03
             739            1423     20.9592E-03     26.3665E-03
             739            1461     20.0422E-03     18.9904E-03
             739            1462     20.6169E-03     25.0486E-03
             740            1423     20.9592E-03     26.3665E-03
             740            1424     22.2120E-03     22.7449E-03
             740            1462     20.6169E-03     25.0486E-03
             740            1463     25.4519E-03     26.1545E-03
             741            1424     22.2120E-03     22.7449E-03
             741            1425     20.3203E-03     17.4769E-03
             741            1463     25.4519E-03     26.1545E-03
             741            1464     19.4807E-03     16.7799E-03
             742            1425     20.3203E-03     17.4769E-03
             742            1426     13.8776E-03     15.6427E-03
             742            1464     19.4807E-03     16.7799E-03
             742            1465     10.3932E-03     11.9220E-03
             743            1426     13.8776E-03     15.6427E-03
             743            1427     12.5701E-03     13.3547E-03
             743            1465     10.3932E-03     11.9220E-03
             743            1466     8.98413E-03     10.6167E-03
             744             248     6.46796E-03     6.91901E-03
             744             249     4.77991E-03     6.60281E-03
             744            1427     12.5701E-03     13.3547E-03
             744            1466     8.98413E-03     10.6167E-03
             745              10     156.744E-03     166.853E-03
             745             177     151.272E-03     167.102E-03
             745             288     166.602E-03     180.384E-03
             745            1428     156.851E-03     176.521E-03
             746             287     187.942E-03     181.178E-03
             746             288     166.602E-03     180.384E-03
             746            1428     156.851E-03     176.521E-03
             746            1429     180.290E-03     176.948E-03
             747             286     178.658E-03     168.242E-03
             747             287     187.942E-03     181.178E-03
             747            1429     180.290E-03     176.948E-03
             747            1430     175.792E-03     166.207E-03
             748             285     160.437E-03     165.411E-03
             748             286     178.658E-03     168.242E-03
             748            1430     175.792E-03     166.207E-03
             748            1431     153.341E-03     164.520E-03
             749             284     157.416E-03     153.911E-03
             749             285     160.437E-03     165.411E-03
             749            1431     153.341E-03     164.520E-03
             749            1432     151.584E-03     151.300E-03
             750             283     149.969E-03     149.601E-03
             750             284     157.416E-03     153.911E-03
             750            1432     151.584E-03     151.300E-03
             750            1433     143.980E-03     147.253E-03
             751             282     143.970E-03     143.115E-03
             751             283     149.969E-03     149.601E-03
             751            1433     143.980E-03     147.253E-03
             751            1434     137.917E-03     141.148E-03
             752             281     138.242E-03     135.874E-03
             752             282     143.970E-03     143.115E-03
             752            1434     137.917E-03     141.148E-03
             752            1435     133.356E-03     133.853E-03
             753             280     130.101E-03     132.009E-03
             753             281     138.242E-03     135.874E-03
             753            1435     133.356E-03     133.853E-03
             753            1436     125.032E-03     132.128E-03
             754             279     129.631E-03     122.465E-03
             754             280     130.101E-03     132.009E-03
             754            1436     125.032E-03     132.128E-03
             754            1437     129.346E-03     123.852E-03
             755             278     124.674E-03     118.184E-03
             755             279     129.631E-03     122.465E-03
             755            1437     129.346E-03     123.852E-03
             755            1438     125.207E-03     121.659E-03
             756             277     124.504E-03     139.696E-03
             756             278     124.674E-03     118.184E-03
             756            1438     125.207E-03     121.659E-03
             756            1439     116.103E-03     140.015E-03
             757             276     142.289E-03     137.625E-03
             757             277     124.504E-03     139.696E-03
             757            1439     116.103E-03     140.015E-03
             757            1440     135.662E-03     133.386E-03
             758             275     133.366E-03     125.618E-03
             758             276     142.289E-03     137.625E-03
             758            1440     135.662E-03     133.386E-03
             758            1441     131.070E-03     123.664E-03
             759             274     117.385E-03     121.501E-03
             759             275     133.366E-03     125.618E-03
             759            1441     131.070E-03     123.664E-03
             759            1442     112.241E-03     120.720E-03
             760             273     113.415E-03     110.817E-03
             760             274     117.385E-03     121.501E-03
             760            1442     112.241E-03     120.720E-03
             760            1443     109.210E-03     108.936E-03
             761             272     105.968E-03     105.798E-03
             761             273     113.415E-03     110.817E-03
             761            1443     109.210E-03     108.936E-03
             761            1444     101.956E-03     103.959E-03
             762             271     99.7488E-03     99.0512E-03
             762             272     105.968E-03     105.798E-03
             762            1444     101.956E-03     103.959E-03
             762            1445     95.2896E-03     97.5947E-03
             763             270     93.4076E-03     92.7914E-03
             763             271     99.7488E-03     99.0512E-03
             763            1445     95.2896E-03     97.5947E-03
             763            1446     89.6911E-03     91.3129E-03
             764             269     87.1929E-03     85.6897E-03
             764             270     93.4076E-03     92.7914E-03
             764            1446     89.6911E-03     91.3129E-03
             764            1447     84.0151E-03     84.6495E-03
             765             268     79.4885E-03     80.2427E-03
             765             269     87.1929E-03     85.6897E-03
             765            1447     84.0151E-03     84.6495E-03
             765            1448     76.7130E-03     80.5148E-03
             766             267     75.5737E-03     71.4301E-03
             766             268     79.4885E-03     80.2427E-03
             766            1448     76.7130E-03     80.5148E-03
             766            1449     76.0733E-03     73.2213E-03
             767             266     69.5217E-03     65.2960E-03
             767             267     75.5737E-03     71.4301E-03
             767            1449     76.0733E-03     73.2213E-03
             767            1450     71.7622E-03     69.3873E-03
             768             265     73.2294E-03     82.1497E-03
             768             266     69.5217E-03     65.2960E-03
             768            1450     71.7622E-03     69.3873E-03
             768            1451     68.4216E-03     82.4912E-03
             769             264     87.3187E-03     85.0662E-03
             769             265     73.2294E-03     82.1497E-03
             769            1451     68.4216E-03     82.4912E-03
             769            1452     81.7271E-03     80.7454E-03
             770             263     78.5962E-03     74.0152E-03
             770             264     87.3187E-03     85.0662E-03
             770            1452     81.7271E-03     80.7454E-03
             770            1453     76.7345E-03     71.9907E-03
             771             262     65.2713E-03     68.1967E-03
             771             263     78.5962E-03     74.0152E-03
             771            1453     76.7345E-03     71.9907E-03
             771            1454     62.1091E-03     67.3872E-03
             772             261     59.9514E-03     58.3490E-03
             772             262     65.2713E-03     68.1967E-03
             772            1454     62.1091E-03     67.3872E-03
             772            1455     57.4947E-03     57.0723E-03
             773             260     52.2937E-03     52.3706E-03
             773             261     59.9514E-03     58.3490E-03
             773            1455     57.4947E-03     57.0723E-03
             773            1456     50.1351E-03     51.2034E-03
             774             259     45.5792E-03     45.1101E-03
             774             260     52.2937E-03     52.3706E-03
             774            1456     50.1351E-03     51.2034E-03
             774            1457     43.3226E-03     44.3428E-03
             775             258     38.4743E-03     38.1459E-03
             775             259     45.5792E-03     45.1101E-03
             775            1457     43.3226E-03     44.3428E-03
             775            1458     37.0390E-03     37.4777E-03
             776             257     31.1952E-03     30.7593E-03
             776             258     38.4743E-03     38.1459E-03
             776            1458     37.0390E-03     37.4777E-03
             776            1459     30.3766E-03     31.0271E-03
             777             256     23.2138E-03     22.6863E-03
             777             257     31.1952E-03     30.7593E-03
             777            1459     30.3766E-03     31.0271E-03
             777            1460     24.6540E-03     24.6139E-03
             778             255     15.7887E-03     14.0904E-03
             778             256     23.2138E-03     22.6863E-03
             778            1460     24.6540E-03     24.6139E-03
             778            1461     20.0422E-03     18.9904E-03
             779             254     21.6569E-03     24.3065E-03
             779             255     15.7887E-03     14.0904E-03
             779            1461     20.0422E-03     18.9904E-03
             779            1462     20.6169E-03     25.0486E-03
             780             253     29.8598E-03     30.2134E-03
             780             254     21.6569E-03     24.3065E-03
             780            1462     20.6169E-03     25.0486E-03
             780            1463     25.4519E-03     26.1545E-03
             781             252     20.8615E-03     18.8896E-03
             781             253     29.8598E-03     30.2134E-03
             781            1463     25.4519E-03     26.1545E-03
             781            1464     19.4807E-03     16.7799E-03
             782             251     11.1574E-03     12.6493E-03
             782             252     20.8615E-03     18.8896E-03
             782            1464     19.4807E-03     16.7799E-03
             782            1465     10.3932E-03     11.9220E-03
             783             250     9.70435E-03     12.0708E-03
             783             251     11.1574E-03     12.6493E-03
             783            1465     10.3932E-03     11.9220E-03
             783            1466     8.98413E-03     10.6167E-03
             784              15     5.39610E-03     8.16503E-03
             784             249     4.77991E-03     6.60281E-03
             784             250     9.70435E-03     12.0708E-03
             784            1466     8.98413E-03     10.6167E-03
            1757               2     17.2809E-03     17.1802E-03
            1757              31     972.131E-06     954.554E-06
            1757             423     16.2320E-03     16.1333E-03
            1757            2351     948.820E-06     932.450E-06
            1758              30     981.220E-06     967.898E-06
            1758              31     972.131E-06     954.554E-06
            1758            2351     948.820E-06     932.450E-06
            1758            2352     954.547E-06     940.972E-06
            1759              29     967.701E-06     961.468E-06
            1759              30     981.220E-06     967.898E-06
            1759            2352     954.547E-06     940.972E-06
            1759            2353     942.261E-06     936.124E-06
            1760               1     959.525E-06     954.172E-06
            1760              29     967.701E-06     961.468E-06
            1760             412     937.169E-06     930.208E-06
            1760            2353     942.261E-06     936.124E-06
            1761             422     14.2998E-03     14.2171E-03
            1761             423     16.2320E-03     16.1333E-03
            1761            2351     948.820E-06     932.450E-06
            1761            2354     875.229E-06     865.219E-06
            1762            2351     948.820E-06     932.450E-06
            1762            2352     954.547E-06     940.972E-06
            1762            2354     875.229E-06     865.219E-06
            1762            2355     881.947E-06     866.775E-06
            1763            2352     954.547E-06     940.972E-06
            1763            2353     942.261E-06     936.124E-06
            1763            2355     881.947E-06     866.775E-06
            1763            2356     863.268E-06     858.550E-06
            1764             412     937.169E-06     930.208E-06
            1764             413     855.693E-06     847.351E-06
            1764            2353     942.261E-06     936.124E-06
            1764            2356     863.268E-06     858.550E-06
            1765             421     11.5644E-03     11.5413E-03
            1765             422     14.2998E-03     14.2171E-03
            1765            2354     875.229E-06     865.219E-06
            1765            2357     766.296E-06     761.861E-06
            1766            2354     875.229E-06     865.219E-06
            1766            2355     881.947E-06     866.775E-06
            1766            2357     766.296E-06     761.861E-06
            1766            2358     765.812E-06     744.024E-06
            1767            2355     881.947E-06     866.775E-06
            1767            2356     863.268E-06     858.550E-06
            1767            2358     765.812E-06     744.024E-06
            1767            2359     737.197E-06     735.070E-06
            1768             413     855.693E-06     847.351E-06
            1768             414     732.260E-06     722.452E-06
            1768            2356     863.268E-06     858.550E-06
            1768            2359     737.197E-06     735.070E-06
            1769             420     8.02957E-03     8.25938E-03
            1769             421     11.5644E-03     11.5413E-03
            1769            2357     766.296E-06     761.861E-06
            1769            2360     622.556E-06     628.048E-06
            1770            2357     766.296E-06     761.861E-06
            1770            2358     765.812E-06     744.024E-06
            1770            2360     622.556E-06     628.048E-06
            1770            2361     615.380E-06     594.206E-06
            1771            2358     765.812E-06     744.024E-06
            1771            2359     737.197E-06     735.070E-06
            1771            2361     615.380E-06     594.206E-06
            1771            2362     566.707E-06     578.147E-06
            1772             414     732.260E-06     722.452E-06
            1772             415     559.539E-06     546.024E-06
            1772            2359     737.197E-06     735.070E-06
            1772            2362     566.707E-06     578.147E-06
            1773             419     4.30510E-03     5.16322E-03
            1773             420     8.02957E-03     8.25938E-03
            1773            2360     622.556E-06     628.048E-06
            1773            2363     474.731E-06     486.953E-06
            1774            2360     622.556E-06     628.048E-06
            1774            2361     615.380E-06     594.206E-06
            1774            2363     474.731E-06     486.953E-06
            1774            2364     454.108E-06     413.190E-06
            1775            2361     615.380E-06     594.206E-06
            1775            2362     566.707E-06     578.147E-06
            1775            2364     454.108E-06     413.190E-06
            1775            2365     361.985E-06     389.345E-06
            1776             415     559.539E-06     546.024E-06
            1776             416     364.182E-06     333.512E-06
            1776            2362     566.707E-06     578.147E-06
            1776            2365     361.985E-06     389.345E-06
            1777             418     3.87242E-03     5.68237E-03
            1777             419     4.30510E-03     5.16322E-03
            1777            2363     474.731E-06     486.953E-06
            1777            2366     520.211E-06     534.714E-06
            1778            2363     474.731E-06     486.953E-06
            1778            2364     454.108E-06     413.190E-06
            1778            2366     520.211E-06     534.714E-06
            1778            2367     400.847E-06     341.408E-06
            1779            2364     454.108E-06     413.190E-06
            1779            2365     361.985E-06     389.345E-06
            1779            2367     400.847E-06     341.408E-06
            1779            2368     245.695E-06     324.588E-06
            1780             416     364.182E-06     333.512E-06
            1780             417     253.097E-06     310.833E-06
            1780            2365     361.985E-06     389.345E-06
            1780            2368     245.695E-06     324.588E-06
            1781              17     5.17865E-03     7.52530E-03
            1781             306     628.428E-06     647.988E-06
            1781             418     3.87242E-03     5.68237E-03
            1781            2366     520.211E-06     534.714E-06
            1782             306     628.428E-06     647.988E-06
            1782             307     428.634E-06     376.302E-06
            1782            2366     520.211E-06     534.714E-06
            1782            2367     400.847E-06     341.408E-06
            1783             307     428.634E-06     376.302E-06
            1783             308     236.155E-06     362.961E-06
            1783            2367     400.847E-06     341.408E-06
            1783            2368     245.695E-06     324.588E-06
            1784              18     228.961E-06     390.242E-06
            1784             308     236.155E-06     362.961E-06
            1784             417     253.097E-06     310.833E-06
            1784            2368     245.695E-06     324.588E-06
            2343               7     71.3918E-03     71.9969E-03
            2343             155     105.270E-03     104.317E-03
            2343             530     83.1061E-03     80.8979E-03
            2343            2836     124.143E-03     122.524E-03
            2344             154     105.582E-03     105.639E-03
            2344             155     105.270E-03     104.317E-03
            2344            2836     124.143E-03     122.524E-03
            2344            2837     126.647E-03     128.773E-03
            2345             153     101.791E-03     105.664E-03
            2345             154     105.582E-03     105.639E-03
            2345            2837     126.647E-03     128.773E-03
            2345            2838     127.662E-03     129.250E-03
            2346             152     102.642E-03     106.513E-03
            2346             153     101.791E-03     105.664E-03
            2346            2838     127.662E-03     129.250E-03
            2346            2839     131.509E-03     134.997E-03
            2347             151     92.7508E-03     96.7016E-03
            2347             152     102.642E-03     106.513E-03
            2347            2839     131.509E-03     134.997E-03
            2347            2840     117.068E-03     120.827E-03
            2348               5     57.2580E-03     59.7974E-03
            2348             151     92.7508E-03     96.7016E-03
            2348             514     77.2364E-03     81.5751E-03
            2348            2840     117.068E-03     120.827E-03
            2349             529     105.917E-03     109.098E-03
            2349             530     83.1061E-03     80.8979E-03
            2349            2836     124.143E-03     122.524E-03
            2349            2841     152.579E-03     149.847E-03
            2350            2836     124.143E-03     122.524E-03
            2350            2837     126.647E-03     128.773E-03
            2350            2841     152.579E-03     149.847E-03
            2350            2842     157.294E-03     160.159E-03
            2351            2837     126.647E-03     128.773E-03
            2351            2838     127.662E-03     129.250E-03
            2351            2842     157.294E-03     160.159E-03
            2351            2843     162.578E-03     160.530E-03
            2352            2838     127.662E-03     129.250E-03
            2352            2839     131.509E-03     134.997E-03
            2352            2843     162.578E-03     160.530E-03
            2352            2844     165.056E-03     167.455E-03
            2353            2839     131.509E-03     134.997E-03
            2353            2840     117.068E-03     120.827E-03
            2353            2844     165.056E-03     167.455E-03
            2353            2845     141.577E-03     151.078E-03
            2354             514     77.2364E-03     81.5751E-03
            2354             515     101.979E-03     110.761E-03
            2354            2840     117.068E-03     120.827E-03
            2354            2845     141.577E-03     151.078E-03
            2355             528     132.815E-03     142.361E-03
            2355             529     105.917E-03     109.098E-03
            2355            2841     152.579E-03     149.847E-03
            2355            2846     185.766E-03     179.891E-03
            2356            2841     152.579E-03     149.847E-03
            2356            2842     157.294E-03     160.159E-03
            2356            2846     185.766E-03     179.891E-03
            2356            2847     191.324E-03     191.985E-03
            2357            2842     157.294E-03     160.159E-03
            2357            2843     162.578E-03     160.530E-03
            2357            2847     191.324E-03     191.985E-03
            2357            2848     195.031E-03     192.584E-03
            2358            2843     162.578E-03     160.530E-03
            2358            2844     165.056E-03     167.455E-03
            2358            2848     195.031E-03     192.584E-03
            2358            2849     192.503E-03     194.727E-03
            2359            2844     165.056E-03     167.455E-03
            2359            2845     141.577E-03     151.078E-03
            2359            2849     192.503E-03     194.727E-03
            2359            2850     164.618E-03     177.092E-03
            2360             515     101.979E-03     110.761E-03
            2360             516     128.004E-03     141.847E-03
            2360            2845     141.577E-03     151.078E-03
            2360            2850     164.618E-03     177.092E-03
            2361             527     155.917E-03     175.783E-03
            2361             528     132.815E-03     142.361E-03
            2361            2846     185.766E-03     179.891E-03
            2361            2851     214.324E-03     204.379E-03
            2362            2846     185.766E-03     179.891E-03
            2362            2847     191.324E-03     191.985E-03
            2362            2851     214.324E-03     204.379E-03
            2362            2852     219.981E-03     215.960E-03
            2363            2847     191.324E-03     191.985E-03
            2363            2848     195.031E-03     192.584E-03
            2363            2852     219.981E-03     215.960E-03
            2363            2853     220.673E-03     218.078E-03
            2364            2848     195.031E-03     192.584E-03
            2364            2849     192.503E-03     194.727E-03
            2364            2853     220.673E-03     218.078E-03
            2364            2854     216.058E-03     220.098E-03
            2365            2849     192.503E-03     194.727E-03
            2365            2850     164.618E-03     177.092E-03
            2365            2854     216.058E-03     220.098E-03
            2365            2855     184.958E-03     202.084E-03
            2366             516     128.004E-03     141.847E-03
            2366             517     149.903E-03     170.684E-03
            2366            2850     164.618E-03     177.092E-03
            2366            2855     184.958E-03     202.084E-03
            2367             526     168.066E-03     203.464E-03
            2367             527     155.917E-03     175.783E-03
            2367            2851     214.324E-03     204.379E-03
            2367            2856     227.527E-03     221.719E-03
            2368            2851     214.324E-03     204.379E-03
            2368            2852     219.981E-03     215.960E-03
            2368            2856     227.527E-03     221.719E-03
            2368            2857     234.848E-03     232.438E-03
            2369            2852     219.981E-03     215.960E-03
            2369            2853     220.673E-03     218.078E-03
            2369            2857     234.848E-03     232.438E-03
            2369            2858     239.626E-03     238.537E-03
            2370            2853     220.673E-03     218.078E-03
            2370            2854     216.058E-03     220.098E-03
            2370            2858     239.626E-03     238.537E-03
            2370            2859     241.860E-03     242.237E-03
            2371            2854     216.058E-03     220.098E-03
            2371            2855     184.958E-03     202.084E-03
            2371            2859     241.860E-03     242.237E-03
            2371            2860     204.532E-03     222.043E-03
            2372             517     149.903E-03     170.684E-03
            2372             518     166.107E-03     191.523E-03
            2372            2855     184.958E-03     202.084E-03
            2372            2860     204.532E-03     222.043E-03
            2373             525     179.240E-03     217.989E-03
            2373             526     168.066E-03     203.464E-03
            2373            2856     227.527E-03     221.719E-03
            2373            2861     226.246E-03     229.274E-03
            2374            2856     227.527E-03     221.719E-03
            2374            2857     234.848E-03     232.438E-03
            2374            2861     226.246E-03     229.274E-03
            2374            2862     237.646E-03     237.102E-03
            2375            2857     234.848E-03     232.438E-03
            2375            2858     239.626E-03     238.537E-03
            2375            2862     237.646E-03     237.102E-03
            2375            2863     250.477E-03     248.008E-03
            2376            2858     239.626E-03     238.537E-03
            2376            2859     241.860E-03     242.237E-03
            2376            2863     250.477E-03     248.008E-03
            2376            2864     262.417E-03     253.717E-03
            2377            2859     241.860E-03     242.237E-03
            2377            2860     204.532E-03     222.043E-03
            2377            2864     262.417E-03     253.717E-03
            2377            2865     220.543E-03     229.813E-03
            2378             518     166.107E-03     191.523E-03
            2378             519     181.104E-03     200.879E-03
            2378            2860     204.532E-03     222.043E-03
            2378            2865     220.543E-03     229.813E-03
            2379              22     187.296E-03     221.041E-03
            2379             524     222.894E-03     229.116E-03
            2379             525     179.240E-03     217.989E-03
            2379            2861     226.246E-03     229.274E-03
            2380             523     237.255E-03     234.369E-03
            2380             524     222.894E-03     229.116E-03
            2380            2861     226.246E-03     229.274E-03
            2380            2862     237.646E-03     237.102E-03
            2381             522     253.682E-03     247.856E-03
            2381             523     237.255E-03     234.369E-03
            2381            2862     237.646E-03     237.102E-03
            2381            2863     250.477E-03     248.008E-03
            2382             521     268.891E-03     256.131E-03
            2382             522     253.682E-03     247.856E-03
            2382            2863     250.477E-03     248.008E-03
            2382            2864     262.417E-03     253.717E-03
            2383             520     226.509E-03     230.388E-03
            2383             521     268.891E-03     256.131E-03
            2383            2864     262.417E-03     253.717E-03
            2383            2865     220.543E-03     229.813E-03
            2384              21     189.595E-03     203.139E-03
            2384             519     181.104E-03     200.879E-03
            2384             520     226.509E-03     230.388E-03
            2384            2865     220.543E-03     229.813E-03
            3501               5     57.2580E-03     59.7974E-03
            3501              95     36.4152E-03     34.6216E-03
            3501             514     77.2364E-03     81.5751E-03
            3501            3869     63.3060E-03     60.7793E-03
            3502              94     37.2282E-03     37.3188E-03
            3502              95     36.4152E-03     34.6216E-03
            3502            3869     63.3060E-03     60.7793E-03
            3502            3870     66.0583E-03     63.0584E-03
            3503              93     34.7901E-03     37.4869E-03
            3503              94     37.2282E-03     37.3188E-03
            3503            3870     66.0583E-03     63.0584E-03
            3503            3871     60.8498E-03     65.0127E-03
            3504              92     35.8867E-03     36.3781E-03
            3504              93     34.7901E-03     37.4869E-03
            3504            3871     60.8498E-03     65.0127E-03
            3504            3872     61.8908E-03     62.3325E-03
            3505              91     36.1467E-03     36.3250E-03
            3505              92     35.8867E-03     36.3781E-03
            3505            3872     61.8908E-03     62.3325E-03
            3505            3873     61.1539E-03     61.6409E-03
            3506              90     36.0077E-03     35.6790E-03
            3506              91     36.1467E-03     36.3250E-03
            3506            3873     61.1539E-03     61.6409E-03
            3506            3874     59.3977E-03     59.6853E-03
            3507              89     36.1391E-03     35.2630E-03
            3507              90     36.0077E-03     35.6790E-03
            3507            3874     59.3977E-03     59.6853E-03
            3507            3875     57.1055E-03     58.6421E-03
            3508              88     35.8379E-03     33.7621E-03
            3508              89     36.1391E-03     35.2630E-03
            3508            3875     57.1055E-03     58.6421E-03
            3508            3876     57.5731E-03     54.6981E-03
            3509              87     34.5405E-03     34.6071E-03
            3509              88     35.8379E-03     33.7621E-03
            3509            3876     57.5731E-03     54.6981E-03
            3509            3877     53.7459E-03     52.1440E-03
            3510              86     32.9361E-03     34.7241E-03
            3510              87     34.5405E-03     34.6071E-03
            3510            3877     53.7459E-03     52.1440E-03
            3510            3878     48.0439E-03     54.2804E-03
            3511              85     35.3663E-03     33.8285E-03
            3511              86     32.9361E-03     34.7241E-03
            3511            3878     48.0439E-03     54.2804E-03
            3511            3879     55.1943E-03     52.9418E-03
            3512              84     35.8691E-03     36.2320E-03
            3512              85     35.3663E-03     33.8285E-03
            3512            3879     55.1943E-03     52.9418E-03
            3512            3880     57.0906E-03     54.6770E-03
            3513              83     33.6937E-03     36.2156E-03
            3513              84     35.8691E-03     36.2320E-03
            3513            3880     57.0906E-03     54.6770E-03
            3513            3881     52.5078E-03     55.9290E-03
            3514              82     34.5153E-03     35.2076E-03
            3514              83     33.6937E-03     36.2156E-03
            3514            3881     52.5078E-03     55.9290E-03
            3514            3882     53.2675E-03     53.3222E-03
            3515              81     34.6067E-03     35.1406E-03
            3515              82     34.5153E-03     35.2076E-03
            3515            3882     53.2675E-03     53.3222E-03
            3515            3883     52.2966E-03     52.7756E-03
            3516              80     34.6115E-03     34.3292E-03
            3516              81     34.6067E-03     35.1406E-03
            3516            3883     52.2966E-03     52.7756E-03
            3516            3884     50.9130E-03     51.2429E-03
            3517              79     34.6701E-03     33.6552E-03
            3517              80     34.6115E-03     34.3292E-03
            3517            3884     50.9130E-03     51.2429E-03
            3517            3885     49.6619E-03     49.0968E-03
            3518              78     34.5154E-03     33.2633E-03
            3518              79     34.6701E-03     33.6552E-03
            3518            3885     49.6619E-03     49.0968E-03
            3518            3886     47.5414E-03     48.0870E-03
            3519              77     34.0947E-03     32.1727E-03
            3519              78     34.5154E-03     33.2633E-03
            3519            3886     47.5414E-03     48.0870E-03
            3519            3887     47.2166E-03     44.9509E-03
            3520              76     33.0643E-03     32.9387E-03
            3520              77     34.0947E-03     32.1727E-03
            3520            3887     47.2166E-03     44.9509E-03
            3520            3888     44.3805E-03     43.0936E-03
            3521              75     32.3617E-03     33.2429E-03
            3521              76     33.0643E-03     32.9387E-03
            3521            3888     44.3805E-03     43.0936E-03
            3521            3889     40.9306E-03     44.9665E-03
            3522              74     34.2990E-03     33.0058E-03
            3522              75     32.3617E-03     33.2429E-03
            3522            3889     40.9306E-03     44.9665E-03
            3522            3890     46.2852E-03     44.5302E-03
            3523              73     34.5437E-03     34.8920E-03
            3523              74     34.2990E-03     33.0058E-03
            3523            3890     46.2852E-03     44.5302E-03
            3523            3891     47.2872E-03     45.6493E-03
            3524              72     32.8806E-03     34.7118E-03
            3524              73     34.5437E-03     34.8920E-03
            3524            3891     47.2872E-03     45.6493E-03
            3524            3892     43.5900E-03     46.1141E-03
            3525              71     33.4367E-03     33.9248E-03
            3525              72     32.8806E-03     34.7118E-03
            3525            3892     43.5900E-03     46.1141E-03
            3525            3893     43.8492E-03     43.9025E-03
            3526              70     33.4820E-03     33.8077E-03
            3526              71     33.4367E-03     33.9248E-03
            3526            3893     43.8492E-03     43.9025E-03
            3526            3894     42.8805E-03     43.1597E-03
            3527              69     33.4647E-03     33.1702E-03
            3527              70     33.4820E-03     33.8077E-03
            3527            3894     42.8805E-03     43.1597E-03
            3527            3895     41.6037E-03     41.7699E-03
            3528              68     33.5124E-03     32.6977E-03
            3528              69     33.4647E-03     33.1702E-03
            3528            3895     41.6037E-03     41.7699E-03
            3528            3896     40.5236E-03     40.0572E-03
            3529              67     33.4465E-03     32.3720E-03
            3529              68     33.5124E-03     32.6977E-03
            3529            3896     40.5236E-03     40.0572E-03
            3529            3897     39.0442E-03     38.9595E-03
            3530              66     33.0662E-03     31.7308E-03
            3530              67     33.4465E-03     32.3720E-03
            3530            3897     39.0442E-03     38.9595E-03
            3530            3898     38.2419E-03     36.8868E-03
            3531              65     32.4422E-03     32.2621E-03
            3531              66     33.0662E-03     31.7308E-03
            3531            3898     38.2419E-03     36.8868E-03
            3531            3899     36.4786E-03     35.6993E-03
            3532              64     32.4870E-03     32.6540E-03
            3532              65     32.4422E-03     32.2621E-03
            3532            3899     36.4786E-03     35.6993E-03
            3532            3900     35.2190E-03     37.0907E-03
            3533              63     34.0019E-03     32.9858E-03
            3533              64     32.4870E-03     32.6540E-03
            3533            3900     35.2190E-03     37.0907E-03
            3533            3901     38.6406E-03     37.4304E-03
            3534              62     34.0746E-03     34.2748E-03
            3534              63     34.0019E-03     32.9858E-03
            3534            3901     38.6406E-03     37.4304E-03
            3534            3902     38.8775E-03     37.9342E-03
            3535              61     32.9880E-03     34.0267E-03
            3535              62     34.0746E-03     34.2748E-03
            3535            3902     38.8775E-03     37.9342E-03
            3535            3903     36.3182E-03     37.7761E-03
            3536              60     33.2997E-03     33.5105E-03
            3536              61     32.9880E-03     34.0267E-03
            3536            3903     36.3182E-03     37.7761E-03
            3536            3904     36.1870E-03     36.1800E-03
            3537              59     33.3068E-03     33.4084E-03
            3537              60     33.2997E-03     33.5105E-03
            3537            3904     36.1870E-03     36.1800E-03
            3537            3905     35.3797E-03     35.4608E-03
            3538              58     33.2899E-03     33.0300E-03
            3538              59     33.3068E-03     33.4084E-03
            3538            3905     35.3797E-03     35.4608E-03
            3538            3906     34.4399E-03     34.4686E-03
            3539              57     33.3323E-03     32.7822E-03
            3539              58     33.2899E-03     33.0300E-03
            3539            3906     34.4399E-03     34.4686E-03
            3539            3907     33.7420E-03     33.4175E-03
            3540              56     33.3029E-03     32.6339E-03
            3540              57     33.3323E-03     32.7822E-03
            3540            3907     33.7420E-03     33.4175E-03
            3540            3908     33.0198E-03     32.6264E-03
            3541              55     33.1746E-03     32.4201E-03
            3541              56     33.3029E-03     32.6339E-03
            3541            3908     33.0198E-03     32.6264E-03
            3541            3909     32.3366E-03     31.7663E-03
            3542              54     32.8923E-03     32.5478E-03
            3542              55     33.1746E-03     32.4201E-03
            3542            3909     32.3366E-03     31.7663E-03
            3542            3910     31.6745E-03     31.2633E-03
            3543              53     33.1131E-03     32.8438E-03
            3543              54     32.8923E-03     32.5478E-03
            3543            3910     31.6745E-03     31.2633E-03
            3543            3911     31.7128E-03     31.8376E-03
            3544              52     34.0346E-03     33.3271E-03
            3544              53     33.1131E-03     32.8438E-03
            3544            3911     31.7128E-03     31.8376E-03
            3544            3912     32.9186E-03     32.3969E-03
            3545              51     34.1467E-03     33.9122E-03
            3545              52     34.0346E-03     33.3271E-03
            3545            3912     32.9186E-03     32.3969E-03
            3545            3913     32.8625E-03     32.5030E-03
            3546              50     33.7348E-03     33.8021E-03
            3546              51     34.1467E-03     33.9122E-03
            3546            3913     32.8625E-03     32.5030E-03
            3546            3914     32.0346E-03     32.2320E-03
            3547              49     33.8333E-03     33.7268E-03
            3547              50     33.7348E-03     33.8021E-03
            3547            3914     32.0346E-03     32.2320E-03
            3547            3915     31.9804E-03     31.8004E-03
            3548              48     33.9429E-03     33.7734E-03
            3548              49     33.8333E-03     33.7268E-03
            3548            3915     31.9804E-03     31.8004E-03
            3548            3916     31.8907E-03     31.6911E-03
            3549              47     33.8113E-03     33.5395E-03
            3549              48     33.9429E-03     33.7734E-03
            3549            3916     31.8907E-03     31.6911E-03
            3549            3917     31.7078E-03     31.4734E-03
            3550               2     17.2809E-03     17.1802E-03
            3550              47     33.8113E-03     33.5395E-03
            3550             423     16.2320E-03     16.1333E-03
            3550            3917     31.7078E-03     31.4734E-03
            3551             514     77.2364E-03     81.5751E-03
            3551             515     101.979E-03     110.761E-03
            3551            3869     63.3060E-03     60.7793E-03
            3551            3918     96.2063E-03     92.3999E-03
            3552            3869     63.3060E-03     60.7793E-03
            3552            3870     66.0583E-03     63.0584E-03
            3552            3918     96.2063E-03     92.3999E-03
            3552            3919     101.053E-03     94.4666E-03
            3553            3870     66.0583E-03     63.0584E-03
            3553            3871     60.8498E-03     65.0127E-03
            3553            3919     101.053E-03     94.4666E-03
            3553            3920     92.3078E-03     97.6755E-03
            3554            3871     60.8498E-03     65.0127E-03
            3554            3872     61.8908E-03     62.3325E-03
            3554            3920     92.3078E-03     97.6755E-03
            3554            3921     93.0834E-03     92.4272E-03
            3555            3872     61.8908E-03     62.3325E-03
            3555            3873     61.1539E-03     61.6409E-03
            3555            3921     93.0834E-03     92.4272E-03
            3555            3922     91.5085E-03     91.0575E-03
            3556            3873     61.1539E-03     61.6409E-03
            3556            3874     59.3977E-03     59.6853E-03
            3556            3922     91.5085E-03     91.0575E-03
            3556            3923     88.2761E-03     88.3642E-03
            3557            3874     59.3977E-03     59.6853E-03
            3557            3875     57.1055E-03     58.6421E-03
            3557            3923     88.2761E-03     88.3642E-03
            3557            3924     84.0781E-03     87.7765E-03
            3558            3875     57.1055E-03     58.6421E-03
            3558            3876     57.5731E-03     54.6981E-03
            3558            3924     84.0781E-03     87.7765E-03
            3558            3925     85.8469E-03     81.5606E-03
            3559            3876     57.5731E-03     54.6981E-03
            3559            3877     53.7459E-03     52.1440E-03
            3559            3925     85.8469E-03     81.5606E-03
            3559            3926     79.3658E-03     76.3024E-03
            3560            3877     53.7459E-03     52.1440E-03
            3560            3878     48.0439E-03     54.2804E-03
            3560            3926     79.3658E-03     76.3024E-03
            3560            3927     68.9950E-03     80.8815E-03
            3561            3878     48.0439E-03     54.2804E-03
            3561            3879     55.1943E-03     52.9418E-03
            3561            3927     68.9950E-03     80.8815E-03
            3561            3928     81.2965E-03     78.0150E-03
            3562            3879     55.1943E-03     52.9418E-03
            3562            3880     57.0906E-03     54.6770E-03
            3562            3928     81.2965E-03     78.0150E-03
            3562            3929     84.8264E-03     79.1037E-03
            3563            3880     57.0906E-03     54.6770E-03
            3563            3881     52.5078E-03     55.9290E-03
            3563            3929     84.8264E-03     79.1037E-03
            3563            3930     76.8993E-03     81.2036E-03
            3564            3881     52.5078E-03     55.9290E-03
            3564            3882     53.2675E-03     53.3222E-03
            3564            3930     76.8993E-03     81.2036E-03
            3564            3931     77.2768E-03     75.9698E-03
            3565            3882     53.2675E-03     53.3222E-03
            3565            3883     52.2966E-03     52.7756E-03
            3565            3931     77.2768E-03     75.9698E-03
            3565            3932     74.9758E-03     74.7096E-03
            3566            3883     52.2966E-03     52.7756E-03
            3566            3884     50.9130E-03     51.2429E-03
            3566            3932     74.9758E-03     74.7096E-03
            3566            3933     72.2541E-03     72.5358E-03
            3567            3884     50.9130E-03     51.2429E-03
            3567            3885     49.6619E-03     49.0968E-03
            3567            3933     72.2541E-03     72.5358E-03
            3567            3934     69.9826E-03     69.4218E-03
            3568            3885     49.6619E-03     49.0968E-03
            3568            3886     47.5414E-03     48.0870E-03
            3568            3934     69.9826E-03     69.4218E-03
            3568            3935     65.9615E-03     68.6204E-03
            3569            3886     47.5414E-03     48.0870E-03
            3569            3887     47.2166E-03     44.9509E-03
            3569            3935     65.9615E-03     68.6204E-03
            3569            3936     66.3873E-03     63.4417E-03
            3570            3887     47.2166E-03     44.9509E-03
            3570            3888     44.3805E-03     43.0936E-03
            3570            3936     66.3873E-03     63.4417E-03
            3570            3937     61.4138E-03     59.1151E-03
            3571            3888     44.3805E-03     43.0936E-03
            3571            3889     40.9306E-03     44.9665E-03
            3571            3937     61.4138E-03     59.1151E-03
            3571            3938     54.3449E-03     62.8518E-03
            3572            3889     40.9306E-03     44.9665E-03
            3572            3890     46.2852E-03     44.5302E-03
            3572            3938     54.3449E-03     62.8518E-03
            3572            3939     63.6352E-03     61.1749E-03
            3573            3890     46.2852E-03     44.5302E-03
            3573            3891     47.2872E-03     45.6493E-03
            3573            3939     63.6352E-03     61.1749E-03
            3573            3940     65.7314E-03     61.3672E-03
            3574            3891     47.2872E-03     45.6493E-03
            3574            3892     43.5900E-03     46.1141E-03
            3574            3940     65.7314E-03     61.3672E-03
            3574            3941     59.0750E-03     62.2200E-03
            3575            3892     43.5900E-03     46.1141E-03
            3575            3893     43.8492E-03     43.9025E-03
            3575            3941     59.0750E-03     62.2200E-03
            3575            3942     58.6949E-03     57.6837E-03
            3576            3893     43.8492E-03     43.9025E-03
            3576            3894     42.8805E-03     43.1597E-03
            3576            3942     58.6949E-03     57.6837E-03
            3576            3943     56.3725E-03     56.1274E-03
            3577            3894     42.8805E-03     43.1597E-03
            3577            3895     41.6037E-03     41.7699E-03
            3577            3943     56.3725E-03     56.1274E-03
            3577            3944     53.6506E-03     53.9668E-03
            3578            3895     41.6037E-03     41.7699E-03
            3578            3896     40.5236E-03     40.0572E-03
            3578            3944     53.6506E-03     53.9668E-03
            3578            3945     51.4127E-03     51.1797E-03
            3579            3896     40.5236E-03     40.0572E-03
            3579            3897     39.0442E-03     38.9595E-03
            3579            3945     51.4127E-03     51.1797E-03
            3579            3946     48.1952E-03     49.6607E-03
            3580            3897     39.0442E-03     38.9595E-03
            3580            3898     38.2419E-03     36.8868E-03
            3580            3946     48.1952E-03     49.6607E-03
            3580            3947     47.2795E-03     45.8418E-03
            3581            3898     38.2419E-03     36.8868E-03
            3581            3899     36.4786E-03     35.6993E-03
            3581            3947     47.2795E-03     45.8418E-03
            3581            3948     43.9034E-03     42.5297E-03
            3582            3899     36.4786E-03     35.6993E-03
            3582            3900     35.2190E-03     37.0907E-03
            3582            3948     43.9034E-03     42.5297E-03
            3582            3949     40.4162E-03     45.1892E-03
            3583            3900     35.2190E-03     37.0907E-03
            3583            3901     38.6406E-03     37.4304E-03
            3583            3949     40.4162E-03     45.1892E-03
            3583            3950     46.3596E-03     44.8036E-03
            3584            3901     38.6406E-03     37.4304E-03
            3584            3902     38.8775E-03     37.9342E-03
            3584            3950     46.3596E-03     44.8036E-03
            3584            3951     47.0382E-03     44.1802E-03
            3585            3902     38.8775E-03     37.9342E-03
            3585            3903     36.3182E-03     37.7761E-03
            3585            3951     47.0382E-03     44.1802E-03
            3585            3952     42.0443E-03     43.8836E-03
            3586            3903     36.3182E-03     37.7761E-03
            3586            3904     36.1870E-03     36.1800E-03
            3586            3952     42.0443E-03     43.8836E-03
            3586            3953     41.0616E-03     40.4198E-03
            3587            3904     36.1870E-03     36.1800E-03
            3587            3905     35.3797E-03     35.4608E-03
            3587            3953     41.0616E-03     40.4198E-03
            3587            3954     39.0072E-03     38.8464E-03
            3588            3905     35.3797E-03     35.4608E-03
            3588            3906     34.4399E-03     34.4686E-03
            3588            3954     39.0072E-03     38.8464E-03
            3588            3955     36.6843E-03     37.0302E-03
            3589            3906     34.4399E-03     34.4686E-03
            3589            3907     33.7420E-03     33.4175E-03
            3589            3955     36.6843E-03     37.0302E-03
            3589            3956     34.8798E-03     34.9571E-03
            3590            3907     33.7420E-03     33.4175E-03
            3590            3908     33.0198E-03     32.6264E-03
            3590            3956     34.8798E-03     34.9571E-03
            3590            3957     32.8973E-03     33.2403E-03
            3591            3908     33.0198E-03     32.6264E-03
            3591            3909     32.3366E-03     31.7663E-03
            3591            3957     32.8973E-03     33.2403E-03
            3591            3958     31.3858E-03     31.2714E-03
            3592            3909     32.3366E-03     31.7663E-03
            3592            3910     31.6745E-03     31.2633E-03
            3592            3958     31.3858E-03     31.2714E-03
            3592            3959     29.9529E-03     29.5249E-03
            3593            3910     31.6745E-03     31.2633E-03
            3593            3911     31.7128E-03     31.8376E-03
            3593            3959     29.9529E-03     29.5249E-03
            3593            3960     29.4386E-03     30.3805E-03
            3594            3911     31.7128E-03     31.8376E-03
            3594            3912     32.9186E-03     32.3969E-03
            3594            3960     29.4386E-03     30.3805E-03
            3594            3961     31.2026E-03     30.8344E-03
            3595            3912     32.9186E-03     32.3969E-03
            3595            3913     32.8625E-03     32.5030E-03
            3595            3961     31.2026E-03     30.8344E-03
            3595            3962     30.9726E-03     30.2265E-03
            3596            3913     32.8625E-03     32.5030E-03
            3596            3914     32.0346E-03     32.2320E-03
            3596            3962     30.9726E-03     30.2265E-03
            3596            3963     29.0942E-03     29.5928E-03
            3597            3914     32.0346E-03     32.2320E-03
            3597            3915     31.9804E-03     31.8004E-03
            3597            3963     29.0942E-03     29.5928E-03
            3597            3964     28.6028E-03     28.4197E-03
            3598            3915     31.9804E-03     31.8004E-03
            3598            3916     31.8907E-03     31.6911E-03
            3598            3964     28.6028E-03     28.4197E-03
            3598            3965     28.2323E-03     28.0684E-03
            3599            3916     31.8907E-03     31.6911E-03
            3599            3917     31.7078E-03     31.4734E-03
            3599            3965     28.2323E-03     28.0684E-03
            3599            3966     27.9039E-03     27.7375E-03
            3600             422     14.2998E-03     14.2171E-03
            3600             423     16.2320E-03     16.1333E-03
            3600            3917     31.7078E-03     31.4734E-03
            3600            3966     27.9039E-03     27.7375E-03
            3601             515     101.979E-03     110.761E-03
            3601             516     128.004E-03     141.847E-03
            3601            3918     96.2063E-03     92.3999E-03
            3601            3967     128.278E-03     123.991E-03
            3602            3918     96.2063E-03     92.3999E-03
            3602            3919     101.053E-03     94.4666E-03
            3602            3967     128.278E-03     123.991E-03
            3602            3968     134.046E-03     123.524E-03
            3603            3919     101.053E-03     94.4666E-03
            3603            3920     92.3078E-03     97.6755E-03
            3603            3968     134.046E-03     123.524E-03
            3603            3969     119.817E-03     126.015E-03
            3604            3920     92.3078E-03     97.6755E-03
            3604            3921     93.0834E-03     92.4272E-03
            3604            3969     119.817E-03     126.015E-03
            3604            3970     119.536E-03     117.591E-03
            3605            3921     93.0834E-03     92.4272E-03
            3605            3922     91.5085E-03     91.0575E-03
            3605            3970     119.536E-03     117.591E-03
            3605            3971     117.209E-03     115.494E-03
            3606            3922     91.5085E-03     91.0575E-03
            3606            3923     88.2761E-03     88.3642E-03
            3606            3971     117.209E-03     115.494E-03
            3606            3972     113.437E-03     112.650E-03
            3607            3923     88.2761E-03     88.3642E-03
            3607            3924     84.0781E-03     87.7765E-03
            3607            3972     113.437E-03     112.650E-03
            3607            3973     108.870E-03     113.900E-03
            3608            3924     84.0781E-03     87.7765E-03
            3608            3925     85.8469E-03     81.5606E-03
            3608            3973     108.870E-03     113.900E-03
            3608            3974     113.840E-03     107.545E-03
            3609            3925     85.8469E-03     81.5606E-03
            3609            3926     79.3658E-03     76.3024E-03
            3609            3974     113.840E-03     107.545E-03
            3609            3975     105.763E-03     102.400E-03
            3610            3926     79.3658E-03     76.3024E-03
            3610            3927     68.9950E-03     80.8815E-03
            3610            3975     105.763E-03     102.400E-03
            3610            3976     90.3534E-03     109.936E-03
            3611            3927     68.9950E-03     80.8815E-03
            3611            3928     81.2965E-03     78.0150E-03
            3611            3976     90.3534E-03     109.936E-03
            3611            3977     107.482E-03     103.927E-03
            3612            3928     81.2965E-03     78.0150E-03
            3612            3929     84.8264E-03     79.1037E-03
            3612            3977     107.482E-03     103.927E-03
            3612            3978     111.602E-03     102.670E-03
            3613            3929     84.8264E-03     79.1037E-03
            3613            3930     76.8993E-03     81.2036E-03
            3613            3978     111.602E-03     102.670E-03
            3613            3979     98.7475E-03     104.092E-03
            3614            3930     76.8993E-03     81.2036E-03
            3614            3931     77.2768E-03     75.9698E-03
            3614            3979     98.7475E-03     104.092E-03
            3614            3980     98.0185E-03     95.7544E-03
            3615            3931     77.2768E-03     75.9698E-03
            3615            3932     74.9758E-03     74.7096E-03
            3615            3980     98.0185E-03     95.7544E-03
            3615            3981     94.3826E-03     93.6749E-03
            3616            3932     74.9758E-03     74.7096E-03
            3616            3933     72.2541E-03     72.5358E-03
            3616            3981     94.3826E-03     93.6749E-03
            3616            3982     90.8984E-03     90.9164E-03
            3617            3933     72.2541E-03     72.5358E-03
            3617            3934     69.9826E-03     69.4218E-03
            3617            3982     90.8984E-03     90.9164E-03
            3617            3983     88.5066E-03     87.4040E-03
            3618            3934     69.9826E-03     69.4218E-03
            3618            3935     65.9615E-03     68.6204E-03
            3618            3983     88.5066E-03     87.4040E-03
            3618            3984     84.0005E-03     88.1161E-03
            3619            3935     65.9615E-03     68.6204E-03
            3619            3936     66.3873E-03     63.4417E-03
            3619            3984     84.0005E-03     88.1161E-03
            3619            3985     86.6660E-03     82.6225E-03
            3620            3936     66.3873E-03     63.4417E-03
            3620            3937     61.4138E-03     59.1151E-03
            3620            3985     86.6660E-03     82.6225E-03
            3620            3986     80.3557E-03     77.9324E-03
            3621            3937     61.4138E-03     59.1151E-03
            3621            3938     54.3449E-03     62.8518E-03
            3621            3986     80.3557E-03     77.9324E-03
            3621            3987     69.1075E-03     83.7044E-03
            3622            3938     54.3449E-03     62.8518E-03
            3622            3939     63.6352E-03     61.1749E-03
            3622            3987     69.1075E-03     83.7044E-03
            3622            3988     81.9076E-03     79.2415E-03
            3623            3939     63.6352E-03     61.1749E-03
            3623            3940     65.7314E-03     61.3672E-03
            3623            3988     81.9076E-03     79.2415E-03
            3623            3989     84.3290E-03     77.2987E-03
            3624            3940     65.7314E-03     61.3672E-03
            3624            3941     59.0750E-03     62.2200E-03
            3624            3989     84.3290E-03     77.2987E-03
            3624            3990     73.6013E-03     77.5390E-03
            3625            3941     59.0750E-03     62.2200E-03
            3625            3942     58.6949E-03     57.6837E-03
            3625            3990     73.6013E-03     77.5390E-03
            3625            3991     72.1720E-03     70.4377E-03
            3626            3942     58.6949E-03     57.6837E-03
            3626            3943     56.3725E-03     56.1274E-03
            3626            3991     72.1720E-03     70.4377E-03
            3626            3992     68.6061E-03     68.0203E-03
            3627            3943     56.3725E-03     56.1274E-03
            3627            3944     53.6506E-03     53.9668E-03
            3627            3992     68.6061E-03     68.0203E-03
            3627            3993     64.9755E-03     65.1539E-03
            3628            3944     53.6506E-03     53.9668E-03
            3628            3945     51.4127E-03     51.1797E-03
            3628            3993     64.9755E-03     65.1539E-03
            3628            3994     62.2635E-03     61.7614E-03
            3629            3945     51.4127E-03     51.1797E-03
            3629            3946     48.1952E-03     49.6607E-03
            3629            3994     62.2635E-03     61.7614E-03
            3629            3995     58.2589E-03     60.8962E-03
            3630            3946     48.1952E-03     49.6607E-03
            3630            3947     47.2795E-03     45.8418E-03
            3630            3995     58.2589E-03     60.8962E-03
            3630            3996     58.2725E-03     56.4681E-03
            3631            3947     47.2795E-03     45.8418E-03
            3631            3948     43.9034E-03     42.5297E-03
            3631            3996     58.2725E-03     56.4681E-03
            3631            3997     53.6631E-03     52.2541E-03
            3632            3948     43.9034E-03     42.5297E-03
            3632            3949     40.4162E-03     45.1892E-03
            3632            3997     53.6631E-03     52.2541E-03
            3632            3998     47.1967E-03     56.1390E-03
            3633            3949     40.4162E-03     45.1892E-03
            3633            3950     46.3596E-03     44.8036E-03
            3633            3998     47.1967E-03     56.1390E-03
            3633            3999     55.4391E-03     53.7692E-03
            3634            3950     46.3596E-03     44.8036E-03
            3634            3951     47.0382E-03     44.1802E-03
            3634            3999     55.4391E-03     53.7692E-03
            3634            4000     56.0928E-03     51.2264E-03
            3635            3951     47.0382E-03     44.1802E-03
            3635            3952     42.0443E-03     43.8836E-03
            3635            4000     56.0928E-03     51.2264E-03
            3635            4001     47.9064E-03     50.3354E-03
            3636            3952     42.0443E-03     43.8836E-03
            3636            3953     41.0616E-03     40.4198E-03
            3636            4001     47.9064E-03     50.3354E-03
            3636            4002     45.9105E-03     44.8307E-03
            3637            3953     41.0616E-03     40.4198E-03
            3637            3954     39.0072E-03     38.8464E-03
            3637            4002     45.9105E-03     44.8307E-03
            3637            4003     42.6743E-03     42.2770E-03
            3638            3954     39.0072E-03     38.8464E-03
            3638            3955     36.6843E-03     37.0302E-03
            3638            4003     42.6743E-03     42.2770E-03
            3638            4004     39.2130E-03     39.5606E-03
            3639            3955     36.6843E-03     37.0302E-03
            3639            3956     34.8798E-03     34.9571E-03
            3639            4004     39.2130E-03     39.5606E-03
            3639            4005     36.4855E-03     36.6125E-03
            3640            3956     34.8798E-03     34.9571E-03
            3640            3957     32.8973E-03     33.2403E-03
            3640            4005     36.4855E-03     36.6125E-03
            3640            4006     33.3970E-03     34.4890E-03
            3641            3957     32.8973E-03     33.2403E-03
            3641            3958     31.3858E-03     31.2714E-03
            3641            4006     33.3970E-03     34.4890E-03
            3641            4007     31.1889E-03     31.6202E-03
            3642            3958     31.3858E-03     31.2714E-03
            3642            3959     29.9529E-03     29.5249E-03
            3642            4007     31.1889E-03     31.6202E-03
            3642            4008     28.8109E-03     28.5741E-03
            3643            3959     29.9529E-03     29.5249E-03
            3643            3960     29.4386E-03     30.3805E-03
            3643            4008     28.8109E-03     28.5741E-03
            3643            4009     27.0416E-03     29.4327E-03
            3644            3960     29.4386E-03     30.3805E-03
            3644            3961     31.2026E-03     30.8344E-03
            3644            4009     27.0416E-03     29.4327E-03
            3644            4010     29.3938E-03     28.8931E-03
            3645            3961     31.2026E-03     30.8344E-03
            3645            3962     30.9726E-03     30.2265E-03
            3645            4010     29.3938E-03     28.8931E-03
            3645            4011     28.7244E-03     26.9657E-03
            3646            3962     30.9726E-03     30.2265E-03
            3646            3963     29.0942E-03     29.5928E-03
            3646            4011     28.7244E-03     26.9657E-03
            3646            4012     25.1304E-03     26.0771E-03
            3647            3963     29.0942E-03     29.5928E-03
            3647            3964     28.6028E-03     28.4197E-03
            3647            4012     25.1304E-03     26.0771E-03
            3647            4013     23.9509E-03     24.0523E-03
            3648            3964     28.6028E-03     28.4197E-03
            3648            3965     28.2323E-03     28.0684E-03
            3648            4013     23.9509E-03     24.0523E-03
            3648            4014     23.0048E-03     23.1403E-03
            3649            3965     28.2323E-03     28.0684E-03
            3649            3966     27.9039E-03     27.7375E-03
            3649            4014     23.0048E-03     23.1403E-03
            3649            4015     22.5086E-03     22.5800E-03
            3650             421     11.5644E-03     11.5413E-03
            3650             422     14.2998E-03     14.2171E-03
            3650            3966     27.9039E-03     27.7375E-03
            3650            4015     22.5086E-03     22.5800E-03
            3651             516     128.004E-03     141.847E-03
            3651             517     149.903E-03     170.684E-03
            3651            3967     128.278E-03     123.991E-03
            3651            4016     155.943E-03     152.788E-03
            3652            3967     128.278E-03     123.991E-03
            3652            3968     134.046E-03     123.524E-03
            3652            4016     155.943E-03     152.788E-03
            3652            4017     160.685E-03     147.266E-03
            3653            3968     134.046E-03     123.524E-03
            3653            3969     119.817E-03     126.015E-03
            3653            4017     160.685E-03     147.266E-03
            3653            4018     139.970E-03     149.725E-03
            3654            3969     119.817E-03     126.015E-03
            3654            3970     119.536E-03     117.591E-03
            3654            4018     139.970E-03     149.725E-03
            3654            4019     138.789E-03     138.403E-03
            3655            3970     119.536E-03     117.591E-03
            3655            3971     117.209E-03     115.494E-03
            3655            4019     138.789E-03     138.403E-03
            3655            4020     135.887E-03     135.796E-03
            3656            3971     117.209E-03     115.494E-03
            3656            3972     113.437E-03     112.650E-03
            3656            4020     135.887E-03     135.796E-03
            3656            4021     131.644E-03     132.069E-03
            3657            3972     113.437E-03     112.650E-03
            3657            3973     108.870E-03     113.900E-03
            3657            4021     131.644E-03     132.069E-03
            3657            4022     127.219E-03     134.733E-03
            3658            3973     108.870E-03     113.900E-03
            3658            3974     113.840E-03     107.545E-03
            3658            4022     127.219E-03     134.733E-03
            3658            4023     137.111E-03     128.586E-03
            3659            3974     113.840E-03     107.545E-03
            3659            3975     105.763E-03     102.400E-03
            3659            4023     137.111E-03     128.586E-03
            3659            4024     129.385E-03     126.983E-03
            3660            3975     105.763E-03     102.400E-03
            3660            3976     90.3534E-03     109.936E-03
            3660            4024     129.385E-03     126.983E-03
            3660            4025     109.364E-03     140.024E-03
            3661            3976     90.3534E-03     109.936E-03
            3661            3977     107.482E-03     103.927E-03
            3661            4025     109.364E-03     140.024E-03
            3661            4026     130.246E-03     127.669E-03
            3662            3977     107.482E-03     103.927E-03
            3662            3978     111.602E-03     102.670E-03
            3662            4026     130.246E-03     127.669E-03
            3662            4027     133.459E-03     122.215E-03
            3663            3978     111.602E-03     102.670E-03
            3663            3979     98.7475E-03     104.092E-03
            3663            4027     133.459E-03     122.215E-03
            3663            4028     115.091E-03     123.824E-03
            3664            3979     98.7475E-03     104.092E-03
            3664            3980     98.0185E-03     95.7544E-03
            3664            4028     115.091E-03     123.824E-03
            3664            4029     113.674E-03     112.742E-03
            3665            3980     98.0185E-03     95.7544E-03
            3665            3981     94.3826E-03     93.6749E-03
            3665            4029     113.674E-03     112.742E-03
            3665            4030     108.881E-03     110.088E-03
            3666            3981     94.3826E-03     93.6749E-03
            3666            3982     90.8984E-03     90.9164E-03
            3666            4030     108.881E-03     110.088E-03
            3666            4031     104.662E-03     106.533E-03
            3667            3982     90.8984E-03     90.9164E-03
            3667            3983     88.5066E-03     87.4040E-03
            3667            4031     104.662E-03     106.533E-03
            3667            4032     102.410E-03     101.935E-03
            3668            3983     88.5066E-03     87.4040E-03
            3668            3984     84.0005E-03     88.1161E-03
            3668            4032     102.410E-03     101.935E-03
            3668            4033     97.6919E-03     103.867E-03
            3669            3984     84.0005E-03     88.1161E-03
            3669            3985     86.6660E-03     82.6225E-03
            3669            4033     97.6919E-03     103.867E-03
            3669            4034     104.034E-03     98.3874E-03
            3670            3985     86.6660E-03     82.6225E-03
            3670            3986     80.3557E-03     77.9324E-03
            3670            4034     104.034E-03     98.3874E-03
            3670            4035     97.9335E-03     96.2417E-03
            3671            3986     80.3557E-03     77.9324E-03
            3671            3987     69.1075E-03     83.7044E-03
            3671            4035     97.9335E-03     96.2417E-03
            3671            4036     82.6875E-03     105.844E-03
            3672            3987     69.1075E-03     83.7044E-03
            3672            3988     81.9076E-03     79.2415E-03
            3672            4036     82.6875E-03     105.844E-03
            3672            4037     98.1074E-03     96.1868E-03
            3673            3988     81.9076E-03     79.2415E-03
            3673            3989     84.3290E-03     77.2987E-03
            3673            4037     98.1074E-03     96.1868E-03
            3673            4038     99.8029E-03     90.9641E-03
            3674            3989     84.3290E-03     77.2987E-03
            3674            3990     73.6013E-03     77.5390E-03
            3674            4038     99.8029E-03     90.9641E-03
            3674            4039     84.7473E-03     91.3661E-03
            3675            3990     73.6013E-03     77.5390E-03
            3675            3991     72.1720E-03     70.4377E-03
            3675            4039     84.7473E-03     91.3661E-03
            3675            4040     82.6420E-03     81.9172E-03
            3676            3991     72.1720E-03     70.4377E-03
            3676            3992     68.6061E-03     68.0203E-03
            3676            4040     82.6420E-03     81.9172E-03
            3676            4041     78.0056E-03     78.7194E-03
            3677            3992     68.6061E-03     68.0203E-03
            3677            3993     64.9755E-03     65.1539E-03
            3677            4041     78.0056E-03     78.7194E-03
            3677            4042     73.5159E-03     74.9366E-03
            3678            3993     64.9755E-03     65.1539E-03
            3678            3994     62.2635E-03     61.7614E-03
            3678            4042     73.5159E-03     74.9366E-03
            3678            4043     70.6591E-03     70.4228E-03
            3679            3994     62.2635E-03     61.7614E-03
            3679            3995     58.2589E-03     60.8962E-03
            3679            4043     70.6591E-03     70.4228E-03
            3679            4044     66.2447E-03     70.1278E-03
            3680            3995     58.2589E-03     60.8962E-03
            3680            3996     58.2725E-03     56.4681E-03
            3680            4044     66.2447E-03     70.1278E-03
            3680            4045     68.4494E-03     65.6454E-03
            3681            3996     58.2725E-03     56.4681E-03
            3681            3997     53.6631E-03     52.2541E-03
            3681            4045     68.4494E-03     65.6454E-03
            3681            4046     63.7202E-03     62.7970E-03
            3682            3997     53.6631E-03     52.2541E-03
            3682            3998     47.1967E-03     56.1390E-03
            3682            4046     63.7202E-03     62.7970E-03
            3682            4047     54.2009E-03     68.9208E-03
            3683            3998     47.1967E-03     56.1390E-03
            3683            3999     55.4391E-03     53.7692E-03
            3683            4047     54.2009E-03     68.9208E-03
            3683            4048     63.9977E-03     62.8288E-03
            3684            3999     55.4391E-03     53.7692E-03
            3684            4000     56.0928E-03     51.2264E-03
            3684            4048     63.9977E-03     62.8288E-03
            3684            4049     64.1035E-03     57.9513E-03
            3685            4000     56.0928E-03     51.2264E-03
            3685            4001     47.9064E-03     50.3354E-03
            3685            4049     64.1035E-03     57.9513E-03
            3685            4050     52.7693E-03     57.1164E-03
            3686            4001     47.9064E-03     50.3354E-03
            3686            4002     45.9105E-03     44.8307E-03
            3686            4050     52.7693E-03     57.1164E-03
            3686            4051     50.0364E-03     49.5513E-03
            3687            4002     45.9105E-03     44.8307E-03
            3687            4003     42.6743E-03     42.2770E-03
            3687            4051     50.0364E-03     49.5513E-03
            3687            4052     45.7115E-03     45.8888E-03
            3688            4003     42.6743E-03     42.2770E-03
            3688            4004     39.2130E-03     39.5606E-03
            3688            4052     45.7115E-03     45.8888E-03
            3688            4053     41.1196E-03     42.0189E-03
            3689            4004     39.2130E-03     39.5606E-03
            3689            4005     36.4855E-03     36.6125E-03
            3689            4053     41.1196E-03     42.0189E-03
            3689            4054     37.8002E-03     37.8117E-03
            3690            4005     36.4855E-03     36.6125E-03
            3690            4006     33.3970E-03     34.4890E-03
            3690            4054     37.8002E-03     37.8117E-03
            3690            4055     33.9189E-03     35.4014E-03
            3691            4006     33.3970E-03     34.4890E-03
            3691            4007     31.1889E-03     31.6202E-03
            3691            4055     33.9189E-03     35.4014E-03
            3691            4056     31.9599E-03     32.2459E-03
            3692            4007     31.1889E-03     31.6202E-03
            3692            4008     28.8109E-03     28.5741E-03
            3692            4056     31.9599E-03     32.2459E-03
            3692            4057     28.9776E-03     29.0242E-03
            3693            4008     28.8109E-03     28.5741E-03
            3693            4009     27.0416E-03     29.4327E-03
            3693            4057     28.9776E-03     29.0242E-03
            3693            4058     25.0453E-03     30.1491E-03
            3694            4009     27.0416E-03     29.4327E-03
            3694            4010     29.3938E-03     28.8931E-03
            3694            4058     25.0453E-03     30.1491E-03
            3694            4059     27.5104E-03     27.1747E-03
            3695            4010     29.3938E-03     28.8931E-03
            3695            4011     28.7244E-03     26.9657E-03
            3695            4059     27.5104E-03     27.1747E-03
            3695            4060     26.2627E-03     23.4861E-03
            3696            4011     28.7244E-03     26.9657E-03
            3696            4012     25.1304E-03     26.0771E-03
            3696            4060     26.2627E-03     23.4861E-03
            3696            4061     20.6546E-03     22.1434E-03
            3697            4012     25.1304E-03     26.0771E-03
            3697            4013     23.9509E-03     24.0523E-03
            3697            4061     20.6546E-03     22.1434E-03
            3697            4062     18.6628E-03     18.5903E-03
            3698            4013     23.9509E-03     24.0523E-03
            3698            4014     23.0048E-03     23.1403E-03
            3698            4062     18.6628E-03     18.5903E-03
            3698            4063     16.6637E-03     17.2099E-03
            3699            4014     23.0048E-03     23.1403E-03
            3699            4015     22.5086E-03     22.5800E-03
            3699            4063     16.6637E-03     17.2099E-03
            3699            4064     15.5219E-03     16.3531E-03
            3700             420     8.02957E-03     8.25938E-03
            3700             421     11.5644E-03     11.5413E-03
            3700            4015     22.5086E-03     22.5800E-03
            3700            4064     15.5219E-03     16.3531E-03
            3701             517     149.903E-03     170.684E-03
            3701             518     166.107E-03     191.523E-03
            3701            4016     155.943E-03     152.788E-03
            3701            4065     176.984E-03     175.732E-03
            3702            4016     155.943E-03     152.788E-03
            3702            4017     160.685E-03     147.266E-03
            3702            4065     176.984E-03     175.732E-03
            3702            4066     179.001E-03     167.757E-03
            3703            4017     160.685E-03     147.266E-03
            3703            4018     139.970E-03     149.725E-03
            3703            4066     179.001E-03     167.757E-03
            3703            4067     154.017E-03     169.427E-03
            3704            4018     139.970E-03     149.725E-03
            3704            4019     138.789E-03     138.403E-03
            3704            4067     154.017E-03     169.427E-03
            3704            4068     153.541E-03     156.259E-03
            3705            4019     138.789E-03     138.403E-03
            3705            4020     135.887E-03     135.796E-03
            3705            4068     153.541E-03     156.259E-03
            3705            4069     149.239E-03     153.811E-03
            3706            4020     135.887E-03     135.796E-03
            3706            4021     131.644E-03     132.069E-03
            3706            4069     149.239E-03     153.811E-03
            3706            4070     144.867E-03     148.331E-03
            3707            4021     131.644E-03     132.069E-03
            3707            4022     127.219E-03     134.733E-03
            3707            4070     144.867E-03     148.331E-03
            3707            4071     138.933E-03     150.818E-03
            3708            4022     127.219E-03     134.733E-03
            3708            4023     137.111E-03     128.586E-03
            3708            4071     138.933E-03     150.818E-03
            3708            4072     151.383E-03     144.334E-03
            3709            4023     137.111E-03     128.586E-03
            3709            4024     129.385E-03     126.983E-03
            3709            4072     151.383E-03     144.334E-03
            3709            4073     146.271E-03     145.041E-03
            3710            4024     129.385E-03     126.983E-03
            3710            4025     109.364E-03     140.024E-03
            3710            4073     146.271E-03     145.041E-03
            3710            4074     124.215E-03     162.047E-03
            3711            4025     109.364E-03     140.024E-03
            3711            4026     130.246E-03     127.669E-03
            3711            4074     124.215E-03     162.047E-03
            3711            4075     147.646E-03     146.634E-03
            3712            4026     130.246E-03     127.669E-03
            3712            4027     133.459E-03     122.215E-03
            3712            4075     147.646E-03     146.634E-03
            3712            4076     148.875E-03     139.218E-03
            3713            4027     133.459E-03     122.215E-03
            3713            4028     115.091E-03     123.824E-03
            3713            4076     148.875E-03     139.218E-03
            3713            4077     126.761E-03     140.195E-03
            3714            4028     115.091E-03     123.824E-03
            3714            4029     113.674E-03     112.742E-03
            3714            4077     126.761E-03     140.195E-03
            3714            4078     126.115E-03     127.470E-03
            3715            4029     113.674E-03     112.742E-03
            3715            4030     108.881E-03     110.088E-03
            3715            4078     126.115E-03     127.470E-03
            3715            4079     120.033E-03     124.638E-03
            3716            4030     108.881E-03     110.088E-03
            3716            4031     104.662E-03     106.533E-03
            3716            4079     120.033E-03     124.638E-03
            3716            4080     115.089E-03     120.182E-03
            3717            4031     104.662E-03     106.533E-03
            3717            4032     102.410E-03     101.935E-03
            3717            4080     115.089E-03     120.182E-03
            3717            4081     112.661E-03     114.249E-03
            3718            4032     102.410E-03     101.935E-03
            3718            4033     97.6919E-03     103.867E-03
            3718            4081     112.661E-03     114.249E-03
            3718            4082     106.193E-03     115.693E-03
            3719            4033     97.6919E-03     103.867E-03
            3719            4034     104.034E-03     98.3874E-03
            3719            4082     106.193E-03     115.693E-03
            3719            4083     114.585E-03     109.656E-03
            3720            4034     104.034E-03     98.3874E-03
            3720            4035     97.9335E-03     96.2417E-03
            3720            4083     114.585E-03     109.656E-03
            3720            4084     110.291E-03     109.396E-03
            3721            4035     97.9335E-03     96.2417E-03
            3721            4036     82.6875E-03     105.844E-03
            3721            4084     110.291E-03     109.396E-03
            3721            4085     93.5344E-03     122.088E-03
            3722            4036     82.6875E-03     105.844E-03
            3722            4037     98.1074E-03     96.1868E-03
            3722            4085     93.5344E-03     122.088E-03
            3722            4086     110.981E-03     110.287E-03
            3723            4037     98.1074E-03     96.1868E-03
            3723            4038     99.8029E-03     90.9641E-03
            3723            4086     110.981E-03     110.287E-03
            3723            4087     111.265E-03     103.626E-03
            3724            4038     99.8029E-03     90.9641E-03
            3724            4039     84.7473E-03     91.3661E-03
            3724            4087     111.265E-03     103.626E-03
            3724            4088     93.1494E-03     103.329E-03
            3725            4039     84.7473E-03     91.3661E-03
            3725            4040     82.6420E-03     81.9172E-03
            3725            4088     93.1494E-03     103.329E-03
            3725            4089     91.3562E-03     92.2582E-03
            3726            4040     82.6420E-03     81.9172E-03
            3726            4041     78.0056E-03     78.7194E-03
            3726            4089     91.3562E-03     92.2582E-03
            3726            4090     85.4818E-03     88.6173E-03
            3727            4041     78.0056E-03     78.7194E-03
            3727            4042     73.5159E-03     74.9366E-03
            3727            4090     85.4818E-03     88.6173E-03
            3727            4091     80.1663E-03     83.8227E-03
            3728            4042     73.5159E-03     74.9366E-03
            3728            4043     70.6591E-03     70.4228E-03
            3728            4091     80.1663E-03     83.8227E-03
            3728            4092     76.8882E-03     78.0358E-03
            3729            4043     70.6591E-03     70.4228E-03
            3729            4044     66.2447E-03     70.1278E-03
            3729            4092     76.8882E-03     78.0358E-03
            3729            4093     71.0422E-03     76.9792E-03
            3730            4044     66.2447E-03     70.1278E-03
            3730            4045     68.4494E-03     65.6454E-03
            3730            4093     71.0422E-03     76.9792E-03
            3730            4094     74.4040E-03     71.8607E-03
            3731            4045     68.4494E-03     65.6454E-03
            3731            4046     63.7202E-03     62.7970E-03
            3731            4094     74.4040E-03     71.8607E-03
            3731            4095     70.8522E-03     70.3034E-03
            3732            4046     63.7202E-03     62.7970E-03
            3732            4047     54.2009E-03     68.9208E-03
            3732            4095     70.8522E-03     70.3034E-03
            3732            4096     60.3259E-03     78.6738E-03
            3733            4047     54.2009E-03     68.9208E-03
            3733            4048     63.9977E-03     62.8288E-03
            3733            4096     60.3259E-03     78.6738E-03
            3733            4097     71.6546E-03     71.3182E-03
            3734            4048     63.9977E-03     62.8288E-03
            3734            4049     64.1035E-03     57.9513E-03
            3734            4097     71.6546E-03     71.3182E-03
            3734            4098     70.9477E-03     65.5151E-03
            3735            4049     64.1035E-03     57.9513E-03
            3735            4050     52.7693E-03     57.1164E-03
            3735            4098     70.9477E-03     65.5151E-03
            3735            4099     57.2003E-03     63.8552E-03
            3736            4050     52.7693E-03     57.1164E-03
            3736            4051     50.0364E-03     49.5513E-03
            3736            4099     57.2003E-03     63.8552E-03
            3736            4100     54.2136E-03     54.6093E-03
            3737            4051     50.0364E-03     49.5513E-03
            3737            4052     45.7115E-03     45.8888E-03
            3737            4100     54.2136E-03     54.6093E-03
            3737            4101     48.6118E-03     50.1422E-03
            3738            4052     45.7115E-03     45.8888E-03
            3738            4053     41.1196E-03     42.0189E-03
            3738            4101     48.6118E-03     50.1422E-03
            3738            4102     42.9769E-03     45.0493E-03
            3739            4053     41.1196E-03     42.0189E-03
            3739            4054     37.8002E-03     37.8117E-03
            3739            4102     42.9769E-03     45.0493E-03
            3739            4103     38.8730E-03     39.5167E-03
            3740            4054     37.8002E-03     37.8117E-03
            3740            4055     33.9189E-03     35.4014E-03
            3740            4103     38.8730E-03     39.5167E-03
            3740            4104     33.8111E-03     35.9226E-03
            3741            4055     33.9189E-03     35.4014E-03
            3741            4056     31.9599E-03     32.2459E-03
            3741            4104     33.8111E-03     35.9226E-03
            3741            4105     31.9183E-03     31.9499E-03
            3742            4056     31.9599E-03     32.2459E-03
            3742            4057     28.9776E-03     29.0242E-03
            3742            4105     31.9183E-03     31.9499E-03
            3742            4106     29.2607E-03     29.1726E-03
            3743            4057     28.9776E-03     29.0242E-03
            3743            4058     25.0453E-03     30.1491E-03
            3743            4106     29.2607E-03     29.1726E-03
            3743            4107     24.3764E-03     31.6475E-03
            3744            4058     25.0453E-03     30.1491E-03
            3744            4059     27.5104E-03     27.1747E-03
            3744            4107     24.3764E-03     31.6475E-03
            3744            4108     27.5513E-03     27.7423E-03
            3745            4059     27.5104E-03     27.1747E-03
            3745            4060     26.2627E-03     23.4861E-03
            3745            4108     27.5513E-03     27.7423E-03
            3745            4109     25.4004E-03     22.6229E-03
            3746            4060     26.2627E-03     23.4861E-03
            3746            4061     20.6546E-03     22.1434E-03
            3746            4109     25.4004E-03     22.6229E-03
            3746            4110     16.9069E-03     19.3304E-03
            3747            4061     20.6546E-03     22.1434E-03
            3747            4062     18.6628E-03     18.5903E-03
            3747            4110     16.9069E-03     19.3304E-03
            3747            4111     13.4307E-03     12.5825E-03
            3748            4062     18.6628E-03     18.5903E-03
            3748            4063     16.6637E-03     17.2099E-03
            3748            4111     13.4307E-03     12.5825E-03
            3748            4112     10.0609E-03     9.94295E-03
            3749            4063     16.6637E-03     17.2099E-03
            3749            4064     15.5219E-03     16.3531E-03
            3749            4112     10.0609E-03     9.94295E-03
            3749            4113     8.33958E-03     9.63005E-03
            3750             419     4.30510E-03     5.16322E-03
            3750             420     8.02957E-03     8.25938E-03
            3750            4064     15.5219E-03     16.3531E-03
            3750            4113     8.33958E-03     9.63005E-03
            3751             518     166.107E-03     191.523E-03
            3751             519     181.104E-03     200.879E-03
            3751            4065     176.984E-03     175.732E-03
            3751            4114     192.739E-03     188.738E-03
            3752            4065     176.984E-03     175.732E-03
            3752            4066     179.001E-03     167.757E-03
            3752            4114     192.739E-03     188.738E-03
            3752            4115     188.665E-03     179.200E-03
            3753            4066     179.001E-03     167.757E-03
            3753            4067     154.017E-03     169.427E-03
            3753            4115     188.665E-03     179.200E-03
            3753            4116     167.040E-03     178.547E-03
            3754            4067     154.017E-03     169.427E-03
            3754            4068     153.541E-03     156.259E-03
            3754            4116     167.040E-03     178.547E-03
            3754            4117     166.615E-03     166.664E-03
            3755            4068     153.541E-03     156.259E-03
            3755            4069     149.239E-03     153.811E-03
            3755            4117     166.615E-03     166.664E-03
            3755            4118     160.631E-03     164.288E-03
            3756            4069     149.239E-03     153.811E-03
            3756            4070     144.867E-03     148.331E-03
            3756            4118     160.631E-03     164.288E-03
            3756            4119     156.690E-03     157.611E-03
            3757            4070     144.867E-03     148.331E-03
            3757            4071     138.933E-03     150.818E-03
            3757            4119     156.690E-03     157.611E-03
            3757            4120     149.175E-03     157.788E-03
            3758            4071     138.933E-03     150.818E-03
            3758            4072     151.383E-03     144.334E-03
            3758            4120     149.175E-03     157.788E-03
            3758            4121     156.744E-03     150.199E-03
            3759            4072     151.383E-03     144.334E-03
            3759            4073     146.271E-03     145.041E-03
            3759            4121     156.744E-03     150.199E-03
            3759            4122     153.352E-03     149.457E-03
            3760            4073     146.271E-03     145.041E-03
            3760            4074     124.215E-03     162.047E-03
            3760            4122     153.352E-03     149.457E-03
            3760            4123     140.233E-03     168.427E-03
            3761            4074     124.215E-03     162.047E-03
            3761            4075     147.646E-03     146.634E-03
            3761            4123     140.233E-03     168.427E-03
            3761            4124     161.333E-03     158.048E-03
            3762            4075     147.646E-03     146.634E-03
            3762            4076     148.875E-03     139.218E-03
            3762            4124     161.333E-03     158.048E-03
            3762            4125     157.109E-03     149.050E-03
            3763            4076     148.875E-03     139.218E-03
            3763            4077     126.761E-03     140.195E-03
            3763            4125     157.109E-03     149.050E-03
            3763            4126     137.717E-03     147.579E-03
            3764            4077     126.761E-03     140.195E-03
            3764            4078     126.115E-03     127.470E-03
            3764            4126     137.717E-03     147.579E-03
            3764            4127     136.655E-03     136.193E-03
            3765            4078     126.115E-03     127.470E-03
            3765            4079     120.033E-03     124.638E-03
            3765            4127     136.655E-03     136.193E-03
            3765            4128     130.051E-03     133.043E-03
            3766            4079     120.033E-03     124.638E-03
            3766            4080     115.089E-03     120.182E-03
            3766            4128     130.051E-03     133.043E-03
            3766            4129     124.968E-03     127.890E-03
            3767            4080     115.089E-03     120.182E-03
            3767            4081     112.661E-03     114.249E-03
            3767            4129     124.968E-03     127.890E-03
            3767            4130     121.272E-03     121.580E-03
            3768            4081     112.661E-03     114.249E-03
            3768            4082     106.193E-03     115.693E-03
            3768            4130     121.272E-03     121.580E-03
            3768            4131     113.860E-03     120.406E-03
            3769            4082     106.193E-03     115.693E-03
            3769            4083     114.585E-03     109.656E-03
            3769            4131     113.860E-03     120.406E-03
            3769            4132     117.935E-03     113.190E-03
            3770            4083     114.585E-03     109.656E-03
            3770            4084     110.291E-03     109.396E-03
            3770            4132     117.935E-03     113.190E-03
            3770            4133     114.314E-03     111.192E-03
            3771            4084     110.291E-03     109.396E-03
            3771            4085     93.5344E-03     122.088E-03
            3771            4133     114.314E-03     111.192E-03
            3771            4134     105.515E-03     126.737E-03
            3772            4085     93.5344E-03     122.088E-03
            3772            4086     110.981E-03     110.287E-03
            3772            4134     105.515E-03     126.737E-03
            3772            4135     122.388E-03     120.074E-03
            3773            4086     110.981E-03     110.287E-03
            3773            4087     111.265E-03     103.626E-03
            3773            4135     122.388E-03     120.074E-03
            3773            4136     117.955E-03     111.688E-03
            3774            4087     111.265E-03     103.626E-03
            3774            4088     93.1494E-03     103.329E-03
            3774            4136     117.955E-03     111.688E-03
            3774            4137     101.452E-03     109.018E-03
            3775            4088     93.1494E-03     103.329E-03
            3775            4089     91.3562E-03     92.2582E-03
            3775            4137     101.452E-03     109.018E-03
            3775            4138     99.1183E-03     98.6523E-03
            3776            4089     91.3562E-03     92.2582E-03
            3776            4090     85.4818E-03     88.6173E-03
            3776            4138     99.1183E-03     98.6523E-03
            3776            4139     92.5362E-03     94.6577E-03
            3777            4090     85.4818E-03     88.6173E-03
            3777            4091     80.1663E-03     83.8227E-03
            3777            4139     92.5362E-03     94.6577E-03
            3777            4140     87.0528E-03     89.0963E-03
            3778            4091     80.1663E-03     83.8227E-03
            3778            4092     76.8882E-03     78.0358E-03
            3778            4140     87.0528E-03     89.0963E-03
            3778            4141     82.5225E-03     82.8829E-03
            3779            4092     76.8882E-03     78.0358E-03
            3779            4093     71.0422E-03     76.9792E-03
            3779            4141     82.5225E-03     82.8829E-03
            3779            4142     75.7151E-03     79.6954E-03
            3780            4093     71.0422E-03     76.9792E-03
            3780            4094     74.4040E-03     71.8607E-03
            3780            4142     75.7151E-03     79.6954E-03
            3780            4143     75.6934E-03     73.0019E-03
            3781            4094     74.4040E-03     71.8607E-03
            3781            4095     70.8522E-03     70.3034E-03
            3781            4143     75.6934E-03     73.0019E-03
            3781            4144     71.6722E-03     69.5269E-03
            3782            4095     70.8522E-03     70.3034E-03
            3782            4096     60.3259E-03     78.6738E-03
            3782            4144     71.6722E-03     69.5269E-03
            3782            4145     67.8174E-03     81.4874E-03
            3783            4096     60.3259E-03     78.6738E-03
            3783            4097     71.6546E-03     71.3182E-03
            3783            4145     67.8174E-03     81.4874E-03
            3783            4146     80.4286E-03     79.1669E-03
            3784            4097     71.6546E-03     71.3182E-03
            3784            4098     70.9477E-03     65.5151E-03
            3784            4146     80.4286E-03     79.1669E-03
            3784            4147     75.8154E-03     71.4908E-03
            3785            4098     70.9477E-03     65.5151E-03
            3785            4099     57.2003E-03     63.8552E-03
            3785            4147     75.8154E-03     71.4908E-03
            3785            4148     62.4905E-03     67.5753E-03
            3786            4099     57.2003E-03     63.8552E-03
            3786            4100     54.2136E-03     54.6093E-03
            3786            4148     62.4905E-03     67.5753E-03
            3786            4149     58.8379E-03     58.3664E-03
            3787            4100     54.2136E-03     54.6093E-03
            3787            4101     48.6118E-03     50.1422E-03
            3787            4149     58.8379E-03     58.3664E-03
            3787            4150     52.3319E-03     53.5103E-03
            3788            4101     48.6118E-03     50.1422E-03
            3788            4102     42.9769E-03     45.0493E-03
            3788            4150     52.3319E-03     53.5103E-03
            3788            4151     46.4741E-03     47.5689E-03
            3789            4102     42.9769E-03     45.0493E-03
            3789            4103     38.8730E-03     39.5167E-03
            3789            4151     46.4741E-03     47.5689E-03
            3789            4152     41.1161E-03     41.5213E-03
            3790            4103     38.8730E-03     39.5167E-03
            3790            4104     33.8111E-03     35.9226E-03
            3790            4152     41.1161E-03     41.5213E-03
            3790            4153     35.0110E-03     36.2506E-03
            3791            4104     33.8111E-03     35.9226E-03
            3791            4105     31.9183E-03     31.9499E-03
            3791            4153     35.0110E-03     36.2506E-03
            3791            4154     30.6399E-03     30.2171E-03
            3792            4105     31.9183E-03     31.9499E-03
            3792            4106     29.2607E-03     29.1726E-03
            3792            4154     30.6399E-03     30.2171E-03
            3792            4155     26.1841E-03     25.1629E-03
            3793            4106     29.2607E-03     29.1726E-03
            3793            4107     24.3764E-03     31.6475E-03
            3793            4155     26.1841E-03     25.1629E-03
            3793            4156     26.4846E-03     32.0396E-03
            3794            4107     24.3764E-03     31.6475E-03
            3794            4108     27.5513E-03     27.7423E-03
            3794            4156     26.4846E-03     32.0396E-03
            3794            4157     33.0468E-03     33.0442E-03
            3795            4108     27.5513E-03     27.7423E-03
            3795            4109     25.4004E-03     22.6229E-03
            3795            4157     33.0468E-03     33.0442E-03
            3795            4158     27.7422E-03     25.5831E-03
            3796            4109     25.4004E-03     22.6229E-03
            3796            4110     16.9069E-03     19.3304E-03
            3796            4158     27.7422E-03     25.5831E-03
            3796            4159     17.6758E-03     20.0446E-03
            3797            4110     16.9069E-03     19.3304E-03
            3797            4111     13.4307E-03     12.5825E-03
            3797            4159     17.6758E-03     20.0446E-03
            3797            4160     12.8410E-03     11.8526E-03
            3798            4111     13.4307E-03     12.5825E-03
            3798            4112     10.0609E-03     9.94295E-03
            3798            4160     12.8410E-03     11.8526E-03
            3798            4161     8.52597E-03     8.06718E-03
            3799            4112     10.0609E-03     9.94295E-03
            3799            4113     8.33958E-03     9.63005E-03
            3799            4161     8.52597E-03     8.06718E-03
            3799            4162     7.23694E-03     8.93148E-03
            3800             418     3.87242E-03     5.68237E-03
            3800             419     4.30510E-03     5.16322E-03
            3800            4113     8.33958E-03     9.63005E-03
            3800            4162     7.23694E-03     8.93148E-03
            3801              21     189.595E-03     203.139E-03
            3801             440     199.438E-03     191.787E-03
            3801             519     181.104E-03     200.879E-03
            3801            4114     192.739E-03     188.738E-03
            3802             440     199.438E-03     191.787E-03
            3802             441     191.201E-03     180.348E-03
            3802            4114     192.739E-03     188.738E-03
            3802            4115     188.665E-03     179.200E-03
            3803             441     191.201E-03     180.348E-03
            3803             442     174.097E-03     179.118E-03
            3803            4115     188.665E-03     179.200E-03
            3803            4116     167.040E-03     178.547E-03
            3804             442     174.097E-03     179.118E-03
            3804             443     172.741E-03     168.870E-03
            3804            4116     167.040E-03     178.547E-03
            3804            4117     166.615E-03     166.664E-03
            3805             443     172.741E-03     168.870E-03
            3805             444     166.402E-03     166.374E-03
            3805            4117     166.615E-03     166.664E-03
            3805            4118     160.631E-03     164.288E-03
            3806             444     166.402E-03     166.374E-03
            3806             445     162.437E-03     159.409E-03
            3806            4118     160.631E-03     164.288E-03
            3806            4119     156.690E-03     157.611E-03
            3807             445     162.437E-03     159.409E-03
            3807             446     154.879E-03     157.867E-03
            3807            4119     156.690E-03     157.611E-03
            3807            4120     149.175E-03     157.788E-03
            3808             446     154.879E-03     157.867E-03
            3808             447     157.559E-03     148.970E-03
            3808            4120     149.175E-03     157.788E-03
            3808            4121     156.744E-03     150.199E-03
            3809             447     157.559E-03     148.970E-03
            3809             448     154.069E-03     147.000E-03
            3809            4121     156.744E-03     150.199E-03
            3809            4122     153.352E-03     149.457E-03
            3810             448     154.069E-03     147.000E-03
            3810             449     150.070E-03     168.009E-03
            3810            4122     153.352E-03     149.457E-03
            3810            4123     140.233E-03     168.427E-03
            3811             449     150.070E-03     168.009E-03
            3811             450     167.455E-03     161.199E-03
            3811            4123     140.233E-03     168.427E-03
            3811            4124     161.333E-03     158.048E-03
            3812             450     167.455E-03     161.199E-03
            3812             451     159.220E-03     150.316E-03
            3812            4124     161.333E-03     158.048E-03
            3812            4125     157.109E-03     149.050E-03
            3813             451     159.220E-03     150.316E-03
            3813             452     143.635E-03     147.973E-03
            3813            4125     157.109E-03     149.050E-03
            3813            4126     137.717E-03     147.579E-03
            3814             452     143.635E-03     147.973E-03
            3814             453     141.405E-03     138.199E-03
            3814            4126     137.717E-03     147.579E-03
            3814            4127     136.655E-03     136.193E-03
            3815             453     141.405E-03     138.199E-03
            3815             454     135.063E-03     134.796E-03
            3815            4127     136.655E-03     136.193E-03
            3815            4128     130.051E-03     133.043E-03
            3816             454     135.063E-03     134.796E-03
            3816             455     130.067E-03     129.372E-03
            3816            4128     130.051E-03     133.043E-03
            3816            4129     124.968E-03     127.890E-03
            3817             455     130.067E-03     129.372E-03
            3817             456     125.352E-03     123.185E-03
            3817            4129     124.968E-03     127.890E-03
            3817            4130     121.272E-03     121.580E-03
            3818             456     125.352E-03     123.185E-03
            3818             457     118.277E-03     120.156E-03
            3818            4130     121.272E-03     121.580E-03
            3818            4131     113.860E-03     120.406E-03
            3819             457     118.277E-03     120.156E-03
            3819             458     118.137E-03     111.892E-03
            3819            4131     113.860E-03     120.406E-03
            3819            4132     117.935E-03     113.190E-03
            3820             458     118.137E-03     111.892E-03
            3820             459     113.895E-03     108.286E-03
            3820            4132     117.935E-03     113.190E-03
            3820            4133     114.314E-03     111.192E-03
            3821             459     113.895E-03     108.286E-03
            3821             460     112.914E-03     126.403E-03
            3821            4133     114.314E-03     111.192E-03
            3821            4134     105.515E-03     126.737E-03
            3822             460     112.914E-03     126.403E-03
            3822             461     127.941E-03     123.464E-03
            3822            4134     105.515E-03     126.737E-03
            3822            4135     122.388E-03     120.074E-03
            3823             461     127.941E-03     123.464E-03
            3823             462     119.848E-03     113.136E-03
            3823            4135     122.388E-03     120.074E-03
            3823            4136     117.955E-03     111.688E-03
            3824             462     119.848E-03     113.136E-03
            3824             463     105.983E-03     109.518E-03
            3824            4136     117.955E-03     111.688E-03
            3824            4137     101.452E-03     109.018E-03
            3825             463     105.983E-03     109.518E-03
            3825             464     102.700E-03     100.253E-03
            3825            4137     101.452E-03     109.018E-03
            3825            4138     99.1183E-03     98.6523E-03
            3826             464     102.700E-03     100.253E-03
            3826             465     96.1675E-03     96.0626E-03
            3826            4138     99.1183E-03     98.6523E-03
            3826            4139     92.5362E-03     94.6577E-03
            3827             465     96.1675E-03     96.0626E-03
            3827             466     90.7793E-03     90.2086E-03
            3827            4139     92.5362E-03     94.6577E-03
            3827            4140     87.0528E-03     89.0963E-03
            3828             466     90.7793E-03     90.2086E-03
            3828             467     85.3830E-03     84.0503E-03
            3828            4140     87.0528E-03     89.0963E-03
            3828            4141     82.5225E-03     82.8829E-03
            3829             467     85.3830E-03     84.0503E-03
            3829             468     78.6178E-03     79.4950E-03
            3829            4141     82.5225E-03     82.8829E-03
            3829            4142     75.7151E-03     79.6954E-03
            3830             468     78.6178E-03     79.4950E-03
            3830             469     75.4888E-03     71.6661E-03
            3830            4142     75.7151E-03     79.6954E-03
            3830            4143     75.6934E-03     73.0019E-03
            3831             469     75.4888E-03     71.6661E-03
            3831             470     70.0981E-03     66.3067E-03
            3831            4143     75.6934E-03     73.0019E-03
            3831            4144     71.6722E-03     69.5269E-03
            3832             470     70.0981E-03     66.3067E-03
            3832             471     72.5556E-03     81.2659E-03
            3832            4144     71.6722E-03     69.5269E-03
            3832            4145     67.8174E-03     81.4874E-03
            3833             471     72.5556E-03     81.2659E-03
            3833             472     85.3014E-03     82.7614E-03
            3833            4145     67.8174E-03     81.4874E-03
            3833            4146     80.4286E-03     79.1669E-03
            3834             472     85.3014E-03     82.7614E-03
            3834             473     77.4400E-03     73.1257E-03
            3834            4146     80.4286E-03     79.1669E-03
            3834            4147     75.8154E-03     71.4908E-03
            3835             473     77.4400E-03     73.1257E-03
            3835             474     65.5337E-03     68.2106E-03
            3835            4147     75.8154E-03     71.4908E-03
            3835            4148     62.4905E-03     67.5753E-03
            3836             474     65.5337E-03     68.2106E-03
            3836             475     61.2049E-03     59.5795E-03
            3836            4148     62.4905E-03     67.5753E-03
            3836            4149     58.8379E-03     58.3664E-03
            3837             475     61.2049E-03     59.5795E-03
            3837             476     54.5462E-03     54.6155E-03
            3837            4149     58.8379E-03     58.3664E-03
            3837            4150     52.3319E-03     53.5103E-03
            3838             476     54.5462E-03     54.6155E-03
            3838             477     48.8151E-03     48.3875E-03
            3838            4150     52.3319E-03     53.5103E-03
            3838            4151     46.4741E-03     47.5689E-03
            3839             477     48.8151E-03     48.3875E-03
            3839             478     42.7790E-03     42.3374E-03
            3839            4151     46.4741E-03     47.5689E-03
            3839            4152     41.1161E-03     41.5213E-03
            3840             478     42.7790E-03     42.3374E-03
            3840             479     36.3677E-03     36.2432E-03
            3840            4152     41.1161E-03     41.5213E-03
            3840            4153     35.0110E-03     36.2506E-03
            3841             479     36.3677E-03     36.2432E-03
            3841             480     29.9833E-03     28.9675E-03
            3841            4153     35.0110E-03     36.2506E-03
            3841            4154     30.6399E-03     30.2171E-03
            3842             480     29.9833E-03     28.9675E-03
            3842             481     23.2562E-03     21.5583E-03
            3842            4154     30.6399E-03     30.2171E-03
            3842            4155     26.1841E-03     25.1629E-03
            3843             481     23.2562E-03     21.5583E-03
            3843             482     28.3654E-03     31.8237E-03
            3843            4155     26.1841E-03     25.1629E-03
            3843            4156     26.4846E-03     32.0396E-03
            3844             482     28.3654E-03     31.8237E-03
            3844             483     37.4545E-03     37.0374E-03
            3844            4156     26.4846E-03     32.0396E-03
            3844            4157     33.0468E-03     33.0442E-03
            3845             483     37.4545E-03     37.0374E-03
            3845             484     29.7258E-03     27.8611E-03
            3845            4157     33.0468E-03     33.0442E-03
            3845            4158     27.7422E-03     25.5831E-03
            3846             484     29.7258E-03     27.8611E-03
            3846             485     19.9109E-03     21.5912E-03
            3846            4158     27.7422E-03     25.5831E-03
            3846            4159     17.6758E-03     20.0446E-03
            3847             485     19.9109E-03     21.5912E-03
            3847             486     14.7508E-03     14.0085E-03
            3847            4159     17.6758E-03     20.0446E-03
            3847            4160     12.8410E-03     11.8526E-03
            3848             486     14.7508E-03     14.0085E-03
            3848             487     10.2663E-03     10.3101E-03
            3848            4160     12.8410E-03     11.8526E-03
            3848            4161     8.52597E-03     8.06718E-03
            3849             487     10.2663E-03     10.3101E-03
            3849             488     9.40515E-03     11.6149E-03
            3849            4161     8.52597E-03     8.06718E-03
            3849            4162     7.23694E-03     8.93148E-03
            3850              17     5.17865E-03     7.52530E-03
            3850             418     3.87242E-03     5.68237E-03
            3850             488     9.40515E-03     11.6149E-03
            3850            4162     7.23694E-03     8.93148E-03
            4067              12     20.0550E-03     19.9714E-03
            4067             188     20.0236E-03     19.8976E-03
            4067             243     39.2975E-03     38.9892E-03
            4067            4328     39.2476E-03     38.9047E-03
            4068             242     39.2937E-03     39.2356E-03
            4068             243     39.2975E-03     38.9892E-03
            4068            4328     39.2476E-03     38.9047E-03
            4068            4329     39.2426E-03     39.2054E-03
            4069             241     39.5214E-03     39.3215E-03
            4069             242     39.2937E-03     39.2356E-03
            4069            4329     39.2426E-03     39.2054E-03
            4069            4330     39.4558E-03     39.2873E-03
            4070             240     39.4538E-03     38.7570E-03
            4070             241     39.5214E-03     39.3215E-03
            4070            4330     39.4558E-03     39.2873E-03
            4070            4331     39.3915E-03     38.7391E-03
            4071             239     38.9894E-03     38.6281E-03
            4071             240     39.4538E-03     38.7570E-03
            4071            4331     39.3915E-03     38.7391E-03
            4071            4332     38.8265E-03     38.4883E-03
            4072             238     39.1710E-03     38.7355E-03
            4072             239     38.9894E-03     38.6281E-03
            4072            4332     38.8265E-03     38.4883E-03
            4072            4333     38.9080E-03     38.5004E-03
            4073             237     39.4188E-03     38.6797E-03
            4073             238     39.1710E-03     38.7355E-03
            4073            4333     38.9080E-03     38.5004E-03
            4073            4334     39.1834E-03     38.5459E-03
            4074             236     39.4415E-03     38.8102E-03
            4074             237     39.4188E-03     38.6797E-03
            4074            4334     39.1834E-03     38.5459E-03
            4074            4335     39.3284E-03     38.8481E-03
            4075             235     39.4301E-03     38.8773E-03
            4075             236     39.4415E-03     38.8102E-03
            4075            4335     39.3284E-03     38.8481E-03
            4075            4336     39.4215E-03     39.0686E-03
            4076             234     39.3331E-03     39.0469E-03
            4076             235     39.4301E-03     38.8773E-03
            4076            4336     39.4215E-03     39.0686E-03
            4076            4337     39.5269E-03     39.4457E-03
            4077             233     39.2817E-03     39.3323E-03
            4077             234     39.3331E-03     39.0469E-03
            4077            4337     39.5269E-03     39.4457E-03
            4077            4338     39.7622E-03     39.8365E-03
            4078             232     39.1914E-03     39.3567E-03
            4078             233     39.2817E-03     39.3323E-03
            4078            4338     39.7622E-03     39.8365E-03
            4078            4339     39.9635E-03     40.0040E-03
            4079             231     38.8292E-03     39.7724E-03
            4079             232     39.1914E-03     39.3567E-03
            4079            4339     39.9635E-03     40.0040E-03
            4079            4340     39.7244E-03     40.6034E-03
            4080             230     39.7856E-03     40.0091E-03
            4080             231     38.8292E-03     39.7724E-03
            4080            4340     39.7244E-03     40.6034E-03
            4080            4341     40.8549E-03     40.7506E-03
            4081             229     39.6836E-03     38.5229E-03
            4081             230     39.7856E-03     40.0091E-03
            4081            4341     40.8549E-03     40.7506E-03
            4081            4342     40.7788E-03     39.3704E-03
            4082             228     38.3091E-03     38.1841E-03
            4082             229     39.6836E-03     38.5229E-03
            4082            4342     40.7788E-03     39.3704E-03
            4082            4343     38.8981E-03     38.9832E-03
            4083             227     38.2512E-03     37.9973E-03
            4083             228     38.3091E-03     38.1841E-03
            4083            4343     38.8981E-03     38.9832E-03
            4083            4344     38.8723E-03     38.6751E-03
            4084             226     38.8100E-03     37.2569E-03
            4084             227     38.2512E-03     37.9973E-03
            4084            4344     38.8723E-03     38.6751E-03
            4084            4345     39.6840E-03     38.3334E-03
            4085             225     39.2464E-03     37.7623E-03
            4085             226     38.8100E-03     37.2569E-03
            4085            4345     39.6840E-03     38.3334E-03
            4085            4346     40.1746E-03     39.2273E-03
            4086             224     39.1890E-03     38.0495E-03
            4086             225     39.2464E-03     37.7623E-03
            4086            4346     40.1746E-03     39.2273E-03
            4086            4347     40.5179E-03     39.8294E-03
            4087             223     39.2441E-03     38.3955E-03
            4087             224     39.1890E-03     38.0495E-03
            4087            4347     40.5179E-03     39.8294E-03
            4087            4348     40.9172E-03     40.4588E-03
            4088             222     39.0173E-03     39.0151E-03
            4088             223     39.2441E-03     38.3955E-03
            4088            4348     40.9172E-03     40.4588E-03
            4088            4349     41.1762E-03     41.2645E-03
            4089             221     38.9559E-03     39.6186E-03
            4089             222     39.0173E-03     39.0151E-03
            4089            4349     41.1762E-03     41.2645E-03
            4089            4350     41.5646E-03     41.8698E-03
            4090             220     38.8522E-03     39.6645E-03
            4090             221     38.9559E-03     39.6186E-03
            4090            4350     41.5646E-03     41.8698E-03
            4090            4351     41.7805E-03     42.0741E-03
            4091             219     38.2615E-03     40.3502E-03
            4091             220     38.8522E-03     39.6645E-03
            4091            4351     41.7805E-03     42.0741E-03
            4091            4352     41.1834E-03     42.9836E-03
            4092             218     39.9207E-03     40.5193E-03
            4092             219     38.2615E-03     40.3502E-03
            4092            4352     41.1834E-03     42.9836E-03
            4092            4353     43.0307E-03     42.8907E-03
            4093             217     39.7008E-03     38.1209E-03
            4093             218     39.9207E-03     40.5193E-03
            4093            4353     43.0307E-03     42.8907E-03
            4093            4354     42.6651E-03     40.5902E-03
            4094             216     37.9949E-03     38.4758E-03
            4094             217     39.7008E-03     38.1209E-03
            4094            4354     42.6651E-03     40.5902E-03
            4094            4355     39.8590E-03     40.8674E-03
            4095             215     38.5498E-03     38.5898E-03
            4095             216     37.9949E-03     38.4758E-03
            4095            4355     39.8590E-03     40.8674E-03
            4095            4356     40.9383E-03     40.7993E-03
            4096             214     39.4980E-03     37.4320E-03
            4096             215     38.5498E-03     38.5898E-03
            4096            4356     40.9383E-03     40.7993E-03
            4096            4357     42.3046E-03     40.3222E-03
            4097             213     40.0184E-03     38.4451E-03
            4097             214     39.4980E-03     37.4320E-03
            4097            4357     42.3046E-03     40.3222E-03
            4097            4358     42.9032E-03     41.9960E-03
            4098             212     39.9675E-03     38.8546E-03
            4098             213     40.0184E-03     38.4451E-03
            4098            4358     42.9032E-03     41.9960E-03
            4098            4359     43.3702E-03     42.7002E-03
            4099             211     39.7531E-03     39.4141E-03
            4099             212     39.9675E-03     38.8546E-03
            4099            4359     43.3702E-03     42.7002E-03
            4099            4360     43.7379E-03     43.6628E-03
            4100             210     39.5877E-03     40.1653E-03
            4100             211     39.7531E-03     39.4141E-03
            4100            4360     43.7379E-03     43.6628E-03
            4100            4361     44.1001E-03     44.5169E-03
            4101             209     39.2603E-03     40.1018E-03
            4101             210     39.5877E-03     40.1653E-03
            4101            4361     44.1001E-03     44.5169E-03
            4101            4362     44.1283E-03     44.6100E-03
            4102             208     38.2617E-03     40.9449E-03
            4102             209     39.2603E-03     40.1018E-03
            4102            4362     44.1283E-03     44.6100E-03
            4102            4363     43.0788E-03     45.6115E-03
            4103             207     40.3243E-03     40.9796E-03
            4103             208     38.2617E-03     40.9449E-03
            4103            4363     43.0788E-03     45.6115E-03
            4103            4364     45.2546E-03     45.1238E-03
            4104             206     39.7817E-03     37.9156E-03
            4104             207     40.3243E-03     40.9796E-03
            4104            4364     45.2546E-03     45.1238E-03
            4104            4365     44.4622E-03     41.9640E-03
            4105             205     32.5821E-03     32.3048E-03
            4105             206     39.7817E-03     37.9156E-03
            4105            4365     44.4622E-03     41.9640E-03
            4105            4366     37.0419E-03     37.1165E-03
            4106               9     35.4656E-03     38.4196E-03
            4106             205     32.5821E-03     32.3048E-03
            4106             630     40.4902E-03     44.0950E-03
            4106            4366     37.0419E-03     37.1165E-03
            4107             188     20.0236E-03     19.8976E-03
            4107             189     18.9650E-03     18.8548E-03
            4107            4328     39.2476E-03     38.9047E-03
            4107            4367     37.2046E-03     36.8463E-03
            4108            4328     39.2476E-03     38.9047E-03
            4108            4329     39.2426E-03     39.2054E-03
            4108            4367     37.2046E-03     36.8463E-03
            4108            4368     37.3255E-03     37.2863E-03
            4109            4329     39.2426E-03     39.2054E-03
            4109            4330     39.4558E-03     39.2873E-03
            4109            4368     37.3255E-03     37.2863E-03
            4109            4369     37.7982E-03     37.4839E-03
            4110            4330     39.4558E-03     39.2873E-03
            4110            4331     39.3915E-03     38.7391E-03
            4110            4369     37.7982E-03     37.4839E-03
            4110            4370     37.7262E-03     37.2666E-03
            4111            4331     39.3915E-03     38.7391E-03
            4111            4332     38.8265E-03     38.4883E-03
            4111            4370     37.7262E-03     37.2666E-03
            4111            4371     36.7854E-03     36.8280E-03
            4112            4332     38.8265E-03     38.4883E-03
            4112            4333     38.9080E-03     38.5004E-03
            4112            4371     36.7854E-03     36.8280E-03
            4112            4372     36.7903E-03     36.5967E-03
            4113            4333     38.9080E-03     38.5004E-03
            4113            4334     39.1834E-03     38.5459E-03
            4113            4372     36.7903E-03     36.5967E-03
            4113            4373     37.4167E-03     37.2865E-03
            4114            4334     39.1834E-03     38.5459E-03
            4114            4335     39.3284E-03     38.8481E-03
            4114            4373     37.4167E-03     37.2865E-03
            4114            4374     38.0978E-03     38.2587E-03
            4115            4335     39.3284E-03     38.8481E-03
            4115            4336     39.4215E-03     39.0686E-03
            4115            4374     38.0978E-03     38.2587E-03
            4115            4375     39.0000E-03     39.2031E-03
            4116            4336     39.4215E-03     39.0686E-03
            4116            4337     39.5269E-03     39.4457E-03
            4116            4375     39.0000E-03     39.2031E-03
            4116            4376     39.9345E-03     40.2647E-03
            4117            4337     39.5269E-03     39.4457E-03
            4117            4338     39.7622E-03     39.8365E-03
            4117            4376     39.9345E-03     40.2647E-03
            4117            4377     41.2545E-03     41.1905E-03
            4118            4338     39.7622E-03     39.8365E-03
            4118            4339     39.9635E-03     40.0040E-03
            4118            4377     41.2545E-03     41.1905E-03
            4118            4378     42.4198E-03     41.9106E-03
            4119            4339     39.9635E-03     40.0040E-03
            4119            4340     39.7244E-03     40.6034E-03
            4119            4378     42.4198E-03     41.9106E-03
            4119            4379     42.9263E-03     43.8217E-03
            4120            4340     39.7244E-03     40.6034E-03
            4120            4341     40.8549E-03     40.7506E-03
            4120            4379     42.9263E-03     43.8217E-03
            4120            4380     45.9533E-03     44.1306E-03
            4121            4341     40.8549E-03     40.7506E-03
            4121            4342     40.7788E-03     39.3704E-03
            4121            4380     45.9533E-03     44.1306E-03
            4121            4381     45.4743E-03     43.6634E-03
            4122            4342     40.7788E-03     39.3704E-03
            4122            4343     38.8981E-03     38.9832E-03
            4122            4381     45.4743E-03     43.6634E-03
            4122            4382     41.4805E-03     43.7841E-03
            4123            4343     38.8981E-03     38.9832E-03
            4123            4344     38.8723E-03     38.6751E-03
            4123            4382     41.4805E-03     43.7841E-03
            4123            4383     42.8371E-03     42.5079E-03
            4124            4344     38.8723E-03     38.6751E-03
            4124            4345     39.6840E-03     38.3334E-03
            4124            4383     42.8371E-03     42.5079E-03
            4124            4384     44.8304E-03     43.9387E-03
            4125            4345     39.6840E-03     38.3334E-03
            4125            4346     40.1746E-03     39.2273E-03
            4125            4384     44.8304E-03     43.9387E-03
            4125            4385     45.5949E-03     46.4774E-03
            4126            4346     40.1746E-03     39.2273E-03
            4126            4347     40.5179E-03     39.8294E-03
            4126            4385     45.5949E-03     46.4774E-03
            4126            4386     47.4550E-03     47.6763E-03
            4127            4347     40.5179E-03     39.8294E-03
            4127            4348     40.9172E-03     40.4588E-03
            4127            4386     47.4550E-03     47.6763E-03
            4127            4387     49.2050E-03     49.1564E-03
            4128            4348     40.9172E-03     40.4588E-03
            4128            4349     41.1762E-03     41.2645E-03
            4128            4387     49.2050E-03     49.1564E-03
            4128            4388     50.6233E-03     50.7463E-03
            4129            4349     41.1762E-03     41.2645E-03
            4129            4350     41.5646E-03     41.8698E-03
            4129            4388     50.6233E-03     50.7463E-03
            4129            4389     52.6671E-03     51.9564E-03
            4130            4350     41.5646E-03     41.8698E-03
            4130            4351     41.7805E-03     42.0741E-03
            4130            4389     52.6671E-03     51.9564E-03
            4130            4390     54.1494E-03     52.9632E-03
            4131            4351     41.7805E-03     42.0741E-03
            4131            4352     41.1834E-03     42.9836E-03
            4131            4390     54.1494E-03     52.9632E-03
            4131            4391     54.2675E-03     56.0944E-03
            4132            4352     41.1834E-03     42.9836E-03
            4132            4353     43.0307E-03     42.8907E-03
            4132            4391     54.2675E-03     56.0944E-03
            4132            4392     59.0137E-03     55.6315E-03
            4133            4353     43.0307E-03     42.8907E-03
            4133            4354     42.6651E-03     40.5902E-03
            4133            4392     59.0137E-03     55.6315E-03
            4133            4393     57.3615E-03     54.4840E-03
            4134            4354     42.6651E-03     40.5902E-03
            4134            4355     39.8590E-03     40.8674E-03
            4134            4393     57.3615E-03     54.4840E-03
            4134            4394     50.3436E-03     55.7840E-03
            4135            4355     39.8590E-03     40.8674E-03
            4135            4356     40.9383E-03     40.7993E-03
            4135            4394     50.3436E-03     55.7840E-03
            4135            4395     54.5775E-03     53.5780E-03
            4136            4356     40.9383E-03     40.7993E-03
            4136            4357     42.3046E-03     40.3222E-03
            4136            4395     54.5775E-03     53.5780E-03
            4136            4396     58.1275E-03     55.8425E-03
            4137            4357     42.3046E-03     40.3222E-03
            4137            4358     42.9032E-03     41.9960E-03
            4137            4396     58.1275E-03     55.8425E-03
            4137            4397     58.1376E-03     59.8488E-03
            4138            4358     42.9032E-03     41.9960E-03
            4138            4359     43.3702E-03     42.7002E-03
            4138            4397     58.1376E-03     59.8488E-03
            4138            4398     60.8113E-03     60.6487E-03
            4139            4359     43.3702E-03     42.7002E-03
            4139            4360     43.7379E-03     43.6628E-03
            4139            4398     60.8113E-03     60.6487E-03
            4139            4399     62.6009E-03     62.7212E-03
            4140            4360     43.7379E-03     43.6628E-03
            4140            4361     44.1001E-03     44.5169E-03
            4140            4399     62.6009E-03     62.7212E-03
            4140            4400     64.6711E-03     64.2325E-03
            4141            4361     44.1001E-03     44.5169E-03
            4141            4362     44.1283E-03     44.6100E-03
            4141            4400     64.6711E-03     64.2325E-03
            4141            4401     66.2097E-03     65.0195E-03
            4142            4362     44.1283E-03     44.6100E-03
            4142            4363     43.0788E-03     45.6115E-03
            4142            4401     66.2097E-03     65.0195E-03
            4142            4402     65.7426E-03     68.6453E-03
            4143            4363     43.0788E-03     45.6115E-03
            4143            4364     45.2546E-03     45.1238E-03
            4143            4402     65.7426E-03     68.6453E-03
            4143            4403     71.4091E-03     67.0805E-03
            4144            4364     45.2546E-03     45.1238E-03
            4144            4365     44.4622E-03     41.9640E-03
            4144            4403     71.4091E-03     67.0805E-03
            4144            4404     68.5432E-03     64.9463E-03
            4145            4365     44.4622E-03     41.9640E-03
            4145            4366     37.0419E-03     37.1165E-03
            4145            4404     68.5432E-03     64.9463E-03
            4145            4405     59.3788E-03     63.6813E-03
            4146             630     40.4902E-03     44.0950E-03
            4146             631     62.3304E-03     68.1151E-03
            4146            4366     37.0419E-03     37.1165E-03
            4146            4405     59.3788E-03     63.6813E-03
            4147             189     18.9650E-03     18.8548E-03
            4147             190     16.9823E-03     16.8624E-03
            4147            4367     37.2046E-03     36.8463E-03
            4147            4406     33.2533E-03     33.0157E-03
            4148            4367     37.2046E-03     36.8463E-03
            4148            4368     37.3255E-03     37.2863E-03
            4148            4406     33.2533E-03     33.0157E-03
            4148            4407     33.3308E-03     33.6443E-03
            4149            4368     37.3255E-03     37.2863E-03
            4149            4369     37.7982E-03     37.4839E-03
            4149            4407     33.3308E-03     33.6443E-03
            4149            4408     34.5742E-03     33.9981E-03
            4150            4369     37.7982E-03     37.4839E-03
            4150            4370     37.7262E-03     37.2666E-03
            4150            4408     34.5742E-03     33.9981E-03
            4150            4409     34.9376E-03     34.4788E-03
            4151            4370     37.7262E-03     37.2666E-03
            4151            4371     36.7854E-03     36.8280E-03
            4151            4409     34.9376E-03     34.4788E-03
            4151            4410     33.4993E-03     34.2228E-03
            4152            4371     36.7854E-03     36.8280E-03
            4152            4372     36.7903E-03     36.5967E-03
            4152            4410     33.4993E-03     34.2228E-03
            4152            4411     33.5452E-03     33.9796E-03
            4153            4372     36.7903E-03     36.5967E-03
            4153            4373     37.4167E-03     37.2865E-03
            4153            4411     33.5452E-03     33.9796E-03
            4153            4412     34.7284E-03     35.6170E-03
            4154            4373     37.4167E-03     37.2865E-03
            4154            4374     38.0978E-03     38.2587E-03
            4154            4412     34.7284E-03     35.6170E-03
            4154            4413     36.3549E-03     37.3727E-03
            4155            4374     38.0978E-03     38.2587E-03
            4155            4375     39.0000E-03     39.2031E-03
            4155            4413     36.3549E-03     37.3727E-03
            4155            4414     38.3280E-03     38.8098E-03
            4156            4375     39.0000E-03     39.2031E-03
            4156            4376     39.9345E-03     40.2647E-03
            4156            4414     38.3280E-03     38.8098E-03
            4156            4415     40.2800E-03     40.6058E-03
            4157            4376     39.9345E-03     40.2647E-03
            4157            4377     41.2545E-03     41.1905E-03
            4157            4415     40.2800E-03     40.6058E-03
            4157            4416     42.7632E-03     42.3465E-03
            4158            4377     41.2545E-03     41.1905E-03
            4158            4378     42.4198E-03     41.9106E-03
            4158            4416     42.7632E-03     42.3465E-03
            4158            4417     45.0551E-03     44.0561E-03
            4159            4378     42.4198E-03     41.9106E-03
            4159            4379     42.9263E-03     43.8217E-03
            4159            4417     45.0551E-03     44.0561E-03
            4159            4418     46.6210E-03     47.9433E-03
            4160            4379     42.9263E-03     43.8217E-03
            4160            4380     45.9533E-03     44.1306E-03
            4160            4418     46.6210E-03     47.9433E-03
            4160            4419     52.9647E-03     48.7800E-03
            4161            4380     45.9533E-03     44.1306E-03
            4161            4381     45.4743E-03     43.6634E-03
            4161            4419     52.9647E-03     48.7800E-03
            4161            4420     52.5489E-03     50.5155E-03
            4162            4381     45.4743E-03     43.6634E-03
            4162            4382     41.4805E-03     43.7841E-03
            4162            4420     52.5489E-03     50.5155E-03
            4162            4421     46.0195E-03     52.6222E-03
            4163            4382     41.4805E-03     43.7841E-03
            4163            4383     42.8371E-03     42.5079E-03
            4163            4421     46.0195E-03     52.6222E-03
            4163            4422     50.1485E-03     50.1711E-03
            4164            4383     42.8371E-03     42.5079E-03
            4164            4384     44.8304E-03     43.9387E-03
            4164            4422     50.1485E-03     50.1711E-03
            4164            4423     53.5508E-03     52.8822E-03
            4165            4384     44.8304E-03     43.9387E-03
            4165            4385     45.5949E-03     46.4774E-03
            4165            4423     53.5508E-03     52.8822E-03
            4165            4424     53.7331E-03     56.4016E-03
            4166            4385     45.5949E-03     46.4774E-03
            4166            4386     47.4550E-03     47.6763E-03
            4166            4424     53.7331E-03     56.4016E-03
            4166            4425     56.7561E-03     57.1427E-03
            4167            4386     47.4550E-03     47.6763E-03
            4167            4387     49.2050E-03     49.1564E-03
            4167            4425     56.7561E-03     57.1427E-03
            4167            4426     59.2701E-03     59.0929E-03
            4168            4387     49.2050E-03     49.1564E-03
            4168            4388     50.6233E-03     50.7463E-03
            4168            4426     59.2701E-03     59.0929E-03
            4168            4427     61.4802E-03     61.6677E-03
            4169            4388     50.6233E-03     50.7463E-03
            4169            4389     52.6671E-03     51.9564E-03
            4169            4427     61.4802E-03     61.6677E-03
            4169            4428     65.0387E-03     63.8223E-03
            4170            4389     52.6671E-03     51.9564E-03
            4170            4390     54.1494E-03     52.9632E-03
            4170            4428     65.0387E-03     63.8223E-03
            4170            4429     68.0373E-03     66.1396E-03
            4171            4390     54.1494E-03     52.9632E-03
            4171            4391     54.2675E-03     56.0944E-03
            4171            4429     68.0373E-03     66.1396E-03
            4171            4430     69.5096E-03     72.2738E-03
            4172            4391     54.2675E-03     56.0944E-03
            4172            4392     59.0137E-03     55.6315E-03
            4172            4430     69.5096E-03     72.2738E-03
            4172            4431     79.1878E-03     72.2890E-03
            4173            4392     59.0137E-03     55.6315E-03
            4173            4393     57.3615E-03     54.4840E-03
            4173            4431     79.1878E-03     72.2890E-03
            4173            4432     77.0015E-03     73.9114E-03
            4174            4393     57.3615E-03     54.4840E-03
            4174            4394     50.3436E-03     55.7840E-03
            4174            4432     77.0015E-03     73.9114E-03
            4174            4433     65.2248E-03     78.0472E-03
            4175            4394     50.3436E-03     55.7840E-03
            4175            4395     54.5775E-03     53.5780E-03
            4175            4433     65.2248E-03     78.0472E-03
            4175            4434     74.0457E-03     73.0490E-03
            4176            4395     54.5775E-03     53.5780E-03
            4176            4396     58.1275E-03     55.8425E-03
            4176            4434     74.0457E-03     73.0490E-03
            4176            4435     79.4886E-03     76.3477E-03
            4177            4396     58.1275E-03     55.8425E-03
            4177            4397     58.1376E-03     59.8488E-03
            4177            4435     79.4886E-03     76.3477E-03
            4177            4436     77.3038E-03     81.1528E-03
            4178            4397     58.1376E-03     59.8488E-03
            4178            4398     60.8113E-03     60.6487E-03
            4178            4436     77.3038E-03     81.1528E-03
            4178            4437     80.9397E-03     80.3981E-03
            4179            4398     60.8113E-03     60.6487E-03
            4179            4399     62.6009E-03     62.7212E-03
            4179            4437     80.9397E-03     80.3981E-03
            4179            4438     83.2080E-03     82.9811E-03
            4180            4399     62.6009E-03     62.7212E-03
            4180            4400     64.6711E-03     64.2325E-03
            4180            4438     83.2080E-03     82.9811E-03
            4180            4439     86.3534E-03     85.1868E-03
            4181            4400     64.6711E-03     64.2325E-03
            4181            4401     66.2097E-03     65.0195E-03
            4181            4439     86.3534E-03     85.1868E-03
            4181            4440     89.5018E-03     87.0157E-03
            4182            4401     66.2097E-03     65.0195E-03
            4182            4402     65.7426E-03     68.6453E-03
            4182            4440     89.5018E-03     87.0157E-03
            4182            4441     90.4669E-03     94.3286E-03
            4183            4402     65.7426E-03     68.6453E-03
            4183            4403     71.4091E-03     67.0805E-03
            4183            4441     90.4669E-03     94.3286E-03
            4183            4442     102.119E-03     93.2550E-03
            4184            4403     71.4091E-03     67.0805E-03
            4184            4404     68.5432E-03     64.9463E-03
            4184            4442     102.119E-03     93.2550E-03
            4184            4443     98.2852E-03     94.2769E-03
            4185            4404     68.5432E-03     64.9463E-03
            4185            4405     59.3788E-03     63.6813E-03
            4185            4443     98.2852E-03     94.2769E-03
            4185            4444     84.8621E-03     94.9477E-03
            4186             631     62.3304E-03     68.1151E-03
            4186             632     86.3491E-03     95.4661E-03
            4186            4405     59.3788E-03     63.6813E-03
            4186            4444     84.8621E-03     94.9477E-03
            4187             190     16.9823E-03     16.8624E-03
            4187             191     13.9629E-03     13.8861E-03
            4187            4406     33.2533E-03     33.0157E-03
            4187            4445     27.2492E-03     27.3755E-03
            4188            4406     33.2533E-03     33.0157E-03
            4188            4407     33.3308E-03     33.6443E-03
            4188            4445     27.2492E-03     27.3755E-03
            4188            4446     27.6555E-03     28.7681E-03
            4189            4407     33.3308E-03     33.6443E-03
            4189            4408     34.5742E-03     33.9981E-03
            4189            4446     27.6555E-03     28.7681E-03
            4189            4447     29.9930E-03     28.9588E-03
            4190            4408     34.5742E-03     33.9981E-03
            4190            4409     34.9376E-03     34.4788E-03
            4190            4447     29.9930E-03     28.9588E-03
            4190            4448     30.5799E-03     30.1185E-03
            4191            4409     34.9376E-03     34.4788E-03
            4191            4410     33.4993E-03     34.2228E-03
            4191            4448     30.5799E-03     30.1185E-03
            4191            4449     29.1276E-03     31.4288E-03
            4192            4410     33.4993E-03     34.2228E-03
            4192            4411     33.5452E-03     33.9796E-03
            4192            4449     29.1276E-03     31.4288E-03
            4192            4450     30.4208E-03     31.6250E-03
            4193            4411     33.5452E-03     33.9796E-03
            4193            4412     34.7284E-03     35.6170E-03
            4193            4450     30.4208E-03     31.6250E-03
            4193            4451     32.2747E-03     33.6259E-03
            4194            4412     34.7284E-03     35.6170E-03
            4194            4413     36.3549E-03     37.3727E-03
            4194            4451     32.2747E-03     33.6259E-03
            4194            4452     34.2428E-03     35.4546E-03
            4195            4413     36.3549E-03     37.3727E-03
            4195            4414     38.3280E-03     38.8098E-03
            4195            4452     34.2428E-03     35.4546E-03
            4195            4453     37.0894E-03     37.2055E-03
            4196            4414     38.3280E-03     38.8098E-03
            4196            4415     40.2800E-03     40.6058E-03
            4196            4453     37.0894E-03     37.2055E-03
            4196            4454     39.7717E-03     40.3199E-03
            4197            4415     40.2800E-03     40.6058E-03
            4197            4416     42.7632E-03     42.3465E-03
            4197            4454     39.7717E-03     40.3199E-03
            4197            4455     43.6253E-03     43.4484E-03
            4198            4416     42.7632E-03     42.3465E-03
            4198            4417     45.0551E-03     44.0561E-03
            4198            4455     43.6253E-03     43.4484E-03
            4198            4456     47.2058E-03     46.6847E-03
            4199            4417     45.0551E-03     44.0561E-03
            4199            4418     46.6210E-03     47.9433E-03
            4199            4456     47.2058E-03     46.6847E-03
            4199            4457     49.7166E-03     53.1819E-03
            4200            4418     46.6210E-03     47.9433E-03
            4200            4419     52.9647E-03     48.7800E-03
            4200            4457     49.7166E-03     53.1819E-03
            4200            4458     59.7239E-03     53.9801E-03
            4201            4419     52.9647E-03     48.7800E-03
            4201            4420     52.5489E-03     50.5155E-03
            4201            4458     59.7239E-03     53.9801E-03
            4201            4459     59.7704E-03     58.3635E-03
            4202            4420     52.5489E-03     50.5155E-03
            4202            4421     46.0195E-03     52.6222E-03
            4202            4459     59.7704E-03     58.3635E-03
            4202            4460     51.5533E-03     64.6460E-03
            4203            4421     46.0195E-03     52.6222E-03
            4203            4422     50.1485E-03     50.1711E-03
            4203            4460     51.5533E-03     64.6460E-03
            4203            4461     59.2889E-03     60.0953E-03
            4204            4422     50.1485E-03     50.1711E-03
            4204            4423     53.5508E-03     52.8822E-03
            4204            4461     59.2889E-03     60.0953E-03
            4204            4462     63.2904E-03     61.7016E-03
            4205            4423     53.5508E-03     52.8822E-03
            4205            4424     53.7331E-03     56.4016E-03
            4205            4462     63.2904E-03     61.7016E-03
            4205            4463     61.3617E-03     65.1582E-03
            4206            4424     53.7331E-03     56.4016E-03
            4206            4425     56.7561E-03     57.1427E-03
            4206            4463     61.3617E-03     65.1582E-03
            4206            4464     64.9149E-03     65.4220E-03
            4207            4425     56.7561E-03     57.1427E-03
            4207            4426     59.2701E-03     59.0929E-03
            4207            4464     64.9149E-03     65.4220E-03
            4207            4465     67.8696E-03     68.4460E-03
            4208            4426     59.2701E-03     59.0929E-03
            4208            4427     61.4802E-03     61.6677E-03
            4208            4465     67.8696E-03     68.4460E-03
            4208            4466     70.5546E-03     72.4547E-03
            4209            4427     61.4802E-03     61.6677E-03
            4209            4428     65.0387E-03     63.8223E-03
            4209            4466     70.5546E-03     72.4547E-03
            4209            4467     75.6602E-03     75.8754E-03
            4210            4428     65.0387E-03     63.8223E-03
            4210            4429     68.0373E-03     66.1396E-03
            4210            4467     75.6602E-03     75.8754E-03
            4210            4468     79.9020E-03     79.4991E-03
            4211            4429     68.0373E-03     66.1396E-03
            4211            4430     69.5096E-03     72.2738E-03
            4211            4468     79.9020E-03     79.4991E-03
            4211            4469     82.3290E-03     88.5466E-03
            4212            4430     69.5096E-03     72.2738E-03
            4212            4431     79.1878E-03     72.2890E-03
            4212            4469     82.3290E-03     88.5466E-03
            4212            4470     97.3198E-03     88.1721E-03
            4213            4431     79.1878E-03     72.2890E-03
            4213            4432     77.0015E-03     73.9114E-03
            4213            4470     97.3198E-03     88.1721E-03
            4213            4471     95.6787E-03     93.5960E-03
            4214            4432     77.0015E-03     73.9114E-03
            4214            4433     65.2248E-03     78.0472E-03
            4214            4471     95.6787E-03     93.5960E-03
            4214            4472     80.4215E-03     103.643E-03
            4215            4433     65.2248E-03     78.0472E-03
            4215            4434     74.0457E-03     73.0490E-03
            4215            4472     80.4215E-03     103.643E-03
            4215            4473     94.1684E-03     94.1731E-03
            4216            4434     74.0457E-03     73.0490E-03
            4216            4435     79.4886E-03     76.3477E-03
            4216            4473     94.1684E-03     94.1731E-03
            4216            4474     99.8310E-03     94.8875E-03
            4217            4435     79.4886E-03     76.3477E-03
            4217            4436     77.3038E-03     81.1528E-03
            4217            4474     99.8310E-03     94.8875E-03
            4217            4475     93.5350E-03     99.5878E-03
            4218            4436     77.3038E-03     81.1528E-03
            4218            4437     80.9397E-03     80.3981E-03
            4218            4475     93.5350E-03     99.5878E-03
            4218            4476     97.4694E-03     97.3668E-03
            4219            4437     80.9397E-03     80.3981E-03
            4219            4438     83.2080E-03     82.9811E-03
            4219            4476     97.4694E-03     97.3668E-03
            4219            4477     99.6486E-03     101.310E-03
            4220            4438     83.2080E-03     82.9811E-03
            4220            4439     86.3534E-03     85.1868E-03
            4220            4477     99.6486E-03     101.310E-03
            4220            4478     103.757E-03     104.618E-03
            4221            4439     86.3534E-03     85.1868E-03
            4221            4440     89.5018E-03     87.0157E-03
            4221            4478     103.757E-03     104.618E-03
            4221            4479     108.308E-03     107.401E-03
            4222            4440     89.5018E-03     87.0157E-03
            4222            4441     90.4669E-03     94.3286E-03
            4222            4479     108.308E-03     107.401E-03
            4222            4480     110.219E-03     118.277E-03
            4223            4441     90.4669E-03     94.3286E-03
            4223            4442     102.119E-03     93.2550E-03
            4223            4480     110.219E-03     118.277E-03
            4223            4481     128.711E-03     116.830E-03
            4224            4442     102.119E-03     93.2550E-03
            4224            4443     98.2852E-03     94.2769E-03
            4224            4481     128.711E-03     116.830E-03
            4224            4482     125.657E-03     122.932E-03
            4225            4443     98.2852E-03     94.2769E-03
            4225            4444     84.8621E-03     94.9477E-03
            4225            4482     125.657E-03     122.932E-03
            4225            4483     107.810E-03     125.365E-03
            4226             632     86.3491E-03     95.4661E-03
            4226             633     107.903E-03     123.164E-03
            4226            4444     84.8621E-03     94.9477E-03
            4226            4483     107.810E-03     125.365E-03
            4227             191     13.9629E-03     13.8861E-03
            4227             192     10.0314E-03     10.3331E-03
            4227            4445     27.2492E-03     27.3755E-03
            4227            4484     19.7811E-03     20.0741E-03
            4228            4445     27.2492E-03     27.3755E-03
            4228            4446     27.6555E-03     28.7681E-03
            4228            4484     19.7811E-03     20.0741E-03
            4228            4485     20.2587E-03     21.2951E-03
            4229            4446     27.6555E-03     28.7681E-03
            4229            4447     29.9930E-03     28.9588E-03
            4229            4485     20.2587E-03     21.2951E-03
            4229            4486     24.4237E-03     22.2027E-03
            4230            4447     29.9930E-03     28.9588E-03
            4230            4448     30.5799E-03     30.1185E-03
            4230            4486     24.4237E-03     22.2027E-03
            4230            4487     25.5324E-03     25.8590E-03
            4231            4448     30.5799E-03     30.1185E-03
            4231            4449     29.1276E-03     31.4288E-03
            4231            4487     25.5324E-03     25.8590E-03
            4231            4488     24.7945E-03     28.9831E-03
            4232            4449     29.1276E-03     31.4288E-03
            4232            4450     30.4208E-03     31.6250E-03
            4232            4488     24.7945E-03     28.9831E-03
            4232            4489     28.2899E-03     28.7597E-03
            4233            4450     30.4208E-03     31.6250E-03
            4233            4451     32.2747E-03     33.6259E-03
            4233            4489     28.2899E-03     28.7597E-03
            4233            4490     29.4944E-03     30.1489E-03
            4234            4451     32.2747E-03     33.6259E-03
            4234            4452     34.2428E-03     35.4546E-03
            4234            4490     29.4944E-03     30.1489E-03
            4234            4491     31.3067E-03     32.3501E-03
            4235            4452     34.2428E-03     35.4546E-03
            4235            4453     37.0894E-03     37.2055E-03
            4235            4491     31.3067E-03     32.3501E-03
            4235            4492     35.2149E-03     35.5928E-03
            4236            4453     37.0894E-03     37.2055E-03
            4236            4454     39.7717E-03     40.3199E-03
            4236            4492     35.2149E-03     35.5928E-03
            4236            4493     38.9375E-03     40.5413E-03
            4237            4454     39.7717E-03     40.3199E-03
            4237            4455     43.6253E-03     43.4484E-03
            4237            4493     38.9375E-03     40.5413E-03
            4237            4494     44.3306E-03     45.4353E-03
            4238            4455     43.6253E-03     43.4484E-03
            4238            4456     47.2058E-03     46.6847E-03
            4238            4494     44.3306E-03     45.4353E-03
            4238            4495     49.6916E-03     50.1239E-03
            4239            4456     47.2058E-03     46.6847E-03
            4239            4457     49.7166E-03     53.1819E-03
            4239            4495     49.6916E-03     50.1239E-03
            4239            4496     52.9699E-03     59.1015E-03
            4240            4457     49.7166E-03     53.1819E-03
            4240            4458     59.7239E-03     53.9801E-03
            4240            4496     52.9699E-03     59.1015E-03
            4240            4497     66.1844E-03     60.9554E-03
            4241            4458     59.7239E-03     53.9801E-03
            4241            4459     59.7704E-03     58.3635E-03
            4241            4497     66.1844E-03     60.9554E-03
            4241            4498     66.7183E-03     66.6752E-03
            4242            4459     59.7704E-03     58.3635E-03
            4242            4460     51.5533E-03     64.6460E-03
            4242            4498     66.7183E-03     66.6752E-03
            4242            4499     57.3107E-03     74.6370E-03
            4243            4460     51.5533E-03     64.6460E-03
            4243            4461     59.2889E-03     60.0953E-03
            4243            4499     57.3107E-03     74.6370E-03
            4243            4500     67.2500E-03     67.5473E-03
            4244            4461     59.2889E-03     60.0953E-03
            4244            4462     63.2904E-03     61.7016E-03
            4244            4500     67.2500E-03     67.5473E-03
            4244            4501     69.6818E-03     67.7416E-03
            4245            4462     63.2904E-03     61.7016E-03
            4245            4463     61.3617E-03     65.1582E-03
            4245            4501     69.6818E-03     67.7416E-03
            4245            4502     66.4166E-03     71.6015E-03
            4246            4463     61.3617E-03     65.1582E-03
            4246            4464     64.9149E-03     65.4220E-03
            4246            4502     66.4166E-03     71.6015E-03
            4246            4503     71.1720E-03     72.9131E-03
            4247            4464     64.9149E-03     65.4220E-03
            4247            4465     67.8696E-03     68.4460E-03
            4247            4503     71.1720E-03     72.9131E-03
            4247            4504     75.0514E-03     77.6491E-03
            4248            4465     67.8696E-03     68.4460E-03
            4248            4466     70.5546E-03     72.4547E-03
            4248            4504     75.0514E-03     77.6491E-03
            4248            4505     78.6298E-03     82.9023E-03
            4249            4466     70.5546E-03     72.4547E-03
            4249            4467     75.6602E-03     75.8754E-03
            4249            4505     78.6298E-03     82.9023E-03
            4249            4506     84.8744E-03     87.7483E-03
            4250            4467     75.6602E-03     75.8754E-03
            4250            4468     79.9020E-03     79.4991E-03
            4250            4506     84.8744E-03     87.7483E-03
            4250            4507     90.5246E-03     92.1025E-03
            4251            4468     79.9020E-03     79.4991E-03
            4251            4469     82.3290E-03     88.5466E-03
            4251            4507     90.5246E-03     92.1025E-03
            4251            4508     92.8411E-03     103.346E-03
            4252            4469     82.3290E-03     88.5466E-03
            4252            4470     97.3198E-03     88.1721E-03
            4252            4508     92.8411E-03     103.346E-03
            4252            4509     111.627E-03     103.619E-03
            4253            4470     97.3198E-03     88.1721E-03
            4253            4471     95.6787E-03     93.5960E-03
            4253            4509     111.627E-03     103.619E-03
            4253            4510     111.019E-03     110.775E-03
            4254            4471     95.6787E-03     93.5960E-03
            4254            4472     80.4215E-03     103.643E-03
            4254            4510     111.019E-03     110.775E-03
            4254            4511     93.7400E-03     123.563E-03
            4255            4472     80.4215E-03     103.643E-03
            4255            4473     94.1684E-03     94.1731E-03
            4255            4511     93.7400E-03     123.563E-03
            4255            4512     110.308E-03     110.405E-03
            4256            4473     94.1684E-03     94.1731E-03
            4256            4474     99.8310E-03     94.8875E-03
            4256            4512     110.308E-03     110.405E-03
            4256            4513     113.676E-03     108.923E-03
            4257            4474     99.8310E-03     94.8875E-03
            4257            4475     93.5350E-03     99.5878E-03
            4257            4513     113.676E-03     108.923E-03
            4257            4514     104.685E-03     114.125E-03
            4258            4475     93.5350E-03     99.5878E-03
            4258            4476     97.4694E-03     97.3668E-03
            4258            4514     104.685E-03     114.125E-03
            4258            4515     110.507E-03     112.526E-03
            4259            4476     97.4694E-03     97.3668E-03
            4259            4477     99.6486E-03     101.310E-03
            4259            4515     110.507E-03     112.526E-03
            4259            4516     112.968E-03     118.333E-03
            4260            4477     99.6486E-03     101.310E-03
            4260            4478     103.757E-03     104.618E-03
            4260            4516     112.968E-03     118.333E-03
            4260            4517     118.071E-03     122.935E-03
            4261            4478     103.757E-03     104.618E-03
            4261            4479     108.308E-03     107.401E-03
            4261            4517     118.071E-03     122.935E-03
            4261            4518     124.255E-03     126.244E-03
            4262            4479     108.308E-03     107.401E-03
            4262            4480     110.219E-03     118.277E-03
            4262            4518     124.255E-03     126.244E-03
            4262            4519     125.499E-03     139.476E-03
            4263            4480     110.219E-03     118.277E-03
            4263            4481     128.711E-03     116.830E-03
            4263            4519     125.499E-03     139.476E-03
            4263            4520     148.800E-03     138.580E-03
            4264            4481     128.711E-03     116.830E-03
            4264            4482     125.657E-03     122.932E-03
            4264            4520     148.800E-03     138.580E-03
            4264            4521     147.474E-03     147.143E-03
            4265            4482     125.657E-03     122.932E-03
            4265            4483     107.810E-03     125.365E-03
            4265            4521     147.474E-03     147.143E-03
            4265            4522     125.951E-03     148.969E-03
            4266             633     107.903E-03     123.164E-03
            4266             634     126.612E-03     145.871E-03
            4266            4483     107.810E-03     125.365E-03
            4266            4522     125.951E-03     148.969E-03
            4267             192     10.0314E-03     10.3331E-03
            4267             193     6.50221E-03     8.28589E-03
            4267            4484     19.7811E-03     20.0741E-03
            4267            4523     10.9696E-03     12.4144E-03
            4268            4484     19.7811E-03     20.0741E-03
            4268            4485     20.2587E-03     21.2951E-03
            4268            4523     10.9696E-03     12.4144E-03
            4268            4524     11.0624E-03     11.7645E-03
            4269            4485     20.2587E-03     21.2951E-03
            4269            4486     24.4237E-03     22.2027E-03
            4269            4524     11.0624E-03     11.7645E-03
            4269            4525     19.3601E-03     16.4911E-03
            4270            4486     24.4237E-03     22.2027E-03
            4270            4487     25.5324E-03     25.8590E-03
            4270            4525     19.3601E-03     16.4911E-03
            4270            4526     24.8825E-03     25.7265E-03
            4271            4487     25.5324E-03     25.8590E-03
            4271            4488     24.7945E-03     28.9831E-03
            4271            4526     24.8825E-03     25.7265E-03
            4271            4527     22.6992E-03     26.5262E-03
            4272            4488     24.7945E-03     28.9831E-03
            4272            4489     28.2899E-03     28.7597E-03
            4272            4527     22.6992E-03     26.5262E-03
            4272            4528     22.7638E-03     21.3193E-03
            4273            4489     28.2899E-03     28.7597E-03
            4273            4490     29.4944E-03     30.1489E-03
            4273            4528     22.7638E-03     21.3193E-03
            4273            4529     24.8662E-03     24.2800E-03
            4274            4490     29.4944E-03     30.1489E-03
            4274            4491     31.3067E-03     32.3501E-03
            4274            4529     24.8662E-03     24.2800E-03
            4274            4530     28.9685E-03     29.0839E-03
            4275            4491     31.3067E-03     32.3501E-03
            4275            4492     35.2149E-03     35.5928E-03
            4275            4530     28.9685E-03     29.0839E-03
            4275            4531     34.5449E-03     34.7990E-03
            4276            4492     35.2149E-03     35.5928E-03
            4276            4493     38.9375E-03     40.5413E-03
            4276            4531     34.5449E-03     34.7990E-03
            4276            4532     40.1672E-03     41.0359E-03
            4277            4493     38.9375E-03     40.5413E-03
            4277            4494     44.3306E-03     45.4353E-03
            4277            4532     40.1672E-03     41.0359E-03
            4277            4533     46.4097E-03     47.4295E-03
            4278            4494     44.3306E-03     45.4353E-03
            4278            4495     49.6916E-03     50.1239E-03
            4278            4533     46.4097E-03     47.4295E-03
            4278            4534     53.2679E-03     52.9882E-03
            4279            4495     49.6916E-03     50.1239E-03
            4279            4496     52.9699E-03     59.1015E-03
            4279            4534     53.2679E-03     52.9882E-03
            4279            4535     57.7016E-03     62.6670E-03
            4280            4496     52.9699E-03     59.1015E-03
            4280            4497     66.1844E-03     60.9554E-03
            4280            4535     57.7016E-03     62.6670E-03
            4280            4536     71.3022E-03     66.9761E-03
            4281            4497     66.1844E-03     60.9554E-03
            4281            4498     66.7183E-03     66.6752E-03
            4281            4536     71.3022E-03     66.9761E-03
            4281            4537     75.7872E-03     75.3151E-03
            4282            4498     66.7183E-03     66.6752E-03
            4282            4499     57.3107E-03     74.6370E-03
            4282            4537     75.7872E-03     75.3151E-03
            4282            4538     64.8707E-03     77.7453E-03
            4283            4499     57.3107E-03     74.6370E-03
            4283            4500     67.2500E-03     67.5473E-03
            4283            4538     64.8707E-03     77.7453E-03
            4283            4539     68.5239E-03     65.7747E-03
            4284            4500     67.2500E-03     67.5473E-03
            4284            4501     69.6818E-03     67.7416E-03
            4284            4539     68.5239E-03     65.7747E-03
            4284            4540     71.0530E-03     68.2159E-03
            4285            4501     69.6818E-03     67.7416E-03
            4285            4502     66.4166E-03     71.6015E-03
            4285            4540     71.0530E-03     68.2159E-03
            4285            4541     70.9252E-03     74.1450E-03
            4286            4502     66.4166E-03     71.6015E-03
            4286            4503     71.1720E-03     72.9131E-03
            4286            4541     70.9252E-03     74.1450E-03
            4286            4542     77.2871E-03     77.7925E-03
            4287            4503     71.1720E-03     72.9131E-03
            4287            4504     75.0514E-03     77.6491E-03
            4287            4542     77.2871E-03     77.7925E-03
            4287            4543     82.3498E-03     83.8850E-03
            4288            4504     75.0514E-03     77.6491E-03
            4288            4505     78.6298E-03     82.9023E-03
            4288            4543     82.3498E-03     83.8850E-03
            4288            4544     87.5002E-03     89.7151E-03
            4289            4505     78.6298E-03     82.9023E-03
            4289            4506     84.8744E-03     87.7483E-03
            4289            4544     87.5002E-03     89.7151E-03
            4289            4545     93.6785E-03     95.6977E-03
            4290            4506     84.8744E-03     87.7483E-03
            4290            4507     90.5246E-03     92.1025E-03
            4290            4545     93.6785E-03     95.6977E-03
            4290            4546     100.483E-03     100.431E-03
            4291            4507     90.5246E-03     92.1025E-03
            4291            4508     92.8411E-03     103.346E-03
            4291            4546     100.483E-03     100.431E-03
            4291            4547     103.423E-03     111.466E-03
            4292            4508     92.8411E-03     103.346E-03
            4292            4509     111.627E-03     103.619E-03
            4292            4547     103.423E-03     111.466E-03
            4292            4548     120.931E-03     114.223E-03
            4293            4509     111.627E-03     103.619E-03
            4293            4510     111.019E-03     110.775E-03
            4293            4548     120.931E-03     114.223E-03
            4293            4549     125.074E-03     123.503E-03
            4294            4510     111.019E-03     110.775E-03
            4294            4511     93.7400E-03     123.563E-03
            4294            4549     125.074E-03     123.503E-03
            4294            4550     108.282E-03     130.396E-03
            4295            4511     93.7400E-03     123.563E-03
            4295            4512     110.308E-03     110.405E-03
            4295            4550     108.282E-03     130.396E-03
            4295            4551     117.156E-03     113.422E-03
            4296            4512     110.308E-03     110.405E-03
            4296            4513     113.676E-03     108.923E-03
            4296            4551     117.156E-03     113.422E-03
            4296            4552     119.507E-03     114.340E-03
            4297            4513     113.676E-03     108.923E-03
            4297            4514     104.685E-03     114.125E-03
            4297            4552     119.507E-03     114.340E-03
            4297            4553     114.818E-03     121.185E-03
            4298            4514     104.685E-03     114.125E-03
            4298            4515     110.507E-03     112.526E-03
            4298            4553     114.818E-03     121.185E-03
            4298            4554     122.136E-03     122.619E-03
            4299            4515     110.507E-03     112.526E-03
            4299            4516     112.968E-03     118.333E-03
            4299            4554     122.136E-03     122.619E-03
            4299            4555     126.178E-03     129.280E-03
            4300            4516     112.968E-03     118.333E-03
            4300            4517     118.071E-03     122.935E-03
            4300            4555     126.178E-03     129.280E-03
            4300            4556     131.715E-03     134.951E-03
            4301            4517     118.071E-03     122.935E-03
            4301            4518     124.255E-03     126.244E-03
            4301            4556     131.715E-03     134.951E-03
            4301            4557     138.802E-03     138.796E-03
            4302            4518     124.255E-03     126.244E-03
            4302            4519     125.499E-03     139.476E-03
            4302            4557     138.802E-03     138.796E-03
            4302            4558     140.562E-03     151.128E-03
            4303            4519     125.499E-03     139.476E-03
            4303            4520     148.800E-03     138.580E-03
            4303            4558     140.562E-03     151.128E-03
            4303            4559     161.422E-03     152.766E-03
            4304            4520     148.800E-03     138.580E-03
            4304            4521     147.474E-03     147.143E-03
            4304            4559     161.422E-03     152.766E-03
            4304            4560     165.597E-03     163.119E-03
            4305            4521     147.474E-03     147.143E-03
            4305            4522     125.951E-03     148.969E-03
            4305            4560     165.597E-03     163.119E-03
            4305            4561     144.006E-03     162.796E-03
            4306             634     126.612E-03     145.871E-03
            4306             635     141.774E-03     155.295E-03
            4306            4522     125.951E-03     148.969E-03
            4306            4561     144.006E-03     162.796E-03
            4307              13     5.06469E-03     8.06258E-03
            4307             193     6.50221E-03     8.28589E-03
            4307             674     6.03880E-03     8.72061E-03
            4307            4523     10.9696E-03     12.4144E-03
            4308             673     6.16676E-03     7.02394E-03
            4308             674     6.03880E-03     8.72061E-03
            4308            4523     10.9696E-03     12.4144E-03
            4308            4524     11.0624E-03     11.7645E-03
            4309             672     17.3168E-03     14.6419E-03
            4309             673     6.16676E-03     7.02394E-03
            4309            4524     11.0624E-03     11.7645E-03
            4309            4525     19.3601E-03     16.4911E-03
            4310             671     26.4965E-03     27.1900E-03
            4310             672     17.3168E-03     14.6419E-03
            4310            4525     19.3601E-03     16.4911E-03
            4310            4526     24.8825E-03     25.7265E-03
            4311             670     22.3620E-03     25.1561E-03
            4311             671     26.4965E-03     27.1900E-03
            4311            4526     24.8825E-03     25.7265E-03
            4311            4527     22.6992E-03     26.5262E-03
            4312             669     18.0025E-03     15.7065E-03
            4312             670     22.3620E-03     25.1561E-03
            4312            4527     22.6992E-03     26.5262E-03
            4312            4528     22.7638E-03     21.3193E-03
            4313             668     22.0459E-03     20.7467E-03
            4313             669     18.0025E-03     15.7065E-03
            4313            4528     22.7638E-03     21.3193E-03
            4313            4529     24.8662E-03     24.2800E-03
            4314             667     28.3216E-03     27.4939E-03
            4314             668     22.0459E-03     20.7467E-03
            4314            4529     24.8662E-03     24.2800E-03
            4314            4530     28.9685E-03     29.0839E-03
            4315             666     34.9111E-03     34.4842E-03
            4315             667     28.3216E-03     27.4939E-03
            4315            4530     28.9685E-03     29.0839E-03
            4315            4531     34.5449E-03     34.7990E-03
            4316             665     41.6322E-03     41.1180E-03
            4316             666     34.9111E-03     34.4842E-03
            4316            4531     34.5449E-03     34.7990E-03
            4316            4532     40.1672E-03     41.0359E-03
            4317             664     48.0459E-03     48.1288E-03
            4317             665     41.6322E-03     41.1180E-03
            4317            4532     40.1672E-03     41.0359E-03
            4317            4533     46.4097E-03     47.4295E-03
            4318             663     55.3444E-03     53.9465E-03
            4318             664     48.0459E-03     48.1288E-03
            4318            4533     46.4097E-03     47.4295E-03
            4318            4534     53.2679E-03     52.9882E-03
            4319             662     60.5806E-03     63.4016E-03
            4319             663     55.3444E-03     53.9465E-03
            4319            4534     53.2679E-03     52.9882E-03
            4319            4535     57.7016E-03     62.6670E-03
            4320             661     73.1156E-03     68.7908E-03
            4320             662     60.5806E-03     63.4016E-03
            4320            4535     57.7016E-03     62.6670E-03
            4320            4536     71.3022E-03     66.9761E-03
            4321             660     81.0818E-03     79.4876E-03
            4321             661     73.1156E-03     68.7908E-03
            4321            4536     71.3022E-03     66.9761E-03
            4321            4537     75.7872E-03     75.3151E-03
            4322             659     69.4006E-03     77.4647E-03
            4322             660     81.0818E-03     79.4876E-03
            4322            4537     75.7872E-03     75.3151E-03
            4322            4538     64.8707E-03     77.7453E-03
            4323             658     66.5551E-03     61.6299E-03
            4323             659     69.4006E-03     77.4647E-03
            4323            4538     64.8707E-03     77.7453E-03
            4323            4539     68.5239E-03     65.7747E-03
            4324             657     70.6626E-03     66.4048E-03
            4324             658     66.5551E-03     61.6299E-03
            4324            4539     68.5239E-03     65.7747E-03
            4324            4540     71.0530E-03     68.2159E-03
            4325             656     73.5768E-03     73.9357E-03
            4325             657     70.6626E-03     66.4048E-03
            4325            4540     71.0530E-03     68.2159E-03
            4325            4541     70.9252E-03     74.1450E-03
            4326             655     80.5520E-03     78.9523E-03
            4326             656     73.5768E-03     73.9357E-03
            4326            4541     70.9252E-03     74.1450E-03
            4326            4542     77.2871E-03     77.7925E-03
            4327             654     86.2905E-03     85.5895E-03
            4327             655     80.5520E-03     78.9523E-03
            4327            4542     77.2871E-03     77.7925E-03
            4327            4543     82.3498E-03     83.8850E-03
            4328             653     92.2550E-03     91.5449E-03
            4328             654     86.2905E-03     85.5895E-03
            4328            4543     82.3498E-03     83.8850E-03
            4328            4544     87.5002E-03     89.7151E-03
            4329             652     98.1560E-03     97.9819E-03
            4329             653     92.2550E-03     91.5449E-03
            4329            4544     87.5002E-03     89.7151E-03
            4329            4545     93.6785E-03     95.6977E-03
            4330             651     105.197E-03     102.858E-03
            4330             652     98.1560E-03     97.9819E-03
            4330            4545     93.6785E-03     95.6977E-03
            4330            4546     100.483E-03     100.431E-03
            4331             650     109.088E-03     113.003E-03
            4331             651     105.197E-03     102.858E-03
            4331            4546     100.483E-03     100.431E-03
            4331            4547     103.423E-03     111.466E-03
            4332             649     123.990E-03     116.760E-03
            4332             650     109.088E-03     113.003E-03
            4332            4547     103.423E-03     111.466E-03
            4332            4548     120.931E-03     114.223E-03
            4333             648     132.044E-03     128.218E-03
            4333             649     123.990E-03     116.760E-03
            4333            4548     120.931E-03     114.223E-03
            4333            4549     125.074E-03     123.503E-03
            4334             647     116.758E-03     130.593E-03
            4334             648     132.044E-03     128.218E-03
            4334            4549     125.074E-03     123.503E-03
            4334            4550     108.282E-03     130.396E-03
            4335             646     117.437E-03     110.432E-03
            4335             647     116.758E-03     130.593E-03
            4335            4550     108.282E-03     130.396E-03
            4335            4551     117.156E-03     113.422E-03
            4336             645     120.663E-03     113.656E-03
            4336             646     117.437E-03     110.432E-03
            4336            4551     117.156E-03     113.422E-03
            4336            4552     119.507E-03     114.340E-03
            4337             644     120.417E-03     121.860E-03
            4337             645     120.663E-03     113.656E-03
            4337            4552     119.507E-03     114.340E-03
            4337            4553     114.818E-03     121.185E-03
            4338             643     127.797E-03     125.394E-03
            4338             644     120.417E-03     121.860E-03
            4338            4553     114.818E-03     121.185E-03
            4338            4554     122.136E-03     122.619E-03
            4339             642     133.052E-03     132.126E-03
            4339             643     127.797E-03     125.394E-03
            4339            4554     122.136E-03     122.619E-03
            4339            4555     126.178E-03     129.280E-03
            4340             641     138.661E-03     138.263E-03
            4340             642     133.052E-03     132.126E-03
            4340            4555     126.178E-03     129.280E-03
            4340            4556     131.715E-03     134.951E-03
            4341             640     145.654E-03     142.438E-03
            4341             641     138.661E-03     138.263E-03
            4341            4556     131.715E-03     134.951E-03
            4341            4557     138.802E-03     138.796E-03
            4342             639     148.643E-03     153.310E-03
            4342             640     145.654E-03     142.438E-03
            4342            4557     138.802E-03     138.796E-03
            4342            4558     140.562E-03     151.128E-03
            4343             638     165.587E-03     155.879E-03
            4343             639     148.643E-03     153.310E-03
            4343            4558     140.562E-03     151.128E-03
            4343            4559     161.422E-03     152.766E-03
            4344             637     173.990E-03     168.195E-03
            4344             638     165.587E-03     155.879E-03
            4344            4559     161.422E-03     152.766E-03
            4344            4560     165.597E-03     163.119E-03
            4345             636     154.330E-03     167.713E-03
            4345             637     173.990E-03     168.195E-03
            4345            4560     165.597E-03     163.119E-03
            4345            4561     144.006E-03     162.796E-03
            4346              25     148.154E-03     155.993E-03
            4346             635     141.774E-03     155.295E-03
            4346             636     154.330E-03     167.713E-03
            4346            4561     144.006E-03     162.796E-03
            5283               9     35.4656E-03     38.4196E-03
            5283             171     42.9743E-03     45.4410E-03
            5283             630     40.4902E-03     44.0950E-03
            5283            5395     49.0368E-03     50.8910E-03
            5284             170     43.6807E-03     43.0476E-03
            5284             171     42.9743E-03     45.4410E-03
            5284            5395     49.0368E-03     50.8910E-03
            5284            5396     49.9233E-03     48.5285E-03
            5285             169     43.4572E-03     45.0736E-03
            5285             170     43.6807E-03     43.0476E-03
            5285            5396     49.9233E-03     48.5285E-03
            5285            5397     48.0983E-03     50.5114E-03
            5286             168     46.2311E-03     44.9319E-03
            5286             169     43.4572E-03     45.0736E-03
            5286            5397     48.0983E-03     50.5114E-03
            5286            5398     50.2217E-03     49.6311E-03
            5287             167     45.5369E-03     42.0866E-03
            5287             168     46.2311E-03     44.9319E-03
            5287            5398     50.2217E-03     49.6311E-03
            5287            5399     49.1521E-03     46.0012E-03
            5288               7     71.3918E-03     71.9969E-03
            5288             167     45.5369E-03     42.0866E-03
            5288             530     83.1061E-03     80.8979E-03
            5288            5399     49.1521E-03     46.0012E-03
            5289             630     40.4902E-03     44.0950E-03
            5289             631     62.3304E-03     68.1151E-03
            5289            5395     49.0368E-03     50.8910E-03
            5289            5400     73.3207E-03     72.1049E-03
            5290            5395     49.0368E-03     50.8910E-03
            5290            5396     49.9233E-03     48.5285E-03
            5290            5400     73.3207E-03     72.1049E-03
            5290            5401     76.9186E-03     72.9444E-03
            5291            5396     49.9233E-03     48.5285E-03
            5291            5397     48.0983E-03     50.5114E-03
            5291            5401     76.9186E-03     72.9444E-03
            5291            5402     72.4314E-03     79.2004E-03
            5292            5397     48.0983E-03     50.5114E-03
            5292            5398     50.2217E-03     49.6311E-03
            5292            5402     72.4314E-03     79.2004E-03
            5292            5403     78.2538E-03     75.3148E-03
            5293            5398     50.2217E-03     49.6311E-03
            5293            5399     49.1521E-03     46.0012E-03
            5293            5403     78.2538E-03     75.3148E-03
            5293            5404     74.7941E-03     71.9615E-03
            5294             529     105.917E-03     109.098E-03
            5294             530     83.1061E-03     80.8979E-03
            5294            5399     49.1521E-03     46.0012E-03
            5294            5404     74.7941E-03     71.9615E-03
            5295             631     62.3304E-03     68.1151E-03
            5295             632     86.3491E-03     95.4661E-03
            5295            5400     73.3207E-03     72.1049E-03
            5295            5405     100.468E-03     97.7185E-03
            5296            5400     73.3207E-03     72.1049E-03
            5296            5401     76.9186E-03     72.9444E-03
            5296            5405     100.468E-03     97.7185E-03
            5296            5406     107.658E-03     100.783E-03
            5297            5401     76.9186E-03     72.9444E-03
            5297            5402     72.4314E-03     79.2004E-03
            5297            5406     107.658E-03     100.783E-03
            5297            5407     101.370E-03     110.863E-03
            5298            5402     72.4314E-03     79.2004E-03
            5298            5403     78.2538E-03     75.3148E-03
            5298            5407     101.370E-03     110.863E-03
            5298            5408     112.705E-03     104.077E-03
            5299            5403     78.2538E-03     75.3148E-03
            5299            5404     74.7941E-03     71.9615E-03
            5299            5408     112.705E-03     104.077E-03
            5299            5409     106.806E-03     102.042E-03
            5300             528     132.815E-03     142.361E-03
            5300             529     105.917E-03     109.098E-03
            5300            5404     74.7941E-03     71.9615E-03
            5300            5409     106.806E-03     102.042E-03
            5301             632     86.3491E-03     95.4661E-03
            5301             633     107.903E-03     123.164E-03
            5301            5405     100.468E-03     97.7185E-03
            5301            5410     125.995E-03     123.608E-03
            5302            5405     100.468E-03     97.7185E-03
            5302            5406     107.658E-03     100.783E-03
            5302            5410     125.995E-03     123.608E-03
            5302            5411     134.559E-03     123.959E-03
            5303            5406     107.658E-03     100.783E-03
            5303            5407     101.370E-03     110.863E-03
            5303            5411     134.559E-03     123.959E-03
            5303            5412     124.055E-03     136.744E-03
            5304            5407     101.370E-03     110.863E-03
            5304            5408     112.705E-03     104.077E-03
            5304            5412     124.055E-03     136.744E-03
            5304            5413     142.012E-03     126.500E-03
            5305            5408     112.705E-03     104.077E-03
            5305            5409     106.806E-03     102.042E-03
            5305            5413     142.012E-03     126.500E-03
            5305            5414     135.700E-03     129.910E-03
            5306             527     155.917E-03     175.783E-03
            5306             528     132.815E-03     142.361E-03
            5306            5409     106.806E-03     102.042E-03
            5306            5414     135.700E-03     129.910E-03
            5307             633     107.903E-03     123.164E-03
            5307             634     126.612E-03     145.871E-03
            5307            5410     125.995E-03     123.608E-03
            5307            5415     147.776E-03     146.096E-03
            5308            5410     125.995E-03     123.608E-03
            5308            5411     134.559E-03     123.959E-03
            5308            5415     147.776E-03     146.096E-03
            5308            5416     153.723E-03     142.963E-03
            5309            5411     134.559E-03     123.959E-03
            5309            5412     124.055E-03     136.744E-03
            5309            5416     153.723E-03     142.963E-03
            5309            5417     137.775E-03     157.534E-03
            5310            5412     124.055E-03     136.744E-03
            5310            5413     142.012E-03     126.500E-03
            5310            5417     137.775E-03     157.534E-03
            5310            5418     162.388E-03     147.104E-03
            5311            5413     142.012E-03     126.500E-03
            5311            5414     135.700E-03     129.910E-03
            5311            5418     162.388E-03     147.104E-03
            5311            5419     157.528E-03     155.462E-03
            5312             526     168.066E-03     203.464E-03
            5312             527     155.917E-03     175.783E-03
            5312            5414     135.700E-03     129.910E-03
            5312            5419     157.528E-03     155.462E-03
            5313             634     126.612E-03     145.871E-03
            5313             635     141.774E-03     155.295E-03
            5313            5415     147.776E-03     146.096E-03
            5313            5420     160.322E-03     155.475E-03
            5314            5415     147.776E-03     146.096E-03
            5314            5416     153.723E-03     142.963E-03
            5314            5420     160.322E-03     155.475E-03
            5314            5421     163.869E-03     153.470E-03
            5315            5416     153.723E-03     142.963E-03
            5315            5417     137.775E-03     157.534E-03
            5315            5421     163.869E-03     153.470E-03
            5315            5422     151.501E-03     167.961E-03
            5316            5417     137.775E-03     157.534E-03
            5316            5418     162.388E-03     147.104E-03
            5316            5422     151.501E-03     167.961E-03
            5316            5423     175.005E-03     162.073E-03
            5317            5418     162.388E-03     147.104E-03
            5317            5419     157.528E-03     155.462E-03
            5317            5423     175.005E-03     162.073E-03
            5317            5424     175.571E-03     173.860E-03
            5318             525     179.240E-03     217.989E-03
            5318             526     168.066E-03     203.464E-03
            5318            5419     157.528E-03     155.462E-03
            5318            5424     175.571E-03     173.860E-03
            5319              25     148.154E-03     155.993E-03
            5319             625     163.329E-03     155.009E-03
            5319             635     141.774E-03     155.295E-03
            5319            5420     160.322E-03     155.475E-03
            5320             625     163.329E-03     155.009E-03
            5320             626     166.622E-03     154.593E-03
            5320            5420     160.322E-03     155.475E-03
            5320            5421     163.869E-03     153.470E-03
            5321             626     166.622E-03     154.593E-03
            5321             627     160.153E-03     169.015E-03
            5321            5421     163.869E-03     153.470E-03
            5321            5422     151.501E-03     167.961E-03
            5322             627     160.153E-03     169.015E-03
            5322             628     179.430E-03     165.561E-03
            5322            5422     151.501E-03     167.961E-03
            5322            5423     175.005E-03     162.073E-03
            5323             628     179.430E-03     165.561E-03
            5323             629     184.380E-03     179.632E-03
            5323            5423     175.005E-03     162.073E-03
            5323            5424     175.571E-03     173.860E-03
            5324              22     187.296E-03     221.041E-03
            5324             525     179.240E-03     217.989E-03
            5324             629     184.380E-03     179.632E-03
            5324            5424     175.571E-03     173.860E-03
            6567              12     20.0550E-03     19.9714E-03
            6567             187     1.00491E-03     979.713E-06
            6567             244     19.1258E-03     19.0116E-03
            6567            6525     987.780E-06     966.273E-06
            6568             186     1.00802E-03     998.531E-06
            6568             187     1.00491E-03     979.713E-06
            6568            6525     987.780E-06     966.273E-06
            6568            6526     988.504E-06     977.527E-06
            6569             185     996.756E-06     997.263E-06
            6569             186     1.00802E-03     998.531E-06
            6569            6526     988.504E-06     977.527E-06
            6569            6527     973.348E-06     974.642E-06
            6570             184     1.00464E-03     994.789E-06
            6570             185     996.756E-06     997.263E-06
            6570            6527     973.348E-06     974.642E-06
            6570            6528     978.294E-06     967.050E-06
            6571             183     1.00083E-03     990.685E-06
            6571             184     1.00464E-03     994.789E-06
            6571            6528     978.294E-06     967.050E-06
            6571            6529     973.352E-06     961.760E-06
            6572              11     991.862E-06     985.630E-06
            6572             183     1.00083E-03     990.685E-06
            6572             825     965.966E-06     958.406E-06
            6572            6529     973.352E-06     961.760E-06
            6573             244     19.1258E-03     19.0116E-03
            6573             245     17.2179E-03     17.1282E-03
            6573            6525     987.780E-06     966.273E-06
            6573            6530     939.866E-06     925.796E-06
            6574            6525     987.780E-06     966.273E-06
            6574            6526     988.504E-06     977.527E-06
            6574            6530     939.866E-06     925.796E-06
            6574            6531     937.278E-06     919.843E-06
            6575            6526     988.504E-06     977.527E-06
            6575            6527     973.348E-06     974.642E-06
            6575            6531     937.278E-06     919.843E-06
            6575            6532     901.046E-06     906.230E-06
            6576            6527     973.348E-06     974.642E-06
            6576            6528     978.294E-06     967.050E-06
            6576            6532     901.046E-06     906.230E-06
            6576            6533     897.829E-06     886.997E-06
            6577            6528     978.294E-06     967.050E-06
            6577            6529     973.352E-06     961.760E-06
            6577            6533     897.829E-06     886.997E-06
            6577            6534     888.975E-06     877.610E-06
            6578             825     965.966E-06     958.406E-06
            6578             826     879.063E-06     870.398E-06
            6578            6529     973.352E-06     961.760E-06
            6578            6534     888.975E-06     877.610E-06
            6579             245     17.2179E-03     17.1282E-03
            6579             246     14.4801E-03     14.3855E-03
            6579            6530     939.866E-06     925.796E-06
            6579            6535     878.455E-06     860.587E-06
            6580            6530     939.866E-06     925.796E-06
            6580            6531     937.278E-06     919.843E-06
            6580            6535     878.455E-06     860.587E-06
            6580            6536     861.678E-06     822.795E-06
            6581            6531     937.278E-06     919.843E-06
            6581            6532     901.046E-06     906.230E-06
            6581            6536     861.678E-06     822.795E-06
            6581            6537     782.007E-06     801.057E-06
            6582            6532     901.046E-06     906.230E-06
            6582            6533     897.829E-06     886.997E-06
            6582            6537     782.007E-06     801.057E-06
            6582            6538     761.541E-06     762.714E-06
            6583            6533     897.829E-06     886.997E-06
            6583            6534     888.975E-06     877.610E-06
            6583            6538     761.541E-06     762.714E-06
            6583            6539     749.889E-06     743.214E-06
            6584             826     879.063E-06     870.398E-06
            6584             827     744.632E-06     732.364E-06
            6584            6534     888.975E-06     877.610E-06
            6584            6539     749.889E-06     743.214E-06
            6585             246     14.4801E-03     14.3855E-03
            6585             247     10.8587E-03     10.7936E-03
            6585            6535     878.455E-06     860.587E-06
            6585            6540     796.494E-06     785.104E-06
            6586            6535     878.455E-06     860.587E-06
            6586            6536     861.678E-06     822.795E-06
            6586            6540     796.494E-06     785.104E-06
            6586            6541     766.302E-06     694.753E-06
            6587            6536     861.678E-06     822.795E-06
            6587            6537     782.007E-06     801.057E-06
            6587            6541     766.302E-06     694.753E-06
            6587            6542     630.525E-06     664.498E-06
            6588            6537     782.007E-06     801.057E-06
            6588            6538     761.541E-06     762.714E-06
            6588            6542     630.525E-06     664.498E-06
            6588            6543     584.011E-06     598.129E-06
            6589            6538     761.541E-06     762.714E-06
            6589            6539     749.889E-06     743.214E-06
            6589            6543     584.011E-06     598.129E-06
            6589            6544     554.603E-06     563.142E-06
            6590             827     744.632E-06     732.364E-06
            6590             828     541.756E-06     541.457E-06
            6590            6539     749.889E-06     743.214E-06
            6590            6544     554.603E-06     563.142E-06
            6591             247     10.8587E-03     10.7936E-03
            6591             248     6.46796E-03     6.91901E-03
            6591            6540     796.494E-06     785.104E-06
            6591            6545     757.575E-06     768.728E-06
            6592            6540     796.494E-06     785.104E-06
            6592            6541     766.302E-06     694.753E-06
            6592            6545     757.575E-06     768.728E-06
            6592            6546     695.029E-06     615.553E-06
            6593            6541     766.302E-06     694.753E-06
            6593            6542     630.525E-06     664.498E-06
            6593            6546     695.029E-06     615.553E-06
            6593            6547     465.403E-06     504.841E-06
            6594            6542     630.525E-06     664.498E-06
            6594            6543     584.011E-06     598.129E-06
            6594            6547     465.403E-06     504.841E-06
            6594            6548     372.452E-06     371.058E-06
            6595            6543     584.011E-06     598.129E-06
            6595            6544     554.603E-06     563.142E-06
            6595            6548     372.452E-06     371.058E-06
            6595            6549     324.378E-06     351.833E-06
            6596             828     541.756E-06     541.457E-06
            6596             829     321.215E-06     338.721E-06
            6596            6544     554.603E-06     563.142E-06
            6596            6549     324.378E-06     351.833E-06
            6597             248     6.46796E-03     6.91901E-03
            6597             249     4.77991E-03     6.60281E-03
            6597            6545     757.575E-06     768.728E-06
            6597            6550     911.026E-06     917.507E-06
            6598            6545     757.575E-06     768.728E-06
            6598            6546     695.029E-06     615.553E-06
            6598            6550     911.026E-06     917.507E-06
            6598            6551     729.856E-06     671.989E-06
            6599            6546     695.029E-06     615.553E-06
            6599            6547     465.403E-06     504.841E-06
            6599            6551     729.856E-06     671.989E-06
            6599            6552     425.483E-06     468.954E-06
            6600            6547     465.403E-06     504.841E-06
            6600            6548     372.452E-06     371.058E-06
            6600            6552     425.483E-06     468.954E-06
            6600            6553     293.954E-06     268.611E-06
            6601            6548     372.452E-06     371.058E-06
            6601            6549     324.378E-06     351.833E-06
            6601            6553     293.954E-06     268.611E-06
            6601            6554     236.255E-06     296.341E-06
            6602             829     321.215E-06     338.721E-06
            6602             830     255.524E-06     342.715E-06
            6602            6549     324.378E-06     351.833E-06
            6602            6554     236.255E-06     296.341E-06
            6603              15     5.39610E-03     8.16503E-03
            6603             249     4.77991E-03     6.60281E-03
            6603             765     1.05207E-03     1.04535E-03
            6603            6550     911.026E-06     917.507E-06
            6604             765     1.05207E-03     1.04535E-03
            6604             766     784.470E-06     739.948E-06
            6604            6550     911.026E-06     917.507E-06
            6604            6551     729.856E-06     671.989E-06
            6605             766     784.470E-06     739.948E-06
            6605             767     469.348E-06     515.547E-06
            6605            6551     729.856E-06     671.989E-06
            6605            6552     425.483E-06     468.954E-06
            6606             767     469.348E-06     515.547E-06
            6606             768     331.658E-06     300.620E-06
            6606            6552     425.483E-06     468.954E-06
            6606            6553     293.954E-06     268.611E-06
            6607             768     331.658E-06     300.620E-06
            6607             769     265.262E-06     351.258E-06
            6607            6553     293.954E-06     268.611E-06
            6607            6554     236.255E-06     296.341E-06
            6608              27     280.922E-06     435.786E-06
            6608             769     265.262E-06     351.258E-06
            6608             830     255.524E-06     342.715E-06
            6608            6554     236.255E-06     296.341E-06


  Minimum                            228.961E-06     268.611E-06
      At Element                            1784            6607
            Node                              18            6553

  Maximum                            268.891E-03     256.131E-03
      At Element                            2383            2383
            Node                             521             521

           Total                         425.739         431.564


Field Output reported at element nodes for region: A320-1.Region_4
   Computation algorithm: EXTRAPOLATE_COMPUTE_AVERAGE
   Averaged at nodes
   Averaging regions: ODB_REGIONS

   Element Label      Node Label         S.Mises         S.Mises
                                          @Loc 1          @Loc 2
-----------------------------------------------------------------
             785              16     6.55141E-03     6.93843E-03
             785             289     6.95422E-03     7.22974E-03
             785             328     398.567E-06     396.516E-06
             785            1467     396.011E-06     400.337E-06
             786             289     6.95422E-03     7.22974E-03
             786             290     7.48639E-03     7.53613E-03
             786            1467     396.011E-06     400.337E-06
             786            1468     392.046E-06     404.801E-06
             787             290     7.48639E-03     7.53613E-03
             787             291     7.79665E-03     7.73431E-03
             787            1468     392.046E-06     404.801E-06
             787            1469     389.698E-06     406.290E-06
             788             291     7.79665E-03     7.73431E-03
             788             292     8.09215E-03     7.98722E-03
             788            1469     389.698E-06     406.290E-06
             788            1470     388.463E-06     408.875E-06
             789             292     8.09215E-03     7.98722E-03
             789             293     8.30518E-03     8.13910E-03
             789            1470     388.463E-06     408.875E-06
             789            1471     388.078E-06     412.251E-06
             790             293     8.30518E-03     8.13910E-03
             790             294     8.49084E-03     8.27450E-03
             790            1471     388.078E-06     412.251E-06
             790            1472     388.374E-06     416.003E-06
             791             294     8.49084E-03     8.27450E-03
             791             295     8.64868E-03     8.37911E-03
             791            1472     388.374E-06     416.003E-06
             791            1473     389.112E-06     420.057E-06
             792             295     8.64868E-03     8.37911E-03
             792             296     8.78877E-03     8.46223E-03
             792            1473     389.112E-06     420.057E-06
             792            1474     390.536E-06     424.569E-06
             793             296     8.78877E-03     8.46223E-03
             793             297     8.91455E-03     8.53641E-03
             793            1474     390.536E-06     424.569E-06
             793            1475     392.276E-06     429.152E-06
             794             297     8.91455E-03     8.53641E-03
             794             298     9.01153E-03     8.57463E-03
             794            1475     392.276E-06     429.152E-06
             794            1476     395.043E-06     434.480E-06
             795             298     9.01153E-03     8.57463E-03
             795             299     9.06107E-03     8.57117E-03
             795            1476     395.043E-06     434.480E-06
             795            1477     397.741E-06     439.616E-06
             796             299     9.06107E-03     8.57117E-03
             796             300     9.02377E-03     8.47329E-03
             796            1477     397.741E-06     439.616E-06
             796            1478     402.545E-06     446.164E-06
             797             300     9.02377E-03     8.47329E-03
             797             301     8.80133E-03     8.19123E-03
             797            1478     402.545E-06     446.164E-06
             797            1479     406.388E-06     452.296E-06
             798             301     8.80133E-03     8.19123E-03
             798             302     8.36431E-03     7.66030E-03
             798            1479     406.388E-06     452.296E-06
             798            1480     416.094E-06     461.443E-06
             799             302     8.36431E-03     7.66030E-03
             799             303     7.33746E-03     6.55577E-03
             799            1480     416.094E-06     461.443E-06
             799            1481     420.052E-06     467.500E-06
             800             303     7.33746E-03     6.55577E-03
             800             304     5.91011E-03     4.93469E-03
             800            1481     420.052E-06     467.500E-06
             800            1482     418.986E-06     473.869E-06
             801             304     5.91011E-03     4.93469E-03
             801             305     4.17871E-03     4.72050E-03
             801            1482     418.986E-06     473.869E-06
             801            1483     451.537E-06     506.265E-06
             802              17     3.10855E-03     5.37023E-03
             802             305     4.17871E-03     4.72050E-03
             802             306     479.046E-06     530.603E-06
             802            1483     451.537E-06     506.265E-06
             803             327     444.605E-06     375.120E-06
             803             328     398.567E-06     396.516E-06
             803            1467     396.011E-06     400.337E-06
             803            1484     423.540E-06     392.533E-06
             804            1467     396.011E-06     400.337E-06
             804            1468     392.046E-06     404.801E-06
             804            1484     423.540E-06     392.533E-06
             804            1485     397.761E-06     408.517E-06
             805            1468     392.046E-06     404.801E-06
             805            1469     389.698E-06     406.290E-06
             805            1485     397.761E-06     408.517E-06
             805            1486     396.447E-06     403.813E-06
             806            1469     389.698E-06     406.290E-06
             806            1470     388.463E-06     408.875E-06
             806            1486     396.447E-06     403.813E-06
             806            1487     399.075E-06     402.789E-06
             807            1470     388.463E-06     408.875E-06
             807            1471     388.078E-06     412.251E-06
             807            1487     399.075E-06     402.789E-06
             807            1488     399.716E-06     405.852E-06
             808            1471     388.078E-06     412.251E-06
             808            1472     388.374E-06     416.003E-06
             808            1488     399.716E-06     405.852E-06
             808            1489     402.195E-06     407.746E-06
             809            1472     388.374E-06     416.003E-06
             809            1473     389.112E-06     420.057E-06
             809            1489     402.195E-06     407.746E-06
             809            1490     404.850E-06     410.505E-06
             810            1473     389.112E-06     420.057E-06
             810            1474     390.536E-06     424.569E-06
             810            1490     404.850E-06     410.505E-06
             810            1491     407.694E-06     413.528E-06
             811            1474     390.536E-06     424.569E-06
             811            1475     392.276E-06     429.152E-06
             811            1491     407.694E-06     413.528E-06
             811            1492     411.280E-06     417.088E-06
             812            1475     392.276E-06     429.152E-06
             812            1476     395.043E-06     434.480E-06
             812            1492     411.280E-06     417.088E-06
             812            1493     414.754E-06     420.670E-06
             813            1476     395.043E-06     434.480E-06
             813            1477     397.741E-06     439.616E-06
             813            1493     414.754E-06     420.670E-06
             813            1494     419.293E-06     425.227E-06
             814            1477     397.741E-06     439.616E-06
             814            1478     402.545E-06     446.164E-06
             814            1494     419.293E-06     425.227E-06
             814            1495     423.120E-06     429.182E-06
             815            1478     402.545E-06     446.164E-06
             815            1479     406.388E-06     452.296E-06
             815            1495     423.120E-06     429.182E-06
             815            1496     430.100E-06     435.295E-06
             816            1479     406.388E-06     452.296E-06
             816            1480     416.094E-06     461.443E-06
             816            1496     430.100E-06     435.295E-06
             816            1497     435.558E-06     443.660E-06
             817            1480     416.094E-06     461.443E-06
             817            1481     420.052E-06     467.500E-06
             817            1497     435.558E-06     443.660E-06
             817            1498     457.933E-06     457.606E-06
             818            1481     420.052E-06     467.500E-06
             818            1482     418.986E-06     473.869E-06
             818            1498     457.933E-06     457.606E-06
             818            1499     455.381E-06     463.585E-06
             819            1482     418.986E-06     473.869E-06
             819            1483     451.537E-06     506.265E-06
             819            1499     455.381E-06     463.585E-06
             819            1500     328.613E-06     346.597E-06
             820             306     479.046E-06     530.603E-06
             820             307     227.867E-06     234.562E-06
             820            1483     451.537E-06     506.265E-06
             820            1500     328.613E-06     346.597E-06
             821             326     412.427E-06     413.596E-06
             821             327     444.605E-06     375.120E-06
             821            1484     423.540E-06     392.533E-06
             821            1501     412.760E-06     412.868E-06
             822            1484     423.540E-06     392.533E-06
             822            1485     397.761E-06     408.517E-06
             822            1501     412.760E-06     412.868E-06
             822            1502     413.939E-06     410.401E-06
             823            1485     397.761E-06     408.517E-06
             823            1486     396.447E-06     403.813E-06
             823            1502     413.939E-06     410.401E-06
             823            1503     415.945E-06     407.905E-06
             824            1486     396.447E-06     403.813E-06
             824            1487     399.075E-06     402.789E-06
             824            1503     415.945E-06     407.905E-06
             824            1504     418.742E-06     406.871E-06
             825            1487     399.075E-06     402.789E-06
             825            1488     399.716E-06     405.852E-06
             825            1504     418.742E-06     406.871E-06
             825            1505     421.925E-06     406.629E-06
             826            1488     399.716E-06     405.852E-06
             826            1489     402.195E-06     407.746E-06
             826            1505     421.925E-06     406.629E-06
             826            1506     425.476E-06     407.019E-06
             827            1489     402.195E-06     407.746E-06
             827            1490     404.850E-06     410.505E-06
             827            1506     425.476E-06     407.019E-06
             827            1507     429.295E-06     407.812E-06
             828            1490     404.850E-06     410.505E-06
             828            1491     407.694E-06     413.528E-06
             828            1507     429.295E-06     407.812E-06
             828            1508     433.454E-06     409.108E-06
             829            1491     407.694E-06     413.528E-06
             829            1492     411.280E-06     417.088E-06
             829            1508     433.454E-06     409.108E-06
             829            1509     437.667E-06     410.745E-06
             830            1492     411.280E-06     417.088E-06
             830            1493     414.754E-06     420.670E-06
             830            1509     437.667E-06     410.745E-06
             830            1510     442.316E-06     412.904E-06
             831            1493     414.754E-06     420.670E-06
             831            1494     419.293E-06     425.227E-06
             831            1510     442.316E-06     412.904E-06
             831            1511     446.672E-06     415.108E-06
             832            1494     419.293E-06     425.227E-06
             832            1495     423.120E-06     429.182E-06
             832            1511     446.672E-06     415.108E-06
             832            1512     451.647E-06     418.008E-06
             833            1495     423.120E-06     429.182E-06
             833            1496     430.100E-06     435.295E-06
             833            1512     451.647E-06     418.008E-06
             833            1513     456.284E-06     420.513E-06
             834            1496     430.100E-06     435.295E-06
             834            1497     435.558E-06     443.660E-06
             834            1513     456.284E-06     420.513E-06
             834            1514     462.717E-06     425.347E-06
             835            1497     435.558E-06     443.660E-06
             835            1498     457.933E-06     457.606E-06
             835            1514     462.717E-06     425.347E-06
             835            1515     467.888E-06     426.779E-06
             836            1498     457.933E-06     457.606E-06
             836            1499     455.381E-06     463.585E-06
             836            1515     467.888E-06     426.779E-06
             836            1516     440.126E-06     399.505E-06
             837            1499     455.381E-06     463.585E-06
             837            1500     328.613E-06     346.597E-06
             837            1516     440.126E-06     399.505E-06
             837            1517     251.190E-06     292.293E-06
             838             307     227.867E-06     234.562E-06
             838             308     89.9879E-06     209.381E-06
             838            1500     328.613E-06     346.597E-06
             838            1517     251.190E-06     292.293E-06
             839              19     376.823E-06     444.654E-06
             839             325     397.850E-06     428.792E-06
             839             326     412.427E-06     413.596E-06
             839            1501     412.760E-06     412.868E-06
             840             324     424.514E-06     411.209E-06
             840             325     397.850E-06     428.792E-06
             840            1501     412.760E-06     412.868E-06
             840            1502     413.939E-06     410.401E-06
             841             323     428.791E-06     411.484E-06
             841             324     424.514E-06     411.209E-06
             841            1502     413.939E-06     410.401E-06
             841            1503     415.945E-06     407.905E-06
             842             322     430.740E-06     411.416E-06
             842             323     428.791E-06     411.484E-06
             842            1503     415.945E-06     407.905E-06
             842            1504     418.742E-06     406.871E-06
             843             321     435.460E-06     408.862E-06
             843             322     430.740E-06     411.416E-06
             843            1504     418.742E-06     406.871E-06
             843            1505     421.925E-06     406.629E-06
             844             320     439.349E-06     408.564E-06
             844             321     435.460E-06     408.862E-06
             844            1505     421.925E-06     406.629E-06
             844            1506     425.476E-06     407.019E-06
             845             319     443.535E-06     408.171E-06
             845             320     439.349E-06     408.564E-06
             845            1506     425.476E-06     407.019E-06
             845            1507     429.295E-06     407.812E-06
             846             318     448.344E-06     408.668E-06
             846             319     443.535E-06     408.171E-06
             846            1507     429.295E-06     407.812E-06
             846            1508     433.454E-06     409.108E-06
             847             317     452.531E-06     408.959E-06
             847             318     448.344E-06     408.668E-06
             847            1508     433.454E-06     409.108E-06
             847            1509     437.667E-06     410.745E-06
             848             316     458.009E-06     410.776E-06
             848             317     452.531E-06     408.959E-06
             848            1509     437.667E-06     410.745E-06
             848            1510     442.316E-06     412.904E-06
             849             315     461.560E-06     411.001E-06
             849             316     458.009E-06     410.776E-06
             849            1510     442.316E-06     412.904E-06
             849            1511     446.672E-06     415.108E-06
             850             314     468.212E-06     414.382E-06
             850             315     461.560E-06     411.001E-06
             850            1511     446.672E-06     415.108E-06
             850            1512     451.647E-06     418.008E-06
             851             313     469.179E-06     413.608E-06
             851             314     468.212E-06     414.382E-06
             851            1512     451.647E-06     418.008E-06
             851            1513     456.284E-06     420.513E-06
             852             312     479.815E-06     416.477E-06
             852             313     469.179E-06     413.608E-06
             852            1513     456.284E-06     420.513E-06
             852            1514     462.717E-06     425.347E-06
             853             311     462.833E-06     404.201E-06
             853             312     479.815E-06     416.477E-06
             853            1514     462.717E-06     425.347E-06
             853            1515     467.888E-06     426.779E-06
             854             310     419.974E-06     354.583E-06
             854             311     462.833E-06     404.201E-06
             854            1515     467.888E-06     426.779E-06
             854            1516     440.126E-06     399.505E-06
             855             309     268.860E-06     301.047E-06
             855             310     419.974E-06     354.583E-06
             855            1516     440.126E-06     399.505E-06
             855            1517     251.190E-06     292.293E-06
             856              18     126.456E-06     275.447E-06
             856             308     89.9879E-06     209.381E-06
             856             309     268.860E-06     301.047E-06
             856            1517     251.190E-06     292.293E-06
            2385              21     178.320E-03     183.685E-03
            2385             520     214.608E-03     215.531E-03
            2385             531     168.951E-03     173.007E-03
            2385            2866     210.423E-03     210.923E-03
            2386             531     168.951E-03     173.007E-03
            2386             532     153.937E-03     156.153E-03
            2386            2866     210.423E-03     210.923E-03
            2386            2867     199.783E-03     200.814E-03
            2387             532     153.937E-03     156.153E-03
            2387             533     142.573E-03     144.516E-03
            2387            2867     199.783E-03     200.814E-03
            2387            2868     188.829E-03     190.802E-03
            2388             533     142.573E-03     144.516E-03
            2388             534     131.950E-03     134.037E-03
            2388            2868     188.829E-03     190.802E-03
            2388            2869     179.158E-03     181.655E-03
            2389             534     131.950E-03     134.037E-03
            2389             535     122.075E-03     124.272E-03
            2389            2869     179.158E-03     181.655E-03
            2389            2870     169.890E-03     173.092E-03
            2390             535     122.075E-03     124.272E-03
            2390             536     112.497E-03     114.897E-03
            2390            2870     169.890E-03     173.092E-03
            2390            2871     161.571E-03     165.236E-03
            2391             536     112.497E-03     114.897E-03
            2391             537     103.284E-03     105.784E-03
            2391            2871     161.571E-03     165.236E-03
            2391            2872     153.703E-03     157.833E-03
            2392             537     103.284E-03     105.784E-03
            2392             538     94.3010E-03     96.9030E-03
            2392            2872     153.703E-03     157.833E-03
            2392            2873     146.501E-03     150.971E-03
            2393             538     94.3010E-03     96.9030E-03
            2393             539     85.6238E-03     88.2487E-03
            2393            2873     146.501E-03     150.971E-03
            2393            2874     139.833E-03     144.558E-03
            2394             539     85.6238E-03     88.2487E-03
            2394             540     77.2437E-03     79.8633E-03
            2394            2874     139.833E-03     144.558E-03
            2394            2875     133.833E-03     138.689E-03
            2395             540     77.2437E-03     79.8633E-03
            2395             541     69.2418E-03     71.7931E-03
            2395            2875     133.833E-03     138.689E-03
            2395            2876     128.510E-03     133.382E-03
            2396             541     69.2418E-03     71.7931E-03
            2396             542     61.6816E-03     64.1068E-03
            2396            2876     128.510E-03     133.382E-03
            2396            2877     123.951E-03     128.687E-03
            2397             542     61.6816E-03     64.1068E-03
            2397             543     54.6630E-03     56.8793E-03
            2397            2877     123.951E-03     128.687E-03
            2397            2878     120.043E-03     124.559E-03
            2398             543     54.6630E-03     56.8793E-03
            2398             544     48.3340E-03     50.2121E-03
            2398            2878     120.043E-03     124.559E-03
            2398            2879     116.813E-03     120.843E-03
            2399             544     48.3340E-03     50.2121E-03
            2399             545     44.1738E-03     45.1502E-03
            2399            2879     116.813E-03     120.843E-03
            2399            2880     112.819E-03     115.816E-03
            2400             545     44.1738E-03     45.1502E-03
            2400             546     44.7811E-03     45.0891E-03
            2400            2880     112.819E-03     115.816E-03
            2400            2881     109.320E-03     111.241E-03
            2401             546     44.7811E-03     45.0891E-03
            2401             547     51.5993E-03     52.9957E-03
            2401            2881     109.320E-03     111.241E-03
            2401            2882     106.939E-03     104.922E-03
            2402              20     56.5962E-03     59.0829E-03
            2402             547     51.5993E-03     52.9957E-03
            2402             548     105.513E-03     99.9761E-03
            2402            2882     106.939E-03     104.922E-03
            2403             520     214.608E-03     215.531E-03
            2403             521     252.102E-03     250.066E-03
            2403            2866     210.423E-03     210.923E-03
            2403            2883     246.423E-03     245.789E-03
            2404            2866     210.423E-03     210.923E-03
            2404            2867     199.783E-03     200.814E-03
            2404            2883     246.423E-03     245.789E-03
            2404            2884     233.776E-03     235.102E-03
            2405            2867     199.783E-03     200.814E-03
            2405            2868     188.829E-03     190.802E-03
            2405            2884     233.776E-03     235.102E-03
            2405            2885     221.671E-03     224.264E-03
            2406            2868     188.829E-03     190.802E-03
            2406            2869     179.158E-03     181.655E-03
            2406            2885     221.671E-03     224.264E-03
            2406            2886     211.525E-03     215.254E-03
            2407            2869     179.158E-03     181.655E-03
            2407            2870     169.890E-03     173.092E-03
            2407            2886     211.525E-03     215.254E-03
            2407            2887     202.654E-03     207.183E-03
            2408            2870     169.890E-03     173.092E-03
            2408            2871     161.571E-03     165.236E-03
            2408            2887     202.654E-03     207.183E-03
            2408            2888     194.938E-03     200.242E-03
            2409            2871     161.571E-03     165.236E-03
            2409            2872     153.703E-03     157.833E-03
            2409            2888     194.938E-03     200.242E-03
            2409            2889     187.873E-03     193.873E-03
            2410            2872     153.703E-03     157.833E-03
            2410            2873     146.501E-03     150.971E-03
            2410            2889     187.873E-03     193.873E-03
            2410            2890     181.586E-03     188.155E-03
            2411            2873     146.501E-03     150.971E-03
            2411            2874     139.833E-03     144.558E-03
            2411            2890     181.586E-03     188.155E-03
            2411            2891     175.872E-03     182.887E-03
            2412            2874     139.833E-03     144.558E-03
            2412            2875     133.833E-03     138.689E-03
            2412            2891     175.872E-03     182.887E-03
            2412            2892     170.821E-03     178.114E-03
            2413            2875     133.833E-03     138.689E-03
            2413            2876     128.510E-03     133.382E-03
            2413            2892     170.821E-03     178.114E-03
            2413            2893     166.375E-03     173.787E-03
            2414            2876     128.510E-03     133.382E-03
            2414            2877     123.951E-03     128.687E-03
            2414            2893     166.375E-03     173.787E-03
            2414            2894     162.612E-03     169.966E-03
            2415            2877     123.951E-03     128.687E-03
            2415            2878     120.043E-03     124.559E-03
            2415            2894     162.612E-03     169.966E-03
            2415            2895     159.307E-03     166.423E-03
            2416            2878     120.043E-03     124.559E-03
            2416            2879     116.813E-03     120.843E-03
            2416            2895     159.307E-03     166.423E-03
            2416            2896     156.562E-03     163.171E-03
            2417            2879     116.813E-03     120.843E-03
            2417            2880     112.819E-03     115.816E-03
            2417            2896     156.562E-03     163.171E-03
            2417            2897     151.845E-03     157.279E-03
            2418            2880     112.819E-03     115.816E-03
            2418            2881     109.320E-03     111.241E-03
            2418            2897     151.845E-03     157.279E-03
            2418            2898     145.295E-03     148.536E-03
            2419            2881     109.320E-03     111.241E-03
            2419            2882     106.939E-03     104.922E-03
            2419            2898     145.295E-03     148.536E-03
            2419            2899     129.687E-03     128.396E-03
            2420             548     105.513E-03     99.9761E-03
            2420             549     117.085E-03     112.617E-03
            2420            2882     106.939E-03     104.922E-03
            2420            2899     129.687E-03     128.396E-03
            2421             521     252.102E-03     250.066E-03
            2421             522     248.653E-03     249.955E-03
            2421            2883     246.423E-03     245.789E-03
            2421            2900     243.368E-03     245.680E-03
            2422            2883     246.423E-03     245.789E-03
            2422            2884     233.776E-03     235.102E-03
            2422            2900     243.368E-03     245.680E-03
            2422            2901     232.306E-03     235.592E-03
            2423            2884     233.776E-03     235.102E-03
            2423            2885     221.671E-03     224.264E-03
            2423            2901     232.306E-03     235.592E-03
            2423            2902     221.159E-03     225.305E-03
            2424            2885     221.671E-03     224.264E-03
            2424            2886     211.525E-03     215.254E-03
            2424            2902     221.159E-03     225.305E-03
            2424            2903     212.451E-03     217.080E-03
            2425            2886     211.525E-03     215.254E-03
            2425            2887     202.654E-03     207.183E-03
            2425            2903     212.451E-03     217.080E-03
            2425            2904     205.308E-03     209.858E-03
            2426            2887     202.654E-03     207.183E-03
            2426            2888     194.938E-03     200.242E-03
            2426            2904     205.308E-03     209.858E-03
            2426            2905     198.457E-03     203.363E-03
            2427            2888     194.938E-03     200.242E-03
            2427            2889     187.873E-03     193.873E-03
            2427            2905     198.457E-03     203.363E-03
            2427            2906     192.333E-03     197.397E-03
            2428            2889     187.873E-03     193.873E-03
            2428            2890     181.586E-03     188.155E-03
            2428            2906     192.333E-03     197.397E-03
            2428            2907     186.599E-03     191.868E-03
            2429            2890     181.586E-03     188.155E-03
            2429            2891     175.872E-03     182.887E-03
            2429            2907     186.599E-03     191.868E-03
            2429            2908     181.413E-03     186.813E-03
            2430            2891     175.872E-03     182.887E-03
            2430            2892     170.821E-03     178.114E-03
            2430            2908     181.413E-03     186.813E-03
            2430            2909     176.701E-03     182.180E-03
            2431            2892     170.821E-03     178.114E-03
            2431            2893     166.375E-03     173.787E-03
            2431            2909     176.701E-03     182.180E-03
            2431            2910     172.574E-03     178.064E-03
            2432            2893     166.375E-03     173.787E-03
            2432            2894     162.612E-03     169.966E-03
            2432            2910     172.574E-03     178.064E-03
            2432            2911     169.069E-03     174.513E-03
            2433            2894     162.612E-03     169.966E-03
            2433            2895     159.307E-03     166.423E-03
            2433            2911     169.069E-03     174.513E-03
            2433            2912     166.533E-03     171.803E-03
            2434            2895     159.307E-03     166.423E-03
            2434            2896     156.562E-03     163.171E-03
            2434            2912     166.533E-03     171.803E-03
            2434            2913     164.529E-03     169.620E-03
            2435            2896     156.562E-03     163.171E-03
            2435            2897     151.845E-03     157.279E-03
            2435            2913     164.529E-03     169.620E-03
            2435            2914     162.941E-03     168.119E-03
            2436            2897     151.845E-03     157.279E-03
            2436            2898     145.295E-03     148.536E-03
            2436            2914     162.941E-03     168.119E-03
            2436            2915     155.193E-03     157.982E-03
            2437            2898     145.295E-03     148.536E-03
            2437            2899     129.687E-03     128.396E-03
            2437            2915     155.193E-03     157.982E-03
            2437            2916     127.529E-03     123.824E-03
            2438             549     117.085E-03     112.617E-03
            2438             550     107.052E-03     99.3743E-03
            2438            2899     129.687E-03     128.396E-03
            2438            2916     127.529E-03     123.824E-03
            2439             522     248.653E-03     249.955E-03
            2439             523     241.541E-03     241.989E-03
            2439            2900     243.368E-03     245.680E-03
            2439            2917     235.626E-03     238.463E-03
            2440            2900     243.368E-03     245.680E-03
            2440            2901     232.306E-03     235.592E-03
            2440            2917     235.626E-03     238.463E-03
            2440            2918     224.923E-03     230.413E-03
            2441            2901     232.306E-03     235.592E-03
            2441            2902     221.159E-03     225.305E-03
            2441            2918     224.923E-03     230.413E-03
            2441            2919     217.781E-03     222.512E-03
            2442            2902     221.159E-03     225.305E-03
            2442            2903     212.451E-03     217.080E-03
            2442            2919     217.781E-03     222.512E-03
            2442            2920     212.407E-03     216.303E-03
            2443            2903     212.451E-03     217.080E-03
            2443            2904     205.308E-03     209.858E-03
            2443            2920     212.407E-03     216.303E-03
            2443            2921     206.906E-03     210.703E-03
            2444            2904     205.308E-03     209.858E-03
            2444            2905     198.457E-03     203.363E-03
            2444            2921     206.906E-03     210.703E-03
            2444            2922     201.738E-03     205.180E-03
            2445            2905     198.457E-03     203.363E-03
            2445            2906     192.333E-03     197.397E-03
            2445            2922     201.738E-03     205.180E-03
            2445            2923     196.622E-03     199.872E-03
            2446            2906     192.333E-03     197.397E-03
            2446            2907     186.599E-03     191.868E-03
            2446            2923     196.622E-03     199.872E-03
            2446            2924     191.775E-03     194.814E-03
            2447            2907     186.599E-03     191.868E-03
            2447            2908     181.413E-03     186.813E-03
            2447            2924     191.775E-03     194.814E-03
            2447            2925     187.176E-03     190.051E-03
            2448            2908     181.413E-03     186.813E-03
            2448            2909     176.701E-03     182.180E-03
            2448            2925     187.176E-03     190.051E-03
            2448            2926     182.941E-03     185.682E-03
            2449            2909     176.701E-03     182.180E-03
            2449            2910     172.574E-03     178.064E-03
            2449            2926     182.941E-03     185.682E-03
            2449            2927     179.107E-03     181.756E-03
            2450            2910     172.574E-03     178.064E-03
            2450            2911     169.069E-03     174.513E-03
            2450            2927     179.107E-03     181.756E-03
            2450            2928     175.817E-03     178.387E-03
            2451            2911     169.069E-03     174.513E-03
            2451            2912     166.533E-03     171.803E-03
            2451            2928     175.817E-03     178.387E-03
            2451            2929     173.264E-03     175.828E-03
            2452            2912     166.533E-03     171.803E-03
            2452            2913     164.529E-03     169.620E-03
            2452            2929     173.264E-03     175.828E-03
            2452            2930     171.316E-03     173.916E-03
            2453            2913     164.529E-03     169.620E-03
            2453            2914     162.941E-03     168.119E-03
            2453            2930     171.316E-03     173.916E-03
            2453            2931     169.494E-03     172.700E-03
            2454            2914     162.941E-03     168.119E-03
            2454            2915     155.193E-03     157.982E-03
            2454            2931     169.494E-03     172.700E-03
            2454            2932     161.794E-03     164.407E-03
            2455            2915     155.193E-03     157.982E-03
            2455            2916     127.529E-03     123.824E-03
            2455            2932     161.794E-03     164.407E-03
            2455            2933     134.157E-03     132.714E-03
            2456             550     107.052E-03     99.3743E-03
            2456             551     113.303E-03     109.004E-03
            2456            2916     127.529E-03     123.824E-03
            2456            2933     134.157E-03     132.714E-03
            2457             523     241.541E-03     241.989E-03
            2457             524     230.024E-03     236.686E-03
            2457            2917     235.626E-03     238.463E-03
            2457            2934     223.193E-03     230.076E-03
            2458            2917     235.626E-03     238.463E-03
            2458            2918     224.923E-03     230.413E-03
            2458            2934     223.193E-03     230.076E-03
            2458            2935     216.057E-03     221.716E-03
            2459            2918     224.923E-03     230.413E-03
            2459            2919     217.781E-03     222.512E-03
            2459            2935     216.057E-03     221.716E-03
            2459            2936     214.763E-03     218.318E-03
            2460            2919     217.781E-03     222.512E-03
            2460            2920     212.407E-03     216.303E-03
            2460            2936     214.763E-03     218.318E-03
            2460            2937     212.192E-03     214.830E-03
            2461            2920     212.407E-03     216.303E-03
            2461            2921     206.906E-03     210.703E-03
            2461            2937     212.192E-03     214.830E-03
            2461            2938     208.903E-03     210.825E-03
            2462            2921     206.906E-03     210.703E-03
            2462            2922     201.738E-03     205.180E-03
            2462            2938     208.903E-03     210.825E-03
            2462            2939     205.274E-03     206.404E-03
            2463            2922     201.738E-03     205.180E-03
            2463            2923     196.622E-03     199.872E-03
            2463            2939     205.274E-03     206.404E-03
            2463            2940     201.343E-03     201.818E-03
            2464            2923     196.622E-03     199.872E-03
            2464            2924     191.775E-03     194.814E-03
            2464            2940     201.343E-03     201.818E-03
            2464            2941     197.350E-03     197.233E-03
            2465            2924     191.775E-03     194.814E-03
            2465            2925     187.176E-03     190.051E-03
            2465            2941     197.350E-03     197.233E-03
            2465            2942     193.415E-03     192.825E-03
            2466            2925     187.176E-03     190.051E-03
            2466            2926     182.941E-03     185.682E-03
            2466            2942     193.415E-03     192.825E-03
            2466            2943     189.636E-03     188.699E-03
            2467            2926     182.941E-03     185.682E-03
            2467            2927     179.107E-03     181.756E-03
            2467            2943     189.636E-03     188.699E-03
            2467            2944     186.099E-03     184.957E-03
            2468            2927     179.107E-03     181.756E-03
            2468            2928     175.817E-03     178.387E-03
            2468            2944     186.099E-03     184.957E-03
            2468            2945     182.877E-03     181.669E-03
            2469            2928     175.817E-03     178.387E-03
            2469            2929     173.264E-03     175.828E-03
            2469            2945     182.877E-03     181.669E-03
            2469            2946     179.773E-03     178.683E-03
            2470            2929     173.264E-03     175.828E-03
            2470            2930     171.316E-03     173.916E-03
            2470            2946     179.773E-03     178.683E-03
            2470            2947     177.039E-03     176.207E-03
            2471            2930     171.316E-03     173.916E-03
            2471            2931     169.494E-03     172.700E-03
            2471            2947     177.039E-03     176.207E-03
            2471            2948     172.261E-03     171.701E-03
            2472            2931     169.494E-03     172.700E-03
            2472            2932     161.794E-03     164.407E-03
            2472            2948     172.261E-03     171.701E-03
            2472            2949     165.966E-03     166.446E-03
            2473            2932     161.794E-03     164.407E-03
            2473            2933     134.157E-03     132.714E-03
            2473            2949     165.966E-03     166.446E-03
            2473            2950     149.336E-03     150.764E-03
            2474             551     113.303E-03     109.004E-03
            2474             552     135.369E-03     136.841E-03
            2474            2933     134.157E-03     132.714E-03
            2474            2950     149.336E-03     150.764E-03
            2475              22     194.990E-03     209.973E-03
            2475             524     230.024E-03     236.686E-03
            2475             569     186.780E-03     197.443E-03
            2475            2934     223.193E-03     230.076E-03
            2476             568     178.672E-03     182.999E-03
            2476             569     186.780E-03     197.443E-03
            2476            2934     223.193E-03     230.076E-03
            2476            2935     216.057E-03     221.716E-03
            2477             567     175.371E-03     178.741E-03
            2477             568     178.672E-03     182.999E-03
            2477            2935     216.057E-03     221.716E-03
            2477            2936     214.763E-03     218.318E-03
            2478             566     170.687E-03     174.132E-03
            2478             567     175.371E-03     178.741E-03
            2478            2936     214.763E-03     218.318E-03
            2478            2937     212.192E-03     214.830E-03
            2479             565     166.415E-03     169.090E-03
            2479             566     170.687E-03     174.132E-03
            2479            2937     212.192E-03     214.830E-03
            2479            2938     208.903E-03     210.825E-03
            2480             564     161.239E-03     163.610E-03
            2480             565     166.415E-03     169.090E-03
            2480            2938     208.903E-03     210.825E-03
            2480            2939     205.274E-03     206.404E-03
            2481             563     156.099E-03     157.877E-03
            2481             564     161.239E-03     163.610E-03
            2481            2939     205.274E-03     206.404E-03
            2481            2940     201.343E-03     201.818E-03
            2482             562     150.569E-03     151.944E-03
            2482             563     156.099E-03     157.877E-03
            2482            2940     201.343E-03     201.818E-03
            2482            2941     197.350E-03     197.233E-03
            2483             561     145.092E-03     146.043E-03
            2483             562     150.569E-03     151.944E-03
            2483            2941     197.350E-03     197.233E-03
            2483            2942     193.415E-03     192.825E-03
            2484             560     139.515E-03     140.184E-03
            2484             561     145.092E-03     146.043E-03
            2484            2942     193.415E-03     192.825E-03
            2484            2943     189.636E-03     188.699E-03
            2485             559     134.071E-03     134.517E-03
            2485             560     139.515E-03     140.184E-03
            2485            2943     189.636E-03     188.699E-03
            2485            2944     186.099E-03     184.957E-03
            2486             558     128.653E-03     129.010E-03
            2486             559     134.071E-03     134.517E-03
            2486            2944     186.099E-03     184.957E-03
            2486            2945     182.877E-03     181.669E-03
            2487             557     123.309E-03     123.658E-03
            2487             558     128.653E-03     129.010E-03
            2487            2945     182.877E-03     181.669E-03
            2487            2946     179.773E-03     178.683E-03
            2488             556     117.902E-03     118.337E-03
            2488             557     123.309E-03     123.658E-03
            2488            2946     179.773E-03     178.683E-03
            2488            2947     177.039E-03     176.207E-03
            2489             555     111.534E-03     111.830E-03
            2489             556     117.902E-03     118.337E-03
            2489            2947     177.039E-03     176.207E-03
            2489            2948     172.261E-03     171.701E-03
            2490             554     105.619E-03     106.135E-03
            2490             555     111.534E-03     111.830E-03
            2490            2948     172.261E-03     171.701E-03
            2490            2949     165.966E-03     166.446E-03
            2491             553     100.619E-03     99.7367E-03
            2491             554     105.619E-03     106.135E-03
            2491            2949     165.966E-03     166.446E-03
            2491            2950     149.336E-03     150.764E-03
            2492              23     97.8754E-03     95.1959E-03
            2492             552     135.369E-03     136.841E-03
            2492             553     100.619E-03     99.7367E-03
            2492            2950     149.336E-03     150.764E-03
            2493              17     3.10855E-03     5.37023E-03
            2493             305     4.17871E-03     4.72050E-03
            2493             488     4.04077E-03     6.41165E-03
            2493            2951     7.12186E-03     7.56076E-03
            2494             304     5.91011E-03     4.93469E-03
            2494             305     4.17871E-03     4.72050E-03
            2494            2951     7.12186E-03     7.56076E-03
            2494            2952     12.1871E-03     10.7282E-03
            2495             303     7.33746E-03     6.55577E-03
            2495             304     5.91011E-03     4.93469E-03
            2495            2952     12.1871E-03     10.7282E-03
            2495            2953     15.2849E-03     13.9354E-03
            2496             302     8.36431E-03     7.66030E-03
            2496             303     7.33746E-03     6.55577E-03
            2496            2953     15.2849E-03     13.9354E-03
            2496            2954     16.8731E-03     15.6776E-03
            2497             301     8.80133E-03     8.19123E-03
            2497             302     8.36431E-03     7.66030E-03
            2497            2954     16.8731E-03     15.6776E-03
            2497            2955     17.5395E-03     16.4731E-03
            2498             300     9.02377E-03     8.47329E-03
            2498             301     8.80133E-03     8.19123E-03
            2498            2955     17.5395E-03     16.4731E-03
            2498            2956     17.7351E-03     16.7621E-03
            2499             299     9.06107E-03     8.57117E-03
            2499             300     9.02377E-03     8.47329E-03
            2499            2956     17.7351E-03     16.7621E-03
            2499            2957     17.6572E-03     16.7907E-03
            2500             298     9.01153E-03     8.57463E-03
            2500             299     9.06107E-03     8.57117E-03
            2500            2957     17.6572E-03     16.7907E-03
            2500            2958     17.4668E-03     16.6949E-03
            2501             297     8.91455E-03     8.53641E-03
            2501             298     9.01153E-03     8.57463E-03
            2501            2958     17.4668E-03     16.6949E-03
            2501            2959     17.2176E-03     16.5409E-03
            2502             296     8.78877E-03     8.46223E-03
            2502             297     8.91455E-03     8.53641E-03
            2502            2959     17.2176E-03     16.5409E-03
            2502            2960     16.9465E-03     16.3669E-03
            2503             295     8.64868E-03     8.37911E-03
            2503             296     8.78877E-03     8.46223E-03
            2503            2960     16.9465E-03     16.3669E-03
            2503            2961     16.6640E-03     16.1789E-03
            2504             294     8.49084E-03     8.27450E-03
            2504             295     8.64868E-03     8.37911E-03
            2504            2961     16.6640E-03     16.1789E-03
            2504            2962     16.3721E-03     15.9849E-03
            2505             293     8.30518E-03     8.13910E-03
            2505             294     8.49084E-03     8.27450E-03
            2505            2962     16.3721E-03     15.9849E-03
            2505            2963     16.0391E-03     15.7497E-03
            2506             292     8.09215E-03     7.98722E-03
            2506             293     8.30518E-03     8.13910E-03
            2506            2963     16.0391E-03     15.7497E-03
            2506            2964     15.6587E-03     15.4749E-03
            2507             291     7.79665E-03     7.73431E-03
            2507             292     8.09215E-03     7.98722E-03
            2507            2964     15.6587E-03     15.4749E-03
            2507            2965     15.1230E-03     15.0842E-03
            2508             290     7.48639E-03     7.53613E-03
            2508             291     7.79665E-03     7.73431E-03
            2508            2965     15.1230E-03     15.0842E-03
            2508            2966     14.4413E-03     14.7083E-03
            2509             289     6.95422E-03     7.22974E-03
            2509             290     7.48639E-03     7.53613E-03
            2509            2966     14.4413E-03     14.7083E-03
            2509            2967     13.2333E-03     13.7582E-03
            2510              16     6.55141E-03     6.93843E-03
            2510             289     6.95422E-03     7.22974E-03
            2510             411     12.3590E-03     12.9363E-03
            2510            2967     13.2333E-03     13.7582E-03
            2511             487     5.36143E-03     5.26865E-03
            2511             488     4.04077E-03     6.41165E-03
            2511            2951     7.12186E-03     7.56076E-03
            2511            2968     7.89595E-03     7.95533E-03
            2512            2951     7.12186E-03     7.56076E-03
            2512            2952     12.1871E-03     10.7282E-03
            2512            2968     7.89595E-03     7.95533E-03
            2512            2969     13.2015E-03     12.9946E-03
            2513            2952     12.1871E-03     10.7282E-03
            2513            2953     15.2849E-03     13.9354E-03
            2513            2969     13.2015E-03     12.9946E-03
            2513            2970     16.7473E-03     16.1467E-03
            2514            2953     15.2849E-03     13.9354E-03
            2514            2954     16.8731E-03     15.6776E-03
            2514            2970     16.7473E-03     16.1467E-03
            2514            2971     17.8622E-03     17.2558E-03
            2515            2954     16.8731E-03     15.6776E-03
            2515            2955     17.5395E-03     16.4731E-03
            2515            2971     17.8622E-03     17.2558E-03
            2515            2972     18.1081E-03     17.4924E-03
            2516            2955     17.5395E-03     16.4731E-03
            2516            2956     17.7351E-03     16.7621E-03
            2516            2972     18.1081E-03     17.4924E-03
            2516            2973     17.8596E-03     17.3034E-03
            2517            2956     17.7351E-03     16.7621E-03
            2517            2957     17.6572E-03     16.7907E-03
            2517            2973     17.8596E-03     17.3034E-03
            2517            2974     17.5169E-03     17.0154E-03
            2518            2957     17.6572E-03     16.7907E-03
            2518            2958     17.4668E-03     16.6949E-03
            2518            2974     17.5169E-03     17.0154E-03
            2518            2975     17.1409E-03     16.6937E-03
            2519            2958     17.4668E-03     16.6949E-03
            2519            2959     17.2176E-03     16.5409E-03
            2519            2975     17.1409E-03     16.6937E-03
            2519            2976     16.7917E-03     16.4008E-03
            2520            2959     17.2176E-03     16.5409E-03
            2520            2960     16.9465E-03     16.3669E-03
            2520            2976     16.7917E-03     16.4008E-03
            2520            2977     16.4772E-03     16.1404E-03
            2521            2960     16.9465E-03     16.3669E-03
            2521            2961     16.6640E-03     16.1789E-03
            2521            2977     16.4772E-03     16.1404E-03
            2521            2978     16.1993E-03     15.9215E-03
            2522            2961     16.6640E-03     16.1789E-03
            2522            2962     16.3721E-03     15.9849E-03
            2522            2978     16.1993E-03     15.9215E-03
            2522            2979     15.9472E-03     15.7273E-03
            2523            2962     16.3721E-03     15.9849E-03
            2523            2963     16.0391E-03     15.7497E-03
            2523            2979     15.9472E-03     15.7273E-03
            2523            2980     15.7067E-03     15.5599E-03
            2524            2963     16.0391E-03     15.7497E-03
            2524            2964     15.6587E-03     15.4749E-03
            2524            2980     15.7067E-03     15.5599E-03
            2524            2981     15.4088E-03     15.3187E-03
            2525            2964     15.6587E-03     15.4749E-03
            2525            2965     15.1230E-03     15.0842E-03
            2525            2981     15.4088E-03     15.3187E-03
            2525            2982     14.9645E-03     15.0066E-03
            2526            2965     15.1230E-03     15.0842E-03
            2526            2966     14.4413E-03     14.7083E-03
            2526            2982     14.9645E-03     15.0066E-03
            2526            2983     14.2161E-03     14.3343E-03
            2527            2966     14.4413E-03     14.7083E-03
            2527            2967     13.2333E-03     13.7582E-03
            2527            2983     14.2161E-03     14.3343E-03
            2527            2984     12.7485E-03     12.4737E-03
            2528             410     11.7697E-03     11.1396E-03
            2528             411     12.3590E-03     12.9363E-03
            2528            2967     13.2333E-03     13.7582E-03
            2528            2984     12.7485E-03     12.4737E-03
            2529             486     11.3292E-03     10.8606E-03
            2529             487     5.36143E-03     5.26865E-03
            2529            2968     7.89595E-03     7.95533E-03
            2529            2985     11.9697E-03     12.1008E-03
            2530            2968     7.89595E-03     7.95533E-03
            2530            2969     13.2015E-03     12.9946E-03
            2530            2985     11.9697E-03     12.1008E-03
            2530            2986     14.5615E-03     15.1866E-03
            2531            2969     13.2015E-03     12.9946E-03
            2531            2970     16.7473E-03     16.1467E-03
            2531            2986     14.5615E-03     15.1866E-03
            2531            2987     17.5246E-03     17.7461E-03
            2532            2970     16.7473E-03     16.1467E-03
            2532            2971     17.8622E-03     17.2558E-03
            2532            2987     17.5246E-03     17.7461E-03
            2532            2988     18.4971E-03     18.4065E-03
            2533            2971     17.8622E-03     17.2558E-03
            2533            2972     18.1081E-03     17.4924E-03
            2533            2988     18.4971E-03     18.4065E-03
            2533            2989     18.2776E-03     18.1676E-03
            2534            2972     18.1081E-03     17.4924E-03
            2534            2973     17.8596E-03     17.3034E-03
            2534            2989     18.2776E-03     18.1676E-03
            2534            2990     17.8205E-03     17.7018E-03
            2535            2973     17.8596E-03     17.3034E-03
            2535            2974     17.5169E-03     17.0154E-03
            2535            2990     17.8205E-03     17.7018E-03
            2535            2991     17.2790E-03     17.1683E-03
            2536            2974     17.5169E-03     17.0154E-03
            2536            2975     17.1409E-03     16.6937E-03
            2536            2991     17.2790E-03     17.1683E-03
            2536            2992     16.7887E-03     16.6915E-03
            2537            2975     17.1409E-03     16.6937E-03
            2537            2976     16.7917E-03     16.4008E-03
            2537            2992     16.7887E-03     16.6915E-03
            2537            2993     16.3699E-03     16.2831E-03
            2538            2976     16.7917E-03     16.4008E-03
            2538            2977     16.4772E-03     16.1404E-03
            2538            2993     16.3699E-03     16.2831E-03
            2538            2994     16.0258E-03     15.9521E-03
            2539            2977     16.4772E-03     16.1404E-03
            2539            2978     16.1993E-03     15.9215E-03
            2539            2994     16.0258E-03     15.9521E-03
            2539            2995     15.7556E-03     15.6943E-03
            2540            2978     16.1993E-03     15.9215E-03
            2540            2979     15.9472E-03     15.7273E-03
            2540            2995     15.7556E-03     15.6943E-03
            2540            2996     15.5438E-03     15.5012E-03
            2541            2979     15.9472E-03     15.7273E-03
            2541            2980     15.7067E-03     15.5599E-03
            2541            2996     15.5438E-03     15.5012E-03
            2541            2997     15.3678E-03     15.3404E-03
            2542            2980     15.7067E-03     15.5599E-03
            2542            2981     15.4088E-03     15.3187E-03
            2542            2997     15.3678E-03     15.3404E-03
            2542            2998     15.1619E-03     15.1563E-03
            2543            2981     15.4088E-03     15.3187E-03
            2543            2982     14.9645E-03     15.0066E-03
            2543            2998     15.1619E-03     15.1563E-03
            2543            2999     14.7786E-03     14.6909E-03
            2544            2982     14.9645E-03     15.0066E-03
            2544            2983     14.2161E-03     14.3343E-03
            2544            2999     14.7786E-03     14.6909E-03
            2544            3000     13.9516E-03     13.4950E-03
            2545            2983     14.2161E-03     14.3343E-03
            2545            2984     12.7485E-03     12.4737E-03
            2545            3000     13.9516E-03     13.4950E-03
            2545            3001     12.3235E-03     11.4460E-03
            2546             409     11.2617E-03     10.2330E-03
            2546             410     11.7697E-03     11.1396E-03
            2546            2984     12.7485E-03     12.4737E-03
            2546            3001     12.3235E-03     11.4460E-03
            2547             485     16.9810E-03     17.6522E-03
            2547             486     11.3292E-03     10.8606E-03
            2547            2985     11.9697E-03     12.1008E-03
            2547            3002     16.8294E-03     17.4197E-03
            2548            2985     11.9697E-03     12.1008E-03
            2548            2986     14.5615E-03     15.1866E-03
            2548            3002     16.8294E-03     17.4197E-03
            2548            3003     17.3819E-03     17.9683E-03
            2549            2986     14.5615E-03     15.1866E-03
            2549            2987     17.5246E-03     17.7461E-03
            2549            3003     17.3819E-03     17.9683E-03
            2549            3004     18.3068E-03     18.8556E-03
            2550            2987     17.5246E-03     17.7461E-03
            2550            2988     18.4971E-03     18.4065E-03
            2550            3004     18.3068E-03     18.8556E-03
            2550            3005     18.3818E-03     18.8048E-03
            2551            2988     18.4971E-03     18.4065E-03
            2551            2989     18.2776E-03     18.1676E-03
            2551            3005     18.3818E-03     18.8048E-03
            2551            3006     17.9823E-03     18.3491E-03
            2552            2989     18.2776E-03     18.1676E-03
            2552            2990     17.8205E-03     17.7018E-03
            2552            3006     17.9823E-03     18.3491E-03
            2552            3007     17.4145E-03     17.7287E-03
            2553            2990     17.8205E-03     17.7018E-03
            2553            2991     17.2790E-03     17.1683E-03
            2553            3007     17.4145E-03     17.7287E-03
            2553            3008     16.8292E-03     17.1197E-03
            2554            2991     17.2790E-03     17.1683E-03
            2554            2992     16.7887E-03     16.6915E-03
            2554            3008     16.8292E-03     17.1197E-03
            2554            3009     16.3154E-03     16.5745E-03
            2555            2992     16.7887E-03     16.6915E-03
            2555            2993     16.3699E-03     16.2831E-03
            2555            3009     16.3154E-03     16.5745E-03
            2555            3010     15.8780E-03     16.1095E-03
            2556            2993     16.3699E-03     16.2831E-03
            2556            2994     16.0258E-03     15.9521E-03
            2556            3010     15.8780E-03     16.1095E-03
            2556            3011     15.5323E-03     15.7328E-03
            2557            2994     16.0258E-03     15.9521E-03
            2557            2995     15.7556E-03     15.6943E-03
            2557            3011     15.5323E-03     15.7328E-03
            2557            3012     15.2641E-03     15.4333E-03
            2558            2995     15.7556E-03     15.6943E-03
            2558            2996     15.5438E-03     15.5012E-03
            2558            3012     15.2641E-03     15.4333E-03
            2558            3013     15.0766E-03     15.2126E-03
            2559            2996     15.5438E-03     15.5012E-03
            2559            2997     15.3678E-03     15.3404E-03
            2559            3013     15.0766E-03     15.2126E-03
            2559            3014     14.9284E-03     15.0257E-03
            2560            2997     15.3678E-03     15.3404E-03
            2560            2998     15.1619E-03     15.1563E-03
            2560            3014     14.9284E-03     15.0257E-03
            2560            3015     14.7801E-03     14.8268E-03
            2561            2998     15.1619E-03     15.1563E-03
            2561            2999     14.7786E-03     14.6909E-03
            2561            3015     14.7801E-03     14.8268E-03
            2561            3016     14.4865E-03     14.3509E-03
            2562            2999     14.7786E-03     14.6909E-03
            2562            3000     13.9516E-03     13.4950E-03
            2562            3016     14.4865E-03     14.3509E-03
            2562            3017     13.6751E-03     13.1503E-03
            2563            3000     13.9516E-03     13.4950E-03
            2563            3001     12.3235E-03     11.4460E-03
            2563            3017     13.6751E-03     13.1503E-03
            2563            3018     12.1243E-03     11.1801E-03
            2564             408     11.1620E-03     10.0375E-03
            2564             409     11.2617E-03     10.2330E-03
            2564            3001     12.3235E-03     11.4460E-03
            2564            3018     12.1243E-03     11.1801E-03
            2565             484     23.9163E-03     23.5467E-03
            2565             485     16.9810E-03     17.6522E-03
            2565            3002     16.8294E-03     17.4197E-03
            2565            3019     22.4691E-03     22.5231E-03
            2566            3002     16.8294E-03     17.4197E-03
            2566            3003     17.3819E-03     17.9683E-03
            2566            3019     22.4691E-03     22.5231E-03
            2566            3020     19.9965E-03     20.5876E-03
            2567            3003     17.3819E-03     17.9683E-03
            2567            3004     18.3068E-03     18.8556E-03
            2567            3020     19.9965E-03     20.5876E-03
            2567            3021     18.4113E-03     19.2663E-03
            2568            3004     18.3068E-03     18.8556E-03
            2568            3005     18.3818E-03     18.8048E-03
            2568            3021     18.4113E-03     19.2663E-03
            2568            3022     17.6952E-03     18.6242E-03
            2569            3005     18.3818E-03     18.8048E-03
            2569            3006     17.9823E-03     18.3491E-03
            2569            3022     17.6952E-03     18.6242E-03
            2569            3023     17.2290E-03     18.0447E-03
            2570            3006     17.9823E-03     18.3491E-03
            2570            3007     17.4145E-03     17.7287E-03
            2570            3023     17.2290E-03     18.0447E-03
            2570            3024     16.6718E-03     17.4276E-03
            2571            3007     17.4145E-03     17.7287E-03
            2571            3008     16.8292E-03     17.1197E-03
            2571            3024     16.6718E-03     17.4276E-03
            2571            3025     16.1717E-03     16.8599E-03
            2572            3008     16.8292E-03     17.1197E-03
            2572            3009     16.3154E-03     16.5745E-03
            2572            3025     16.1717E-03     16.8599E-03
            2572            3026     15.6996E-03     16.3234E-03
            2573            3009     16.3154E-03     16.5745E-03
            2573            3010     15.8780E-03     16.1095E-03
            2573            3026     15.6996E-03     16.3234E-03
            2573            3027     15.2973E-03     15.8568E-03
            2574            3010     15.8780E-03     16.1095E-03
            2574            3011     15.5323E-03     15.7328E-03
            2574            3027     15.2973E-03     15.8568E-03
            2574            3028     14.9601E-03     15.4470E-03
            2575            3011     15.5323E-03     15.7328E-03
            2575            3012     15.2641E-03     15.4333E-03
            2575            3028     14.9601E-03     15.4470E-03
            2575            3029     14.6995E-03     15.1113E-03
            2576            3012     15.2641E-03     15.4333E-03
            2576            3013     15.0766E-03     15.2126E-03
            2576            3029     14.6995E-03     15.1113E-03
            2576            3030     14.4971E-03     14.8228E-03
            2577            3013     15.0766E-03     15.2126E-03
            2577            3014     14.9284E-03     15.0257E-03
            2577            3030     14.4971E-03     14.8228E-03
            2577            3031     14.3550E-03     14.5899E-03
            2578            3014     14.9284E-03     15.0257E-03
            2578            3015     14.7801E-03     14.8268E-03
            2578            3031     14.3550E-03     14.5899E-03
            2578            3032     14.2013E-03     14.2994E-03
            2579            3015     14.7801E-03     14.8268E-03
            2579            3016     14.4865E-03     14.3509E-03
            2579            3032     14.2013E-03     14.2994E-03
            2579            3033     13.9871E-03     13.9674E-03
            2580            3016     14.4865E-03     14.3509E-03
            2580            3017     13.6751E-03     13.1503E-03
            2580            3033     13.9871E-03     13.9674E-03
            2580            3034     13.5354E-03     13.3440E-03
            2581            3017     13.6751E-03     13.1503E-03
            2581            3018     12.1243E-03     11.1801E-03
            2581            3034     13.5354E-03     13.3440E-03
            2581            3035     12.2636E-03     11.6988E-03
            2582             407     11.3371E-03     10.5376E-03
            2582             408     11.1620E-03     10.0375E-03
            2582            3018     12.1243E-03     11.1801E-03
            2582            3035     12.2636E-03     11.6988E-03
            2583             483     30.3048E-03     31.6588E-03
            2583             484     23.9163E-03     23.5467E-03
            2583            3019     22.4691E-03     22.5231E-03
            2583            3036     26.2591E-03     27.7137E-03
            2584            3019     22.4691E-03     22.5231E-03
            2584            3020     19.9965E-03     20.5876E-03
            2584            3036     26.2591E-03     27.7137E-03
            2584            3037     20.1154E-03     21.7112E-03
            2585            3020     19.9965E-03     20.5876E-03
            2585            3021     18.4113E-03     19.2663E-03
            2585            3037     20.1154E-03     21.7112E-03
            2585            3038     17.5752E-03     19.1405E-03
            2586            3021     18.4113E-03     19.2663E-03
            2586            3022     17.6952E-03     18.6242E-03
            2586            3038     17.5752E-03     19.1405E-03
            2586            3039     16.7540E-03     18.1680E-03
            2587            3022     17.6952E-03     18.6242E-03
            2587            3023     17.2290E-03     18.0447E-03
            2587            3039     16.7540E-03     18.1680E-03
            2587            3040     16.1926E-03     17.5023E-03
            2588            3023     17.2290E-03     18.0447E-03
            2588            3024     16.6718E-03     17.4276E-03
            2588            3040     16.1926E-03     17.5023E-03
            2588            3041     15.8020E-03     17.0025E-03
            2589            3024     16.6718E-03     17.4276E-03
            2589            3025     16.1717E-03     16.8599E-03
            2589            3041     15.8020E-03     17.0025E-03
            2589            3042     15.3889E-03     16.4864E-03
            2590            3025     16.1717E-03     16.8599E-03
            2590            3026     15.6996E-03     16.3234E-03
            2590            3042     15.3889E-03     16.4864E-03
            2590            3043     15.0019E-03     16.0063E-03
            2591            3026     15.6996E-03     16.3234E-03
            2591            3027     15.2973E-03     15.8568E-03
            2591            3043     15.0019E-03     16.0063E-03
            2591            3044     14.6413E-03     15.5375E-03
            2592            3027     15.2973E-03     15.8568E-03
            2592            3028     14.9601E-03     15.4470E-03
            2592            3044     14.6413E-03     15.5375E-03
            2592            3045     14.3245E-03     15.1146E-03
            2593            3028     14.9601E-03     15.4470E-03
            2593            3029     14.6995E-03     15.1113E-03
            2593            3045     14.3245E-03     15.1146E-03
            2593            3046     14.0583E-03     14.7232E-03
            2594            3029     14.6995E-03     15.1113E-03
            2594            3030     14.4971E-03     14.8228E-03
            2594            3046     14.0583E-03     14.7232E-03
            2594            3047     13.8417E-03     14.3751E-03
            2595            3030     14.4971E-03     14.8228E-03
            2595            3031     14.3550E-03     14.5899E-03
            2595            3047     13.8417E-03     14.3751E-03
            2595            3048     13.6485E-03     14.0260E-03
            2596            3031     14.3550E-03     14.5899E-03
            2596            3032     14.2013E-03     14.2994E-03
            2596            3048     13.6485E-03     14.0260E-03
            2596            3049     13.4841E-03     13.6851E-03
            2597            3032     14.2013E-03     14.2994E-03
            2597            3033     13.9871E-03     13.9674E-03
            2597            3049     13.4841E-03     13.6851E-03
            2597            3050     13.2647E-03     13.2821E-03
            2598            3033     13.9871E-03     13.9674E-03
            2598            3034     13.5354E-03     13.3440E-03
            2598            3050     13.2647E-03     13.2821E-03
            2598            3051     13.1914E-03     13.0640E-03
            2599            3034     13.5354E-03     13.3440E-03
            2599            3035     12.2636E-03     11.6988E-03
            2599            3051     13.1914E-03     13.0640E-03
            2599            3052     12.9231E-03     12.6047E-03
            2600             406     12.5681E-03     12.1209E-03
            2600             407     11.3371E-03     10.5376E-03
            2600            3035     12.2636E-03     11.6988E-03
            2600            3052     12.9231E-03     12.6047E-03
            2601             482     27.2909E-03     28.3100E-03
            2601             483     30.3048E-03     31.6588E-03
            2601            3036     26.2591E-03     27.7137E-03
            2601            3053     26.3105E-03     26.7120E-03
            2602            3036     26.2591E-03     27.7137E-03
            2602            3037     20.1154E-03     21.7112E-03
            2602            3053     26.3105E-03     26.7120E-03
            2602            3054     24.9645E-03     24.7665E-03
            2603            3037     20.1154E-03     21.7112E-03
            2603            3038     17.5752E-03     19.1405E-03
            2603            3054     24.9645E-03     24.7665E-03
            2603            3055     24.6176E-03     24.4420E-03
            2604            3038     17.5752E-03     19.1405E-03
            2604            3039     16.7540E-03     18.1680E-03
            2604            3055     24.6176E-03     24.4420E-03
            2604            3056     24.4396E-03     24.3360E-03
            2605            3039     16.7540E-03     18.1680E-03
            2605            3040     16.1926E-03     17.5023E-03
            2605            3056     24.4396E-03     24.3360E-03
            2605            3057     24.0634E-03     24.0465E-03
            2606            3040     16.1926E-03     17.5023E-03
            2606            3041     15.8020E-03     17.0025E-03
            2606            3057     24.0634E-03     24.0465E-03
            2606            3058     23.5599E-03     23.5949E-03
            2607            3041     15.8020E-03     17.0025E-03
            2607            3042     15.3889E-03     16.4864E-03
            2607            3058     23.5599E-03     23.5949E-03
            2607            3059     22.8606E-03     22.9330E-03
            2608            3042     15.3889E-03     16.4864E-03
            2608            3043     15.0019E-03     16.0063E-03
            2608            3059     22.8606E-03     22.9330E-03
            2608            3060     22.0655E-03     22.1570E-03
            2609            3043     15.0019E-03     16.0063E-03
            2609            3044     14.6413E-03     15.5375E-03
            2609            3060     22.0655E-03     22.1570E-03
            2609            3061     21.2022E-03     21.2979E-03
            2610            3044     14.6413E-03     15.5375E-03
            2610            3045     14.3245E-03     15.1146E-03
            2610            3061     21.2022E-03     21.2979E-03
            2610            3062     20.3262E-03     20.4147E-03
            2611            3045     14.3245E-03     15.1146E-03
            2611            3046     14.0583E-03     14.7232E-03
            2611            3062     20.3262E-03     20.4147E-03
            2611            3063     19.4630E-03     19.5342E-03
            2612            3046     14.0583E-03     14.7232E-03
            2612            3047     13.8417E-03     14.3751E-03
            2612            3063     19.4630E-03     19.5342E-03
            2612            3064     18.6437E-03     18.6915E-03
            2613            3047     13.8417E-03     14.3751E-03
            2613            3048     13.6485E-03     14.0260E-03
            2613            3064     18.6437E-03     18.6915E-03
            2613            3065     17.8554E-03     17.8682E-03
            2614            3048     13.6485E-03     14.0260E-03
            2614            3049     13.4841E-03     13.6851E-03
            2614            3065     17.8554E-03     17.8682E-03
            2614            3066     17.1383E-03     17.1436E-03
            2615            3049     13.4841E-03     13.6851E-03
            2615            3050     13.2647E-03     13.2821E-03
            2615            3066     17.1383E-03     17.1436E-03
            2615            3067     16.4005E-03     16.3892E-03
            2616            3050     13.2647E-03     13.2821E-03
            2616            3051     13.1914E-03     13.0640E-03
            2616            3067     16.4005E-03     16.3892E-03
            2616            3068     15.7919E-03     15.9688E-03
            2617            3051     13.1914E-03     13.0640E-03
            2617            3052     12.9231E-03     12.6047E-03
            2617            3068     15.7919E-03     15.9688E-03
            2617            3069     14.9921E-03     15.8786E-03
            2618             405     14.3806E-03     15.7474E-03
            2618             406     12.5681E-03     12.1209E-03
            2618            3052     12.9231E-03     12.6047E-03
            2618            3069     14.9921E-03     15.8786E-03
            2619             481     25.1591E-03     23.7264E-03
            2619             482     27.2909E-03     28.3100E-03
            2619            3053     26.3105E-03     26.7120E-03
            2619            3070     27.7732E-03     26.2299E-03
            2620            3053     26.3105E-03     26.7120E-03
            2620            3054     24.9645E-03     24.7665E-03
            2620            3070     27.7732E-03     26.2299E-03
            2620            3071     31.7738E-03     30.0812E-03
            2621            3054     24.9645E-03     24.7665E-03
            2621            3055     24.6176E-03     24.4420E-03
            2621            3071     31.7738E-03     30.0812E-03
            2621            3072     33.5334E-03     31.8871E-03
            2622            3055     24.6176E-03     24.4420E-03
            2622            3056     24.4396E-03     24.3360E-03
            2622            3072     33.5334E-03     31.8871E-03
            2622            3073     33.8422E-03     32.3770E-03
            2623            3056     24.4396E-03     24.3360E-03
            2623            3057     24.0634E-03     24.0465E-03
            2623            3073     33.8422E-03     32.3770E-03
            2623            3074     33.3878E-03     32.0899E-03
            2624            3057     24.0634E-03     24.0465E-03
            2624            3058     23.5599E-03     23.5949E-03
            2624            3074     33.3878E-03     32.0899E-03
            2624            3075     32.4068E-03     31.2681E-03
            2625            3058     23.5599E-03     23.5949E-03
            2625            3059     22.8606E-03     22.9330E-03
            2625            3075     32.4068E-03     31.2681E-03
            2625            3076     31.1082E-03     30.1096E-03
            2626            3059     22.8606E-03     22.9330E-03
            2626            3060     22.0655E-03     22.1570E-03
            2626            3076     31.1082E-03     30.1096E-03
            2626            3077     29.6085E-03     28.7259E-03
            2627            3060     22.0655E-03     22.1570E-03
            2627            3061     21.2022E-03     21.2979E-03
            2627            3077     29.6085E-03     28.7259E-03
            2627            3078     28.0012E-03     27.2314E-03
            2628            3061     21.2022E-03     21.2979E-03
            2628            3062     20.3262E-03     20.4147E-03
            2628            3078     28.0012E-03     27.2314E-03
            2628            3079     26.3683E-03     25.6951E-03
            2629            3062     20.3262E-03     20.4147E-03
            2629            3063     19.4630E-03     19.5342E-03
            2629            3079     26.3683E-03     25.6951E-03
            2629            3080     24.7558E-03     24.1903E-03
            2630            3063     19.4630E-03     19.5342E-03
            2630            3064     18.6437E-03     18.6915E-03
            2630            3080     24.7558E-03     24.1903E-03
            2630            3081     23.2276E-03     22.7716E-03
            2631            3064     18.6437E-03     18.6915E-03
            2631            3065     17.8554E-03     17.8682E-03
            2631            3081     23.2276E-03     22.7716E-03
            2631            3082     21.7924E-03     21.4887E-03
            2632            3065     17.8554E-03     17.8682E-03
            2632            3066     17.1383E-03     17.1436E-03
            2632            3082     21.7924E-03     21.4887E-03
            2632            3083     20.4876E-03     20.3944E-03
            2633            3066     17.1383E-03     17.1436E-03
            2633            3067     16.4005E-03     16.3892E-03
            2633            3083     20.4876E-03     20.3944E-03
            2633            3084     19.2446E-03     19.5026E-03
            2634            3067     16.4005E-03     16.3892E-03
            2634            3068     15.7919E-03     15.9688E-03
            2634            3084     19.2446E-03     19.5026E-03
            2634            3085     17.9530E-03     19.0011E-03
            2635            3068     15.7919E-03     15.9688E-03
            2635            3069     14.9921E-03     15.8786E-03
            2635            3085     17.9530E-03     19.0011E-03
            2635            3086     16.5210E-03     18.4397E-03
            2636             404     15.7409E-03     17.9829E-03
            2636             405     14.3806E-03     15.7474E-03
            2636            3069     14.9921E-03     15.8786E-03
            2636            3086     16.5210E-03     18.4397E-03
            2637             480     31.7153E-03     31.7945E-03
            2637             481     25.1591E-03     23.7264E-03
            2637            3070     27.7732E-03     26.2299E-03
            2637            3087     32.4002E-03     32.5510E-03
            2638            3070     27.7732E-03     26.2299E-03
            2638            3071     31.7738E-03     30.0812E-03
            2638            3087     32.4002E-03     32.5510E-03
            2638            3088     34.4019E-03     34.3640E-03
            2639            3071     31.7738E-03     30.0812E-03
            2639            3072     33.5334E-03     31.8871E-03
            2639            3088     34.4019E-03     34.3640E-03
            2639            3089     35.9919E-03     35.5631E-03
            2640            3072     33.5334E-03     31.8871E-03
            2640            3073     33.8422E-03     32.3770E-03
            2640            3089     35.9919E-03     35.5631E-03
            2640            3090     36.0081E-03     35.3901E-03
            2641            3073     33.8422E-03     32.3770E-03
            2641            3074     33.3878E-03     32.0899E-03
            2641            3090     36.0081E-03     35.3901E-03
            2641            3091     35.1131E-03     34.4449E-03
            2642            3074     33.3878E-03     32.0899E-03
            2642            3075     32.4068E-03     31.2681E-03
            2642            3091     35.1131E-03     34.4449E-03
            2642            3092     33.6542E-03     32.9920E-03
            2643            3075     32.4068E-03     31.2681E-03
            2643            3076     31.1082E-03     30.1096E-03
            2643            3092     33.6542E-03     32.9920E-03
            2643            3093     31.8673E-03     31.2390E-03
            2644            3076     31.1082E-03     30.1096E-03
            2644            3077     29.6085E-03     28.7259E-03
            2644            3093     31.8673E-03     31.2390E-03
            2644            3094     29.9068E-03     29.3328E-03
            2645            3077     29.6085E-03     28.7259E-03
            2645            3078     28.0012E-03     27.2314E-03
            2645            3094     29.9068E-03     29.3328E-03
            2645            3095     27.8938E-03     27.3753E-03
            2646            3078     28.0012E-03     27.2314E-03
            2646            3079     26.3683E-03     25.6951E-03
            2646            3095     27.8938E-03     27.3753E-03
            2646            3096     25.9001E-03     25.4518E-03
            2647            3079     26.3683E-03     25.6951E-03
            2647            3080     24.7558E-03     24.1903E-03
            2647            3096     25.9001E-03     25.4518E-03
            2647            3097     24.0016E-03     23.6356E-03
            2648            3080     24.7558E-03     24.1903E-03
            2648            3081     23.2276E-03     22.7716E-03
            2648            3097     24.0016E-03     23.6356E-03
            2648            3098     22.2372E-03     21.9825E-03
            2649            3081     23.2276E-03     22.7716E-03
            2649            3082     21.7924E-03     21.4887E-03
            2649            3098     22.2372E-03     21.9825E-03
            2649            3099     20.6503E-03     20.5661E-03
            2650            3082     21.7924E-03     21.4887E-03
            2650            3083     20.4876E-03     20.3944E-03
            2650            3099     20.6503E-03     20.5661E-03
            2650            3100     19.2550E-03     19.4069E-03
            2651            3083     20.4876E-03     20.3944E-03
            2651            3084     19.2446E-03     19.5026E-03
            2651            3100     19.2550E-03     19.4069E-03
            2651            3101     18.0012E-03     18.5815E-03
            2652            3084     19.2446E-03     19.5026E-03
            2652            3085     17.9530E-03     19.0011E-03
            2652            3101     18.0012E-03     18.5815E-03
            2652            3102     16.9459E-03     17.9054E-03
            2653            3085     17.9530E-03     19.0011E-03
            2653            3086     16.5210E-03     18.4397E-03
            2653            3102     16.9459E-03     17.9054E-03
            2653            3103     16.0812E-03     16.4839E-03
            2654             403     15.6676E-03     15.4351E-03
            2654             404     15.7409E-03     17.9829E-03
            2654            3086     16.5210E-03     18.4397E-03
            2654            3103     16.0812E-03     16.4839E-03
            2655             479     37.9944E-03     37.9600E-03
            2655             480     31.7153E-03     31.7945E-03
            2655            3087     32.4002E-03     32.5510E-03
            2655            3104     37.6212E-03     37.9391E-03
            2656            3087     32.4002E-03     32.5510E-03
            2656            3088     34.4019E-03     34.3640E-03
            2656            3104     37.6212E-03     37.9391E-03
            2656            3105     37.6407E-03     38.2663E-03
            2657            3088     34.4019E-03     34.3640E-03
            2657            3089     35.9919E-03     35.5631E-03
            2657            3105     37.6407E-03     38.2663E-03
            2657            3106     38.1685E-03     38.5638E-03
            2658            3089     35.9919E-03     35.5631E-03
            2658            3090     36.0081E-03     35.3901E-03
            2658            3106     38.1685E-03     38.5638E-03
            2658            3107     37.8132E-03     37.9360E-03
            2659            3090     36.0081E-03     35.3901E-03
            2659            3091     35.1131E-03     34.4449E-03
            2659            3107     37.8132E-03     37.9360E-03
            2659            3108     36.5445E-03     36.4887E-03
            2660            3091     35.1131E-03     34.4449E-03
            2660            3092     33.6542E-03     32.9920E-03
            2660            3108     36.5445E-03     36.4887E-03
            2660            3109     34.7130E-03     34.5533E-03
            2661            3092     33.6542E-03     32.9920E-03
            2661            3093     31.8673E-03     31.2390E-03
            2661            3109     34.7130E-03     34.5533E-03
            2661            3110     32.5392E-03     32.3391E-03
            2662            3093     31.8673E-03     31.2390E-03
            2662            3094     29.9068E-03     29.3328E-03
            2662            3110     32.5392E-03     32.3391E-03
            2662            3111     30.2236E-03     30.0056E-03
            2663            3094     29.9068E-03     29.3328E-03
            2663            3095     27.8938E-03     27.3753E-03
            2663            3111     30.2236E-03     30.0056E-03
            2663            3112     27.8708E-03     27.6658E-03
            2664            3095     27.8938E-03     27.3753E-03
            2664            3096     25.9001E-03     25.4518E-03
            2664            3112     27.8708E-03     27.6658E-03
            2664            3113     25.5872E-03     25.4104E-03
            2665            3096     25.9001E-03     25.4518E-03
            2665            3097     24.0016E-03     23.6356E-03
            2665            3113     25.5872E-03     25.4104E-03
            2665            3114     23.4310E-03     23.3049E-03
            2666            3097     24.0016E-03     23.6356E-03
            2666            3098     22.2372E-03     21.9825E-03
            2666            3114     23.4310E-03     23.3049E-03
            2666            3115     21.4642E-03     21.4240E-03
            2667            3098     22.2372E-03     21.9825E-03
            2667            3099     20.6503E-03     20.5661E-03
            2667            3115     21.4642E-03     21.4240E-03
            2667            3116     19.7291E-03     19.8053E-03
            2668            3099     20.6503E-03     20.5661E-03
            2668            3100     19.2550E-03     19.4069E-03
            2668            3116     19.7291E-03     19.8053E-03
            2668            3117     18.2413E-03     18.4903E-03
            2669            3100     19.2550E-03     19.4069E-03
            2669            3101     18.0012E-03     18.5815E-03
            2669            3117     18.2413E-03     18.4903E-03
            2669            3118     17.0358E-03     17.4161E-03
            2670            3101     18.0012E-03     18.5815E-03
            2670            3102     16.9459E-03     17.9054E-03
            2670            3118     17.0358E-03     17.4161E-03
            2670            3119     16.1098E-03     16.1715E-03
            2671            3102     16.9459E-03     17.9054E-03
            2671            3103     16.0812E-03     16.4839E-03
            2671            3119     16.1098E-03     16.1715E-03
            2671            3120     15.0420E-03     14.5660E-03
            2672             402     14.3836E-03     13.7031E-03
            2672             403     15.6676E-03     15.4351E-03
            2672            3103     16.0812E-03     16.4839E-03
            2672            3120     15.0420E-03     14.5660E-03
            2673             478     43.1598E-03     43.4776E-03
            2673             479     37.9944E-03     37.9600E-03
            2673            3104     37.6212E-03     37.9391E-03
            2673            3121     42.3844E-03     42.8373E-03
            2674            3104     37.6212E-03     37.9391E-03
            2674            3105     37.6407E-03     38.2663E-03
            2674            3121     42.3844E-03     42.8373E-03
            2674            3122     41.2180E-03     41.9349E-03
            2675            3105     37.6407E-03     38.2663E-03
            2675            3106     38.1685E-03     38.5638E-03
            2675            3122     41.2180E-03     41.9349E-03
            2675            3123     40.4224E-03     41.2233E-03
            2676            3106     38.1685E-03     38.5638E-03
            2676            3107     37.8132E-03     37.9360E-03
            2676            3123     40.4224E-03     41.2233E-03
            2676            3124     39.3585E-03     39.9809E-03
            2677            3107     37.8132E-03     37.9360E-03
            2677            3108     36.5445E-03     36.4887E-03
            2677            3124     39.3585E-03     39.9809E-03
            2677            3125     37.6550E-03     38.0916E-03
            2678            3108     36.5445E-03     36.4887E-03
            2678            3109     34.7130E-03     34.5533E-03
            2678            3125     37.6550E-03     38.0916E-03
            2678            3126     35.4477E-03     35.7558E-03
            2679            3109     34.7130E-03     34.5533E-03
            2679            3110     32.5392E-03     32.3391E-03
            2679            3126     35.4477E-03     35.7558E-03
            2679            3127     32.9744E-03     33.1820E-03
            2680            3110     32.5392E-03     32.3391E-03
            2680            3111     30.2236E-03     30.0056E-03
            2680            3127     32.9744E-03     33.1820E-03
            2680            3128     30.3661E-03     30.5230E-03
            2681            3111     30.2236E-03     30.0056E-03
            2681            3112     27.8708E-03     27.6658E-03
            2681            3128     30.3661E-03     30.5230E-03
            2681            3129     27.7715E-03     27.8961E-03
            2682            3112     27.8708E-03     27.6658E-03
            2682            3113     25.5872E-03     25.4104E-03
            2682            3129     27.7715E-03     27.8961E-03
            2682            3130     25.2600E-03     25.3752E-03
            2683            3113     25.5872E-03     25.4104E-03
            2683            3114     23.4310E-03     23.3049E-03
            2683            3130     25.2600E-03     25.3752E-03
            2683            3131     22.9089E-03     23.0353E-03
            2684            3114     23.4310E-03     23.3049E-03
            2684            3115     21.4642E-03     21.4240E-03
            2684            3131     22.9089E-03     23.0353E-03
            2684            3132     20.7732E-03     20.9237E-03
            2685            3115     21.4642E-03     21.4240E-03
            2685            3116     19.7291E-03     19.8053E-03
            2685            3132     20.7732E-03     20.9237E-03
            2685            3133     18.9030E-03     19.0879E-03
            2686            3116     19.7291E-03     19.8053E-03
            2686            3117     18.2413E-03     18.4903E-03
            2686            3133     18.9030E-03     19.0879E-03
            2686            3134     17.3322E-03     17.5205E-03
            2687            3117     18.2413E-03     18.4903E-03
            2687            3118     17.0358E-03     17.4161E-03
            2687            3134     17.3322E-03     17.5205E-03
            2687            3135     16.0886E-03     16.0825E-03
            2688            3118     17.0358E-03     17.4161E-03
            2688            3119     16.1098E-03     16.1715E-03
            2688            3135     16.0886E-03     16.0825E-03
            2688            3136     15.0145E-03     14.6686E-03
            2689            3119     16.1098E-03     16.1715E-03
            2689            3120     15.0420E-03     14.5660E-03
            2689            3136     15.0145E-03     14.6686E-03
            2689            3137     14.0674E-03     13.3681E-03
            2690             401     13.6511E-03     12.7654E-03
            2690             402     14.3836E-03     13.7031E-03
            2690            3120     15.0420E-03     14.5660E-03
            2690            3137     14.0674E-03     13.3681E-03
            2691             477     48.3001E-03     48.5191E-03
            2691             478     43.1598E-03     43.4776E-03
            2691            3121     42.3844E-03     42.8373E-03
            2691            3138     46.9164E-03     47.4071E-03
            2692            3121     42.3844E-03     42.8373E-03
            2692            3122     41.2180E-03     41.9349E-03
            2692            3138     46.9164E-03     47.4071E-03
            2692            3139     44.5947E-03     45.4402E-03
            2693            3122     41.2180E-03     41.9349E-03
            2693            3123     40.4224E-03     41.2233E-03
            2693            3139     44.5947E-03     45.4402E-03
            2693            3140     42.7583E-03     43.6837E-03
            2694            3123     40.4224E-03     41.2233E-03
            2694            3124     39.3585E-03     39.9809E-03
            2694            3140     42.7583E-03     43.6837E-03
            2694            3141     40.7519E-03     41.6675E-03
            2695            3124     39.3585E-03     39.9809E-03
            2695            3125     37.6550E-03     38.0916E-03
            2695            3141     40.7519E-03     41.6675E-03
            2695            3142     38.4463E-03     39.2587E-03
            2696            3125     37.6550E-03     38.0916E-03
            2696            3126     35.4477E-03     35.7558E-03
            2696            3142     38.4463E-03     39.2587E-03
            2696            3143     35.8547E-03     36.5310E-03
            2697            3126     35.4477E-03     35.7558E-03
            2697            3127     32.9744E-03     33.1820E-03
            2697            3143     35.8547E-03     36.5310E-03
            2697            3144     33.0666E-03     33.6558E-03
            2698            3127     32.9744E-03     33.1820E-03
            2698            3128     30.3661E-03     30.5230E-03
            2698            3144     33.0666E-03     33.6558E-03
            2698            3145     30.2533E-03     30.7617E-03
            2699            3128     30.3661E-03     30.5230E-03
            2699            3129     27.7715E-03     27.8961E-03
            2699            3145     30.2533E-03     30.7617E-03
            2699            3146     27.4721E-03     27.9233E-03
            2700            3129     27.7715E-03     27.8961E-03
            2700            3130     25.2600E-03     25.3752E-03
            2700            3146     27.4721E-03     27.9233E-03
            2700            3147     24.8078E-03     25.2160E-03
            2701            3130     25.2600E-03     25.3752E-03
            2701            3131     22.9089E-03     23.0353E-03
            2701            3147     24.8078E-03     25.2160E-03
            2701            3148     22.3176E-03     22.6874E-03
            2702            3131     22.9089E-03     23.0353E-03
            2702            3132     20.7732E-03     20.9237E-03
            2702            3148     22.3176E-03     22.6874E-03
            2702            3149     20.0563E-03     20.3847E-03
            2703            3132     20.7732E-03     20.9237E-03
            2703            3133     18.9030E-03     19.0879E-03
            2703            3149     20.0563E-03     20.3847E-03
            2703            3150     18.0712E-03     18.3286E-03
            2704            3133     18.9030E-03     19.0879E-03
            2704            3134     17.3322E-03     17.5205E-03
            2704            3150     18.0712E-03     18.3286E-03
            2704            3151     16.4202E-03     16.5058E-03
            2705            3134     17.3322E-03     17.5205E-03
            2705            3135     16.0886E-03     16.0825E-03
            2705            3151     16.4202E-03     16.5058E-03
            2705            3152     15.0611E-03     14.8671E-03
            2706            3135     16.0886E-03     16.0825E-03
            2706            3136     15.0145E-03     14.6686E-03
            2706            3152     15.0611E-03     14.8671E-03
            2706            3153     14.0084E-03     13.4370E-03
            2707            3136     15.0145E-03     14.6686E-03
            2707            3137     14.0674E-03     13.3681E-03
            2707            3153     14.0084E-03     13.4370E-03
            2707            3154     13.2745E-03     12.2772E-03
            2708             400     12.9735E-03     11.7710E-03
            2708             401     13.6511E-03     12.7654E-03
            2708            3137     14.0674E-03     13.3681E-03
            2708            3154     13.2745E-03     12.2772E-03
            2709             476     52.8968E-03     53.5979E-03
            2709             477     48.3001E-03     48.5191E-03
            2709            3138     46.9164E-03     47.4071E-03
            2709            3155     51.1791E-03     51.8645E-03
            2710            3138     46.9164E-03     47.4071E-03
            2710            3139     44.5947E-03     45.4402E-03
            2710            3155     51.1791E-03     51.8645E-03
            2710            3156     47.9301E-03     48.7459E-03
            2711            3139     44.5947E-03     45.4402E-03
            2711            3140     42.7583E-03     43.6837E-03
            2711            3156     47.9301E-03     48.7459E-03
            2711            3157     44.8884E-03     45.9407E-03
            2712            3140     42.7583E-03     43.6837E-03
            2712            3141     40.7519E-03     41.6675E-03
            2712            3157     44.8884E-03     45.9407E-03
            2712            3158     41.9391E-03     43.0398E-03
            2713            3141     40.7519E-03     41.6675E-03
            2713            3142     38.4463E-03     39.2587E-03
            2713            3158     41.9391E-03     43.0398E-03
            2713            3159     38.9317E-03     39.9785E-03
            2714            3142     38.4463E-03     39.2587E-03
            2714            3143     35.8547E-03     36.5310E-03
            2714            3159     38.9317E-03     39.9785E-03
            2714            3160     35.8492E-03     36.8483E-03
            2715            3143     35.8547E-03     36.5310E-03
            2715            3144     33.0666E-03     33.6558E-03
            2715            3160     35.8492E-03     36.8483E-03
            2715            3161     32.8155E-03     33.7291E-03
            2716            3144     33.0666E-03     33.6558E-03
            2716            3145     30.2533E-03     30.7617E-03
            2716            3161     32.8155E-03     33.7291E-03
            2716            3162     29.8178E-03     30.6526E-03
            2717            3145     30.2533E-03     30.7617E-03
            2717            3146     27.4721E-03     27.9233E-03
            2717            3162     29.8178E-03     30.6526E-03
            2717            3163     26.9187E-03     27.6830E-03
            2718            3146     27.4721E-03     27.9233E-03
            2718            3147     24.8078E-03     25.2160E-03
            2718            3163     26.9187E-03     27.6830E-03
            2718            3164     24.1579E-03     24.8481E-03
            2719            3147     24.8078E-03     25.2160E-03
            2719            3148     22.3176E-03     22.6874E-03
            2719            3164     24.1579E-03     24.8481E-03
            2719            3165     21.5748E-03     22.1871E-03
            2720            3148     22.3176E-03     22.6874E-03
            2720            3149     20.0563E-03     20.3847E-03
            2720            3165     21.5748E-03     22.1871E-03
            2720            3166     19.2313E-03     19.7360E-03
            2721            3149     20.0563E-03     20.3847E-03
            2721            3150     18.0712E-03     18.3286E-03
            2721            3166     19.2313E-03     19.7360E-03
            2721            3167     17.1778E-03     17.5125E-03
            2722            3150     18.0712E-03     18.3286E-03
            2722            3151     16.4202E-03     16.5058E-03
            2722            3167     17.1778E-03     17.5125E-03
            2722            3168     15.4365E-03     15.5075E-03
            2723            3151     16.4202E-03     16.5058E-03
            2723            3152     15.0611E-03     14.8671E-03
            2723            3168     15.4365E-03     15.5075E-03
            2723            3169     14.0815E-03     13.7804E-03
            2724            3152     15.0611E-03     14.8671E-03
            2724            3153     14.0084E-03     13.4370E-03
            2724            3169     14.0815E-03     13.7804E-03
            2724            3170     13.1144E-03     12.3704E-03
            2725            3153     14.0084E-03     13.4370E-03
            2725            3154     13.2745E-03     12.2772E-03
            2725            3170     13.1144E-03     12.3704E-03
            2725            3171     12.6189E-03     11.5042E-03
            2726             399     12.5233E-03     11.2648E-03
            2726             400     12.9735E-03     11.7710E-03
            2726            3154     13.2745E-03     12.2772E-03
            2726            3171     12.6189E-03     11.5042E-03
            2727             475     57.9290E-03     58.1934E-03
            2727             476     52.8968E-03     53.5979E-03
            2727            3155     51.1791E-03     51.8645E-03
            2727            3172     55.5509E-03     56.1342E-03
            2728            3155     51.1791E-03     51.8645E-03
            2728            3156     47.9301E-03     48.7459E-03
            2728            3172     55.5509E-03     56.1342E-03
            2728            3173     50.9736E-03     51.9778E-03
            2729            3156     47.9301E-03     48.7459E-03
            2729            3157     44.8884E-03     45.9407E-03
            2729            3173     50.9736E-03     51.9778E-03
            2729            3174     46.7744E-03     47.8829E-03
            2730            3157     44.8884E-03     45.9407E-03
            2730            3158     41.9391E-03     43.0398E-03
            2730            3174     46.7744E-03     47.8829E-03
            2730            3175     42.7316E-03     43.9180E-03
            2731            3158     41.9391E-03     43.0398E-03
            2731            3159     38.9317E-03     39.9785E-03
            2731            3175     42.7316E-03     43.9180E-03
            2731            3176     38.9078E-03     40.1912E-03
            2732            3159     38.9317E-03     39.9785E-03
            2732            3160     35.8492E-03     36.8483E-03
            2732            3176     38.9078E-03     40.1912E-03
            2732            3177     35.4560E-03     36.7167E-03
            2733            3160     35.8492E-03     36.8483E-03
            2733            3161     32.8155E-03     33.7291E-03
            2733            3177     35.4560E-03     36.7167E-03
            2733            3178     32.1804E-03     33.3838E-03
            2734            3161     32.8155E-03     33.7291E-03
            2734            3162     29.8178E-03     30.6526E-03
            2734            3178     32.1804E-03     33.3838E-03
            2734            3179     29.0632E-03     30.2033E-03
            2735            3162     29.8178E-03     30.6526E-03
            2735            3163     26.9187E-03     27.6830E-03
            2735            3179     29.0632E-03     30.2033E-03
            2735            3180     26.0936E-03     27.1518E-03
            2736            3163     26.9187E-03     27.6830E-03
            2736            3164     24.1579E-03     24.8481E-03
            2736            3180     26.0936E-03     27.1518E-03
            2736            3181     23.2707E-03     24.2441E-03
            2737            3164     24.1579E-03     24.8481E-03
            2737            3165     21.5748E-03     22.1871E-03
            2737            3181     23.2707E-03     24.2441E-03
            2737            3182     20.6425E-03     21.5022E-03
            2738            3165     21.5748E-03     22.1871E-03
            2738            3166     19.2313E-03     19.7360E-03
            2738            3182     20.6425E-03     21.5022E-03
            2738            3183     18.2395E-03     18.9424E-03
            2739            3166     19.2313E-03     19.7360E-03
            2739            3167     17.1778E-03     17.5125E-03
            2739            3183     18.2395E-03     18.9424E-03
            2739            3184     16.1477E-03     16.6143E-03
            2740            3167     17.1778E-03     17.5125E-03
            2740            3168     15.4365E-03     15.5075E-03
            2740            3184     16.1477E-03     16.6143E-03
            2740            3185     14.4381E-03     14.5605E-03
            2741            3168     15.4365E-03     15.5075E-03
            2741            3169     14.0815E-03     13.7804E-03
            2741            3185     14.4381E-03     14.5605E-03
            2741            3186     13.1280E-03     12.7918E-03
            2742            3169     14.0815E-03     13.7804E-03
            2742            3170     13.1144E-03     12.3704E-03
            2742            3186     13.1280E-03     12.7918E-03
            2742            3187     12.3691E-03     11.5409E-03
            2743            3170     13.1144E-03     12.3704E-03
            2743            3171     12.6189E-03     11.5042E-03
            2743            3187     12.3691E-03     11.5409E-03
            2743            3188     12.2457E-03     11.0204E-03
            2744             398     12.3298E-03     10.9441E-03
            2744             399     12.5233E-03     11.2648E-03
            2744            3171     12.6189E-03     11.5042E-03
            2744            3188     12.2457E-03     11.0204E-03
            2745             474     62.5064E-03     63.8113E-03
            2745             475     57.9290E-03     58.1934E-03
            2745            3172     55.5509E-03     56.1342E-03
            2745            3189     59.6790E-03     60.7487E-03
            2746            3172     55.5509E-03     56.1342E-03
            2746            3173     50.9736E-03     51.9778E-03
            2746            3189     59.6790E-03     60.7487E-03
            2746            3190     53.9268E-03     54.7930E-03
            2747            3173     50.9736E-03     51.9778E-03
            2747            3174     46.7744E-03     47.8829E-03
            2747            3190     53.9268E-03     54.7930E-03
            2747            3191     47.9953E-03     49.0884E-03
            2748            3174     46.7744E-03     47.8829E-03
            2748            3175     42.7316E-03     43.9180E-03
            2748            3191     47.9953E-03     49.0884E-03
            2748            3192     42.6622E-03     44.0737E-03
            2749            3175     42.7316E-03     43.9180E-03
            2749            3176     38.9078E-03     40.1912E-03
            2749            3192     42.6622E-03     44.0737E-03
            2749            3193     38.3865E-03     39.8893E-03
            2750            3176     38.9078E-03     40.1912E-03
            2750            3177     35.4560E-03     36.7167E-03
            2750            3193     38.3865E-03     39.8893E-03
            2750            3194     34.6289E-03     36.1269E-03
            2751            3177     35.4560E-03     36.7167E-03
            2751            3178     32.1804E-03     33.3838E-03
            2751            3194     34.6289E-03     36.1269E-03
            2751            3195     31.2063E-03     32.6874E-03
            2752            3178     32.1804E-03     33.3838E-03
            2752            3179     29.0632E-03     30.2033E-03
            2752            3195     31.2063E-03     32.6874E-03
            2752            3196     28.0286E-03     29.4476E-03
            2753            3179     29.0632E-03     30.2033E-03
            2753            3180     26.0936E-03     27.1518E-03
            2753            3196     28.0286E-03     29.4476E-03
            2753            3197     25.0114E-03     26.3662E-03
            2754            3180     26.0936E-03     27.1518E-03
            2754            3181     23.2707E-03     24.2441E-03
            2754            3197     25.0114E-03     26.3662E-03
            2754            3198     22.1673E-03     23.4270E-03
            2755            3181     23.2707E-03     24.2441E-03
            2755            3182     20.6425E-03     21.5022E-03
            2755            3198     22.1673E-03     23.4270E-03
            2755            3199     19.4914E-03     20.6255E-03
            2756            3182     20.6425E-03     21.5022E-03
            2756            3183     18.2395E-03     18.9424E-03
            2756            3199     19.4914E-03     20.6255E-03
            2756            3200     17.0602E-03     18.0042E-03
            2757            3183     18.2395E-03     18.9424E-03
            2757            3184     16.1477E-03     16.6143E-03
            2757            3200     17.0602E-03     18.0042E-03
            2757            3201     14.9320E-03     15.5952E-03
            2758            3184     16.1477E-03     16.6143E-03
            2758            3185     14.4381E-03     14.5605E-03
            2758            3201     14.9320E-03     15.5952E-03
            2758            3202     13.2926E-03     13.5415E-03
            2759            3185     14.4381E-03     14.5605E-03
            2759            3186     13.1280E-03     12.7918E-03
            2759            3202     13.2926E-03     13.5415E-03
            2759            3203     12.2938E-03     12.0079E-03
            2760            3186     13.1280E-03     12.7918E-03
            2760            3187     12.3691E-03     11.5409E-03
            2760            3203     12.2938E-03     12.0079E-03
            2760            3204     11.8788E-03     11.0242E-03
            2761            3187     12.3691E-03     11.5409E-03
            2761            3188     12.2457E-03     11.0204E-03
            2761            3204     11.8788E-03     11.0242E-03
            2761            3205     12.1396E-03     10.8730E-03
            2762             397     12.4736E-03     11.0756E-03
            2762             398     12.3298E-03     10.9441E-03
            2762            3188     12.2457E-03     11.0204E-03
            2762            3205     12.1396E-03     10.8730E-03
            2763             473     68.3365E-03     68.1127E-03
            2763             474     62.5064E-03     63.8113E-03
            2763            3189     59.6790E-03     60.7487E-03
            2763            3206     64.3529E-03     64.4782E-03
            2764            3189     59.6790E-03     60.7487E-03
            2764            3190     53.9268E-03     54.7930E-03
            2764            3206     64.3529E-03     64.4782E-03
            2764            3207     55.5999E-03     56.4761E-03
            2765            3190     53.9268E-03     54.7930E-03
            2765            3191     47.9953E-03     49.0884E-03
            2765            3207     55.5999E-03     56.4761E-03
            2765            3208     47.5402E-03     49.0359E-03
            2766            3191     47.9953E-03     49.0884E-03
            2766            3192     42.6622E-03     44.0737E-03
            2766            3208     47.5402E-03     49.0359E-03
            2766            3209     41.8677E-03     43.5511E-03
            2767            3192     42.6622E-03     44.0737E-03
            2767            3193     38.3865E-03     39.8893E-03
            2767            3209     41.8677E-03     43.5511E-03
            2767            3210     37.3551E-03     39.0643E-03
            2768            3193     38.3865E-03     39.8893E-03
            2768            3194     34.6289E-03     36.1269E-03
            2768            3210     37.3551E-03     39.0643E-03
            2768            3211     33.4576E-03     35.2040E-03
            2769            3194     34.6289E-03     36.1269E-03
            2769            3195     31.2063E-03     32.6874E-03
            2769            3211     33.4576E-03     35.2040E-03
            2769            3212     30.0035E-03     31.7304E-03
            2770            3195     31.2063E-03     32.6874E-03
            2770            3196     28.0286E-03     29.4476E-03
            2770            3212     30.0035E-03     31.7304E-03
            2770            3213     26.7819E-03     28.4864E-03
            2771            3196     28.0286E-03     29.4476E-03
            2771            3197     25.0114E-03     26.3662E-03
            2771            3213     26.7819E-03     28.4864E-03
            2771            3214     23.7580E-03     25.4100E-03
            2772            3197     25.0114E-03     26.3662E-03
            2772            3198     22.1673E-03     23.4270E-03
            2772            3214     23.7580E-03     25.4100E-03
            2772            3215     20.8761E-03     22.4493E-03
            2773            3198     22.1673E-03     23.4270E-03
            2773            3199     19.4914E-03     20.6255E-03
            2773            3215     20.8761E-03     22.4493E-03
            2773            3216     18.1661E-03     19.6133E-03
            2774            3199     19.4914E-03     20.6255E-03
            2774            3200     17.0602E-03     18.0042E-03
            2774            3216     18.1661E-03     19.6133E-03
            2774            3217     15.6607E-03     16.9106E-03
            2775            3200     17.0602E-03     18.0042E-03
            2775            3201     14.9320E-03     15.5952E-03
            2775            3217     15.6607E-03     16.9106E-03
            2775            3218     13.5081E-03     14.4434E-03
            2776            3201     14.9320E-03     15.5952E-03
            2776            3202     13.2926E-03     13.5415E-03
            2776            3218     13.5081E-03     14.4434E-03
            2776            3219     11.8691E-03     12.3326E-03
            2777            3202     13.2926E-03     13.5415E-03
            2777            3203     12.2938E-03     12.0079E-03
            2777            3219     11.8691E-03     12.3326E-03
            2777            3220     11.1972E-03     11.0269E-03
            2778            3203     12.2938E-03     12.0079E-03
            2778            3204     11.8788E-03     11.0242E-03
            2778            3220     11.1972E-03     11.0269E-03
            2778            3221     11.7130E-03     10.9006E-03
            2779            3204     11.8788E-03     11.0242E-03
            2779            3205     12.1396E-03     10.8730E-03
            2779            3221     11.7130E-03     10.9006E-03
            2779            3222     12.7249E-03     11.4992E-03
            2780             396     13.2237E-03     11.8692E-03
            2780             397     12.4736E-03     11.0756E-03
            2780            3205     12.1396E-03     10.8730E-03
            2780            3222     12.7249E-03     11.4992E-03
            2781             472     73.4767E-03     74.6086E-03
            2781             473     68.3365E-03     68.1127E-03
            2781            3206     64.3529E-03     64.4782E-03
            2781            3223     66.2208E-03     67.8169E-03
            2782            3206     64.3529E-03     64.4782E-03
            2782            3207     55.5999E-03     56.4761E-03
            2782            3223     66.2208E-03     67.8169E-03
            2782            3224     53.9745E-03     56.0095E-03
            2783            3207     55.5999E-03     56.4761E-03
            2783            3208     47.5402E-03     49.0359E-03
            2783            3224     53.9745E-03     56.0095E-03
            2783            3225     46.0711E-03     48.0239E-03
            2784            3208     47.5402E-03     49.0359E-03
            2784            3209     41.8677E-03     43.5511E-03
            2784            3225     46.0711E-03     48.0239E-03
            2784            3226     40.5870E-03     42.4782E-03
            2785            3209     41.8677E-03     43.5511E-03
            2785            3210     37.3551E-03     39.0643E-03
            2785            3226     40.5870E-03     42.4782E-03
            2785            3227     36.0232E-03     37.9404E-03
            2786            3210     37.3551E-03     39.0643E-03
            2786            3211     33.4576E-03     35.2040E-03
            2786            3227     36.0232E-03     37.9404E-03
            2786            3228     32.1819E-03     34.1314E-03
            2787            3211     33.4576E-03     35.2040E-03
            2787            3212     30.0035E-03     31.7304E-03
            2787            3228     32.1819E-03     34.1314E-03
            2787            3229     28.6933E-03     30.6706E-03
            2788            3212     30.0035E-03     31.7304E-03
            2788            3213     26.7819E-03     28.4864E-03
            2788            3229     28.6933E-03     30.6706E-03
            2788            3230     25.4748E-03     27.4666E-03
            2789            3213     26.7819E-03     28.4864E-03
            2789            3214     23.7580E-03     25.4100E-03
            2789            3230     25.4748E-03     27.4666E-03
            2789            3231     22.4151E-03     24.3891E-03
            2790            3214     23.7580E-03     25.4100E-03
            2790            3215     20.8761E-03     22.4493E-03
            2790            3231     22.4151E-03     24.3891E-03
            2790            3232     19.4938E-03     21.4191E-03
            2791            3215     20.8761E-03     22.4493E-03
            2791            3216     18.1661E-03     19.6133E-03
            2791            3232     19.4938E-03     21.4191E-03
            2791            3233     16.7057E-03     18.5247E-03
            2792            3216     18.1661E-03     19.6133E-03
            2792            3217     15.6607E-03     16.9106E-03
            2792            3233     16.7057E-03     18.5247E-03
            2792            3234     14.1040E-03     15.7374E-03
            2793            3217     15.6607E-03     16.9106E-03
            2793            3218     13.5081E-03     14.4434E-03
            2793            3234     14.1040E-03     15.7374E-03
            2793            3235     11.8074E-03     13.1209E-03
            2794            3218     13.5081E-03     14.4434E-03
            2794            3219     11.8691E-03     12.3326E-03
            2794            3235     11.8074E-03     13.1209E-03
            2794            3236     10.1455E-03     10.9145E-03
            2795            3219     11.8691E-03     12.3326E-03
            2795            3220     11.1972E-03     11.0269E-03
            2795            3236     10.1455E-03     10.9145E-03
            2795            3237     9.51209E-03     9.50485E-03
            2796            3220     11.1972E-03     11.0269E-03
            2796            3221     11.7130E-03     10.9006E-03
            2796            3237     9.51209E-03     9.50485E-03
            2796            3238     10.8028E-03     9.99554E-03
            2797            3221     11.7130E-03     10.9006E-03
            2797            3222     12.7249E-03     11.4992E-03
            2797            3238     10.8028E-03     9.99554E-03
            2797            3239     13.8115E-03     12.5106E-03
            2798             395     15.5152E-03     14.0910E-03
            2798             396     13.2237E-03     11.8692E-03
            2798            3222     12.7249E-03     11.4992E-03
            2798            3239     13.8115E-03     12.5106E-03
            2799             471     68.9277E-03     71.2418E-03
            2799             472     73.4767E-03     74.6086E-03
            2799            3223     66.2208E-03     67.8169E-03
            2799            3240     64.8039E-03     66.1436E-03
            2800            3223     66.2208E-03     67.8169E-03
            2800            3224     53.9745E-03     56.0095E-03
            2800            3240     64.8039E-03     66.1436E-03
            2800            3241     58.5530E-03     58.6301E-03
            2801            3224     53.9745E-03     56.0095E-03
            2801            3225     46.0711E-03     48.0239E-03
            2801            3241     58.5530E-03     58.6301E-03
            2801            3242     54.2364E-03     54.2156E-03
            2802            3225     46.0711E-03     48.0239E-03
            2802            3226     40.5870E-03     42.4782E-03
            2802            3242     54.2364E-03     54.2156E-03
            2802            3243     50.2308E-03     50.3858E-03
            2803            3226     40.5870E-03     42.4782E-03
            2803            3227     36.0232E-03     37.9404E-03
            2803            3243     50.2308E-03     50.3858E-03
            2803            3244     46.5359E-03     46.8447E-03
            2804            3227     36.0232E-03     37.9404E-03
            2804            3228     32.1819E-03     34.1314E-03
            2804            3244     46.5359E-03     46.8447E-03
            2804            3245     42.9221E-03     43.4330E-03
            2805            3228     32.1819E-03     34.1314E-03
            2805            3229     28.6933E-03     30.6706E-03
            2805            3245     42.9221E-03     43.4330E-03
            2805            3246     39.3923E-03     40.0327E-03
            2806            3229     28.6933E-03     30.6706E-03
            2806            3230     25.4748E-03     27.4666E-03
            2806            3246     39.3923E-03     40.0327E-03
            2806            3247     35.8938E-03     36.6571E-03
            2807            3230     25.4748E-03     27.4666E-03
            2807            3231     22.4151E-03     24.3891E-03
            2807            3247     35.8938E-03     36.6571E-03
            2807            3248     32.4527E-03     33.2804E-03
            2808            3231     22.4151E-03     24.3891E-03
            2808            3232     19.4938E-03     21.4191E-03
            2808            3248     32.4527E-03     33.2804E-03
            2808            3249     29.0768E-03     29.9433E-03
            2809            3232     19.4938E-03     21.4191E-03
            2809            3233     16.7057E-03     18.5247E-03
            2809            3249     29.0768E-03     29.9433E-03
            2809            3250     25.8184E-03     26.6725E-03
            2810            3233     16.7057E-03     18.5247E-03
            2810            3234     14.1040E-03     15.7374E-03
            2810            3250     25.8184E-03     26.6725E-03
            2810            3251     22.7440E-03     23.5391E-03
            2811            3234     14.1040E-03     15.7374E-03
            2811            3235     11.8074E-03     13.1209E-03
            2811            3251     22.7440E-03     23.5391E-03
            2811            3252     19.9544E-03     20.6108E-03
            2812            3235     11.8074E-03     13.1209E-03
            2812            3236     10.1455E-03     10.9145E-03
            2812            3252     19.9544E-03     20.6108E-03
            2812            3253     17.6903E-03     18.1275E-03
            2813            3236     10.1455E-03     10.9145E-03
            2813            3237     9.51209E-03     9.50485E-03
            2813            3253     17.6903E-03     18.1275E-03
            2813            3254     16.1962E-03     16.3137E-03
            2814            3237     9.51209E-03     9.50485E-03
            2814            3238     10.8028E-03     9.99554E-03
            2814            3254     16.1962E-03     16.3137E-03
            2814            3255     15.7838E-03     15.9394E-03
            2815            3238     10.8028E-03     9.99554E-03
            2815            3239     13.8115E-03     12.5106E-03
            2815            3255     15.7838E-03     15.9394E-03
            2815            3256     16.4808E-03     18.1762E-03
            2816             394     17.0252E-03     20.0279E-03
            2816             395     15.5152E-03     14.0910E-03
            2816            3239     13.8115E-03     12.5106E-03
            2816            3256     16.4808E-03     18.1762E-03
            2817             470     67.1247E-03     65.5609E-03
            2817             471     68.9277E-03     71.2418E-03
            2817            3240     64.8039E-03     66.1436E-03
            2817            3257     67.3802E-03     66.0111E-03
            2818            3240     64.8039E-03     66.1436E-03
            2818            3241     58.5530E-03     58.6301E-03
            2818            3257     67.3802E-03     66.0111E-03
            2818            3258     66.9759E-03     65.7325E-03
            2819            3241     58.5530E-03     58.6301E-03
            2819            3242     54.2364E-03     54.2156E-03
            2819            3258     66.9759E-03     65.7325E-03
            2819            3259     65.1383E-03     63.8636E-03
            2820            3242     54.2364E-03     54.2156E-03
            2820            3243     50.2308E-03     50.3858E-03
            2820            3259     65.1383E-03     63.8636E-03
            2820            3260     62.3772E-03     61.2606E-03
            2821            3243     50.2308E-03     50.3858E-03
            2821            3244     46.5359E-03     46.8447E-03
            2821            3260     62.3772E-03     61.2606E-03
            2821            3261     59.0306E-03     58.0991E-03
            2822            3244     46.5359E-03     46.8447E-03
            2822            3245     42.9221E-03     43.4330E-03
            2822            3261     59.0306E-03     58.0991E-03
            2822            3262     55.3038E-03     54.5551E-03
            2823            3245     42.9221E-03     43.4330E-03
            2823            3246     39.3923E-03     40.0327E-03
            2823            3262     55.3038E-03     54.5551E-03
            2823            3263     51.3305E-03     50.7469E-03
            2824            3246     39.3923E-03     40.0327E-03
            2824            3247     35.8938E-03     36.6571E-03
            2824            3263     51.3305E-03     50.7469E-03
            2824            3264     47.2257E-03     46.7675E-03
            2825            3247     35.8938E-03     36.6571E-03
            2825            3248     32.4527E-03     33.2804E-03
            2825            3264     47.2257E-03     46.7675E-03
            2825            3265     43.0717E-03     42.7247E-03
            2826            3248     32.4527E-03     33.2804E-03
            2826            3249     29.0768E-03     29.9433E-03
            2826            3265     43.0717E-03     42.7247E-03
            2826            3266     38.9700E-03     38.6955E-03
            2827            3249     29.0768E-03     29.9433E-03
            2827            3250     25.8184E-03     26.6725E-03
            2827            3266     38.9700E-03     38.6955E-03
            2827            3267     34.9925E-03     34.7888E-03
            2828            3250     25.8184E-03     26.6725E-03
            2828            3251     22.7440E-03     23.5391E-03
            2828            3267     34.9925E-03     34.7888E-03
            2828            3268     31.2572E-03     31.1064E-03
            2829            3251     22.7440E-03     23.5391E-03
            2829            3252     19.9544E-03     20.6108E-03
            2829            3268     31.2572E-03     31.1064E-03
            2829            3269     27.8470E-03     27.7957E-03
            2830            3252     19.9544E-03     20.6108E-03
            2830            3253     17.6903E-03     18.1275E-03
            2830            3269     27.8470E-03     27.7957E-03
            2830            3270     24.8973E-03     25.0278E-03
            2831            3253     17.6903E-03     18.1275E-03
            2831            3254     16.1962E-03     16.3137E-03
            2831            3270     24.8973E-03     25.0278E-03
            2831            3271     22.4679E-03     23.0213E-03
            2832            3254     16.1962E-03     16.3137E-03
            2832            3255     15.7838E-03     15.9394E-03
            2832            3271     22.4679E-03     23.0213E-03
            2832            3272     20.4710E-03     22.1416E-03
            2833            3255     15.7838E-03     15.9394E-03
            2833            3256     16.4808E-03     18.1762E-03
            2833            3272     20.4710E-03     22.1416E-03
            2833            3273     19.4654E-03     22.4106E-03
            2834             393     19.3673E-03     22.7886E-03
            2834             394     17.0252E-03     20.0279E-03
            2834            3256     16.4808E-03     18.1762E-03
            2834            3273     19.4654E-03     22.4106E-03
            2835             469     73.7021E-03     73.8190E-03
            2835             470     67.1247E-03     65.5609E-03
            2835            3257     67.3802E-03     66.0111E-03
            2835            3274     72.9844E-03     73.3068E-03
            2836            3257     67.3802E-03     66.0111E-03
            2836            3258     66.9759E-03     65.7325E-03
            2836            3274     72.9844E-03     73.3068E-03
            2836            3275     71.3210E-03     71.7526E-03
            2837            3258     66.9759E-03     65.7325E-03
            2837            3259     65.1383E-03     63.8636E-03
            2837            3275     71.3210E-03     71.7526E-03
            2837            3276     68.8944E-03     69.1061E-03
            2838            3259     65.1383E-03     63.8636E-03
            2838            3260     62.3772E-03     61.2606E-03
            2838            3276     68.8944E-03     69.1061E-03
            2838            3277     65.5726E-03     65.5580E-03
            2839            3260     62.3772E-03     61.2606E-03
            2839            3261     59.0306E-03     58.0991E-03
            2839            3277     65.5726E-03     65.5580E-03
            2839            3278     61.5826E-03     61.4819E-03
            2840            3261     59.0306E-03     58.0991E-03
            2840            3262     55.3038E-03     54.5551E-03
            2840            3278     61.5826E-03     61.4819E-03
            2840            3279     57.1834E-03     57.0659E-03
            2841            3262     55.3038E-03     54.5551E-03
            2841            3263     51.3305E-03     50.7469E-03
            2841            3279     57.1834E-03     57.0659E-03
            2841            3280     52.5440E-03     52.4360E-03
            2842            3263     51.3305E-03     50.7469E-03
            2842            3264     47.2257E-03     46.7675E-03
            2842            3280     52.5440E-03     52.4360E-03
            2842            3281     47.7854E-03     47.7157E-03
            2843            3264     47.2257E-03     46.7675E-03
            2843            3265     43.0717E-03     42.7247E-03
            2843            3281     47.7854E-03     47.7157E-03
            2843            3282     43.0235E-03     42.9834E-03
            2844            3265     43.0717E-03     42.7247E-03
            2844            3266     38.9700E-03     38.6955E-03
            2844            3282     43.0235E-03     42.9834E-03
            2844            3283     38.3358E-03     38.3378E-03
            2845            3266     38.9700E-03     38.6955E-03
            2845            3267     34.9925E-03     34.7888E-03
            2845            3283     38.3358E-03     38.3378E-03
            2845            3284     33.8270E-03     33.8719E-03
            2846            3267     34.9925E-03     34.7888E-03
            2846            3268     31.2572E-03     31.1064E-03
            2846            3284     33.8270E-03     33.8719E-03
            2846            3285     29.5957E-03     29.7120E-03
            2847            3268     31.2572E-03     31.1064E-03
            2847            3269     27.8470E-03     27.7957E-03
            2847            3285     29.5957E-03     29.7120E-03
            2847            3286     25.7813E-03     26.0365E-03
            2848            3269     27.8470E-03     27.7957E-03
            2848            3270     24.8973E-03     25.0278E-03
            2848            3286     25.7813E-03     26.0365E-03
            2848            3287     22.5708E-03     23.0670E-03
            2849            3270     24.8973E-03     25.0278E-03
            2849            3271     22.4679E-03     23.0213E-03
            2849            3287     22.5708E-03     23.0670E-03
            2849            3288     20.1159E-03     21.1168E-03
            2850            3271     22.4679E-03     23.0213E-03
            2850            3272     20.4710E-03     22.1416E-03
            2850            3288     20.1159E-03     21.1168E-03
            2850            3289     18.9529E-03     20.2778E-03
            2851            3272     20.4710E-03     22.1416E-03
            2851            3273     19.4654E-03     22.4106E-03
            2851            3289     18.9529E-03     20.2778E-03
            2851            3290     19.4961E-03     19.6567E-03
            2852             392     20.1611E-03     19.1994E-03
            2852             393     19.3673E-03     22.7886E-03
            2852            3273     19.4654E-03     22.4106E-03
            2852            3290     19.4961E-03     19.6567E-03
            2853             468     79.7762E-03     80.3866E-03
            2853             469     73.7021E-03     73.8190E-03
            2853            3274     72.9844E-03     73.3068E-03
            2853            3291     78.2445E-03     79.1746E-03
            2854            3274     72.9844E-03     73.3068E-03
            2854            3275     71.3210E-03     71.7526E-03
            2854            3291     78.2445E-03     79.1746E-03
            2854            3292     75.3647E-03     76.5625E-03
            2855            3275     71.3210E-03     71.7526E-03
            2855            3276     68.8944E-03     69.1061E-03
            2855            3292     75.3647E-03     76.5625E-03
            2855            3293     72.2231E-03     73.2770E-03
            2856            3276     68.8944E-03     69.1061E-03
            2856            3277     65.5726E-03     65.5580E-03
            2856            3293     72.2231E-03     73.2770E-03
            2856            3294     68.2793E-03     69.1394E-03
            2857            3277     65.5726E-03     65.5580E-03
            2857            3278     61.5826E-03     61.4819E-03
            2857            3294     68.2793E-03     69.1394E-03
            2857            3295     63.7581E-03     64.3980E-03
            2858            3278     61.5826E-03     61.4819E-03
            2858            3279     57.1834E-03     57.0659E-03
            2858            3295     63.7581E-03     64.3980E-03
            2858            3296     58.8048E-03     59.3061E-03
            2859            3279     57.1834E-03     57.0659E-03
            2859            3280     52.5440E-03     52.4360E-03
            2859            3296     58.8048E-03     59.3061E-03
            2859            3297     53.6209E-03     54.0422E-03
            2860            3280     52.5440E-03     52.4360E-03
            2860            3281     47.7854E-03     47.7157E-03
            2860            3297     53.6209E-03     54.0422E-03
            2860            3298     48.3501E-03     48.7149E-03
            2861            3281     47.7854E-03     47.7157E-03
            2861            3282     43.0235E-03     42.9834E-03
            2861            3298     48.3501E-03     48.7149E-03
            2861            3299     43.0844E-03     43.4306E-03
            2862            3282     43.0235E-03     42.9834E-03
            2862            3283     38.3358E-03     38.3378E-03
            2862            3299     43.0844E-03     43.4306E-03
            2862            3300     37.9269E-03     38.2675E-03
            2863            3283     38.3358E-03     38.3378E-03
            2863            3284     33.8270E-03     33.8719E-03
            2863            3300     37.9269E-03     38.2675E-03
            2863            3301     32.9617E-03     33.3238E-03
            2864            3284     33.8270E-03     33.8719E-03
            2864            3285     29.5957E-03     29.7120E-03
            2864            3301     32.9617E-03     33.3238E-03
            2864            3302     28.3088E-03     28.7296E-03
            2865            3285     29.5957E-03     29.7120E-03
            2865            3286     25.7813E-03     26.0365E-03
            2865            3302     28.3088E-03     28.7296E-03
            2865            3303     24.1395E-03     24.6640E-03
            2866            3286     25.7813E-03     26.0365E-03
            2866            3287     22.5708E-03     23.0670E-03
            2866            3303     24.1395E-03     24.6640E-03
            2866            3304     20.6958E-03     21.3876E-03
            2867            3287     22.5708E-03     23.0670E-03
            2867            3288     20.1159E-03     21.1168E-03
            2867            3304     20.6958E-03     21.3876E-03
            2867            3305     18.3966E-03     19.1454E-03
            2868            3288     20.1159E-03     21.1168E-03
            2868            3289     18.9529E-03     20.2778E-03
            2868            3305     18.3966E-03     19.1454E-03
            2868            3306     17.6795E-03     17.7715E-03
            2869            3289     18.9529E-03     20.2778E-03
            2869            3290     19.4961E-03     19.6567E-03
            2869            3306     17.6795E-03     17.7715E-03
            2869            3307     17.9202E-03     17.0894E-03
            2870             391     18.1016E-03     16.9453E-03
            2870             392     20.1611E-03     19.1994E-03
            2870            3290     19.4961E-03     19.6567E-03
            2870            3307     17.9202E-03     17.0894E-03
            2871             467     84.8571E-03     85.4727E-03
            2871             468     79.7762E-03     80.3866E-03
            2871            3291     78.2445E-03     79.1746E-03
            2871            3308     82.9909E-03     83.8959E-03
            2872            3291     78.2445E-03     79.1746E-03
            2872            3292     75.3647E-03     76.5625E-03
            2872            3308     82.9909E-03     83.8959E-03
            2872            3309     79.1526E-03     80.5357E-03
            2873            3292     75.3647E-03     76.5625E-03
            2873            3293     72.2231E-03     73.2770E-03
            2873            3309     79.1526E-03     80.5357E-03
            2873            3310     75.0562E-03     76.5763E-03
            2874            3293     72.2231E-03     73.2770E-03
            2874            3294     68.2793E-03     69.1394E-03
            2874            3310     75.0562E-03     76.5763E-03
            2874            3311     70.5091E-03     71.8802E-03
            2875            3294     68.2793E-03     69.1394E-03
            2875            3295     63.7581E-03     64.3980E-03
            2875            3311     70.5091E-03     71.8802E-03
            2875            3312     65.4056E-03     66.6129E-03
            2876            3295     63.7581E-03     64.3980E-03
            2876            3296     58.8048E-03     59.3061E-03
            2876            3312     65.4056E-03     66.6129E-03
            2876            3313     59.9716E-03     61.0103E-03
            2877            3296     58.8048E-03     59.3061E-03
            2877            3297     53.6209E-03     54.0422E-03
            2877            3313     59.9716E-03     61.0103E-03
            2877            3314     54.3564E-03     55.2555E-03
            2878            3297     53.6209E-03     54.0422E-03
            2878            3298     48.3501E-03     48.7149E-03
            2878            3314     54.3564E-03     55.2555E-03
            2878            3315     48.6772E-03     49.4859E-03
            2879            3298     48.3501E-03     48.7149E-03
            2879            3299     43.0844E-03     43.4306E-03
            2879            3315     48.6772E-03     49.4859E-03
            2879            3316     43.0465E-03     43.7866E-03
            2880            3299     43.0844E-03     43.4306E-03
            2880            3300     37.9269E-03     38.2675E-03
            2880            3316     43.0465E-03     43.7866E-03
            2880            3317     37.5290E-03     38.2332E-03
            2881            3300     37.9269E-03     38.2675E-03
            2881            3301     32.9617E-03     33.3238E-03
            2881            3317     37.5290E-03     38.2332E-03
            2881            3318     32.2145E-03     32.9098E-03
            2882            3301     32.9617E-03     33.3238E-03
            2882            3302     28.3088E-03     28.7296E-03
            2882            3318     32.2145E-03     32.9098E-03
            2882            3319     27.2206E-03     27.9321E-03
            2883            3302     28.3088E-03     28.7296E-03
            2883            3303     24.1395E-03     24.6640E-03
            2883            3319     27.2206E-03     27.9321E-03
            2883            3320     22.7422E-03     23.4754E-03
            2884            3303     24.1395E-03     24.6640E-03
            2884            3304     20.6958E-03     21.3876E-03
            2884            3320     22.7422E-03     23.4754E-03
            2884            3321     19.0880E-03     19.7790E-03
            2885            3304     20.6958E-03     21.3876E-03
            2885            3305     18.3966E-03     19.1454E-03
            2885            3321     19.0880E-03     19.7790E-03
            2885            3322     16.7629E-03     17.0496E-03
            2886            3305     18.3966E-03     19.1454E-03
            2886            3306     17.6795E-03     17.7715E-03
            2886            3322     16.7629E-03     17.0496E-03
            2886            3323     15.9016E-03     15.4589E-03
            2887            3306     17.6795E-03     17.7715E-03
            2887            3307     17.9202E-03     17.0894E-03
            2887            3323     15.9016E-03     15.4589E-03
            2887            3324     16.4637E-03     15.2398E-03
            2888             390     17.1216E-03     15.5003E-03
            2888             391     18.1016E-03     16.9453E-03
            2888            3307     17.9202E-03     17.0894E-03
            2888            3324     16.4637E-03     15.2398E-03
            2889             466     89.7150E-03     90.3781E-03
            2889             467     84.8571E-03     85.4727E-03
            2889            3308     82.9909E-03     83.8959E-03
            2889            3325     87.3043E-03     88.3002E-03
            2890            3308     82.9909E-03     83.8959E-03
            2890            3309     79.1526E-03     80.5357E-03
            2890            3325     87.3043E-03     88.3002E-03
            2890            3326     82.5163E-03     83.9858E-03
            2891            3309     79.1526E-03     80.5357E-03
            2891            3310     75.0562E-03     76.5763E-03
            2891            3326     82.5163E-03     83.9858E-03
            2891            3327     77.5698E-03     79.2248E-03
            2892            3310     75.0562E-03     76.5763E-03
            2892            3311     70.5091E-03     71.8802E-03
            2892            3327     77.5698E-03     79.2248E-03
            2892            3328     72.1917E-03     73.8847E-03
            2893            3311     70.5091E-03     71.8802E-03
            2893            3312     65.4056E-03     66.6129E-03
            2893            3328     72.1917E-03     73.8847E-03
            2893            3329     66.4999E-03     68.0913E-03
            2894            3312     65.4056E-03     66.6129E-03
            2894            3313     59.9716E-03     61.0103E-03
            2894            3329     66.4999E-03     68.0913E-03
            2894            3330     60.6022E-03     62.0438E-03
            2895            3313     59.9716E-03     61.0103E-03
            2895            3314     54.3564E-03     55.2555E-03
            2895            3330     60.6022E-03     62.0438E-03
            2895            3331     54.6107E-03     55.9290E-03
            2896            3314     54.3564E-03     55.2555E-03
            2896            3315     48.6772E-03     49.4859E-03
            2896            3331     54.6107E-03     55.9290E-03
            2896            3332     48.6525E-03     49.8542E-03
            2897            3315     48.6772E-03     49.4859E-03
            2897            3316     43.0465E-03     43.7866E-03
            2897            3332     48.6525E-03     49.8542E-03
            2897            3333     42.7612E-03     43.8767E-03
            2898            3316     43.0465E-03     43.7866E-03
            2898            3317     37.5290E-03     38.2332E-03
            2898            3333     42.7612E-03     43.8767E-03
            2898            3334     37.0020E-03     38.0562E-03
            2899            3317     37.5290E-03     38.2332E-03
            2899            3318     32.2145E-03     32.9098E-03
            2899            3334     37.0020E-03     38.0562E-03
            2899            3335     31.4431E-03     32.4534E-03
            2900            3318     32.2145E-03     32.9098E-03
            2900            3319     27.2206E-03     27.9321E-03
            2900            3335     31.4431E-03     32.4534E-03
            2900            3336     26.1884E-03     27.1595E-03
            2901            3319     27.2206E-03     27.9321E-03
            2901            3320     22.7422E-03     23.4754E-03
            2901            3336     26.1884E-03     27.1595E-03
            2901            3337     21.4307E-03     22.3248E-03
            2902            3320     22.7422E-03     23.4754E-03
            2902            3321     19.0880E-03     19.7790E-03
            2902            3337     21.4307E-03     22.3248E-03
            2902            3338     17.5605E-03     18.1783E-03
            2903            3321     19.0880E-03     19.7790E-03
            2903            3322     16.7629E-03     17.0496E-03
            2903            3338     17.5605E-03     18.1783E-03
            2903            3339     14.9988E-03     15.0400E-03
            2904            3322     16.7629E-03     17.0496E-03
            2904            3323     15.9016E-03     15.4589E-03
            2904            3339     14.9988E-03     15.0400E-03
            2904            3340     14.2301E-03     13.4271E-03
            2905            3323     15.9016E-03     15.4589E-03
            2905            3324     16.4637E-03     15.2398E-03
            2905            3340     14.2301E-03     13.4271E-03
            2905            3341     15.2679E-03     13.6207E-03
            2906             389     16.1704E-03     14.1643E-03
            2906             390     17.1216E-03     15.5003E-03
            2906            3324     16.4637E-03     15.2398E-03
            2906            3341     15.2679E-03     13.6207E-03
            2907             465     94.0183E-03     95.1272E-03
            2907             466     89.7150E-03     90.3781E-03
            2907            3325     87.3043E-03     88.3002E-03
            2907            3342     91.2833E-03     92.4592E-03
            2908            3325     87.3043E-03     88.3002E-03
            2908            3326     82.5163E-03     83.9858E-03
            2908            3342     91.2833E-03     92.4592E-03
            2908            3343     85.6332E-03     87.0745E-03
            2909            3326     82.5163E-03     83.9858E-03
            2909            3327     77.5698E-03     79.2248E-03
            2909            3343     85.6332E-03     87.0745E-03
            2909            3344     79.5851E-03     81.3597E-03
            2910            3327     77.5698E-03     79.2248E-03
            2910            3328     72.1917E-03     73.8847E-03
            2910            3344     79.5851E-03     81.3597E-03
            2910            3345     73.3363E-03     75.2055E-03
            2911            3328     72.1917E-03     73.8847E-03
            2911            3329     66.4999E-03     68.0913E-03
            2911            3345     73.3363E-03     75.2055E-03
            2911            3346     66.9776E-03     68.7957E-03
            2912            3329     66.4999E-03     68.0913E-03
            2912            3330     60.6022E-03     62.0438E-03
            2912            3346     66.9776E-03     68.7957E-03
            2912            3347     60.5985E-03     62.3589E-03
            2913            3330     60.6022E-03     62.0438E-03
            2913            3331     54.6107E-03     55.9290E-03
            2913            3347     60.5985E-03     62.3589E-03
            2913            3348     54.3540E-03     56.0004E-03
            2914            3331     54.6107E-03     55.9290E-03
            2914            3332     48.6525E-03     49.8542E-03
            2914            3348     54.3540E-03     56.0004E-03
            2914            3349     48.1957E-03     49.7361E-03
            2915            3332     48.6525E-03     49.8542E-03
            2915            3333     42.7612E-03     43.8767E-03
            2915            3349     48.1957E-03     49.7361E-03
            2915            3350     42.1598E-03     43.6113E-03
            2916            3333     42.7612E-03     43.8767E-03
            2916            3334     37.0020E-03     38.0562E-03
            2916            3350     42.1598E-03     43.6113E-03
            2916            3351     36.2646E-03     37.6354E-03
            2917            3334     37.0020E-03     38.0562E-03
            2917            3335     31.4431E-03     32.4534E-03
            2917            3351     36.2646E-03     37.6354E-03
            2917            3352     30.5453E-03     31.8477E-03
            2918            3335     31.4431E-03     32.4534E-03
            2918            3336     26.1884E-03     27.1595E-03
            2918            3352     30.5453E-03     31.8477E-03
            2918            3353     25.1094E-03     26.3170E-03
            2919            3336     26.1884E-03     27.1595E-03
            2919            3337     21.4307E-03     22.3248E-03
            2919            3353     25.1094E-03     26.3170E-03
            2919            3354     20.1313E-03     21.1553E-03
            2920            3337     21.4307E-03     22.3248E-03
            2920            3338     17.5605E-03     18.1783E-03
            2920            3354     20.1313E-03     21.1553E-03
            2920            3355     15.9579E-03     16.5908E-03
            2921            3338     17.5605E-03     18.1783E-03
            2921            3339     14.9988E-03     15.0400E-03
            2921            3355     15.9579E-03     16.5908E-03
            2921            3356     13.3023E-03     13.1665E-03
            2922            3339     14.9988E-03     15.0400E-03
            2922            3340     14.2301E-03     13.4271E-03
            2922            3356     13.3023E-03     13.1665E-03
            2922            3357     12.7604E-03     11.6047E-03
            2923            3340     14.2301E-03     13.4271E-03
            2923            3341     15.2679E-03     13.6207E-03
            2923            3357     12.7604E-03     11.6047E-03
            2923            3358     14.3591E-03     12.4769E-03
            2924             388     15.6650E-03     13.5725E-03
            2924             389     16.1704E-03     14.1643E-03
            2924            3341     15.2679E-03     13.6207E-03
            2924            3358     14.3591E-03     12.4769E-03
            2925             464     98.6796E-03     99.2330E-03
            2925             465     94.0183E-03     95.1272E-03
            2925            3342     91.2833E-03     92.4592E-03
            2925            3359     95.2840E-03     96.3023E-03
            2926            3342     91.2833E-03     92.4592E-03
            2926            3343     85.6332E-03     87.0745E-03
            2926            3359     95.2840E-03     96.3023E-03
            2926            3360     88.2722E-03     89.9238E-03
            2927            3343     85.6332E-03     87.0745E-03
            2927            3344     79.5851E-03     81.3597E-03
            2927            3360     88.2722E-03     89.9238E-03
            2927            3361     81.0751E-03     82.8852E-03
            2928            3344     79.5851E-03     81.3597E-03
            2928            3345     73.3363E-03     75.2055E-03
            2928            3361     81.0751E-03     82.8852E-03
            2928            3362     73.7649E-03     75.6714E-03
            2929            3345     73.3363E-03     75.2055E-03
            2929            3346     66.9776E-03     68.7957E-03
            2929            3362     73.7649E-03     75.6714E-03
            2929            3363     66.6404E-03     68.6671E-03
            2930            3346     66.9776E-03     68.7957E-03
            2930            3347     60.5985E-03     62.3589E-03
            2930            3363     66.6404E-03     68.6671E-03
            2930            3364     59.9823E-03     61.9620E-03
            2931            3347     60.5985E-03     62.3589E-03
            2931            3348     54.3540E-03     56.0004E-03
            2931            3364     59.9823E-03     61.9620E-03
            2931            3365     53.5462E-03     55.4501E-03
            2932            3348     54.3540E-03     56.0004E-03
            2932            3349     48.1957E-03     49.7361E-03
            2932            3365     53.5462E-03     55.4501E-03
            2932            3366     47.3099E-03     49.1368E-03
            2933            3349     48.1957E-03     49.7361E-03
            2933            3350     42.1598E-03     43.6113E-03
            2933            3366     47.3099E-03     49.1368E-03
            2933            3367     41.2263E-03     42.9654E-03
            2934            3350     42.1598E-03     43.6113E-03
            2934            3351     36.2646E-03     37.6354E-03
            2934            3367     41.2263E-03     42.9654E-03
            2934            3368     35.2726E-03     36.9387E-03
            2935            3351     36.2646E-03     37.6354E-03
            2935            3352     30.5453E-03     31.8477E-03
            2935            3368     35.2726E-03     36.9387E-03
            2935            3369     29.4870E-03     31.0604E-03
            2936            3352     30.5453E-03     31.8477E-03
            2936            3353     25.1094E-03     26.3170E-03
            2936            3369     29.4870E-03     31.0604E-03
            2936            3370     23.9120E-03     25.3603E-03
            2937            3353     25.1094E-03     26.3170E-03
            2937            3354     20.1313E-03     21.1553E-03
            2937            3370     23.9120E-03     25.3603E-03
            2937            3371     18.7556E-03     19.9489E-03
            2938            3354     20.1313E-03     21.1553E-03
            2938            3355     15.9579E-03     16.5908E-03
            2938            3371     18.7556E-03     19.9489E-03
            2938            3372     14.3980E-03     15.0694E-03
            2939            3355     15.9579E-03     16.5908E-03
            2939            3356     13.3023E-03     13.1665E-03
            2939            3372     14.3980E-03     15.0694E-03
            2939            3373     11.6360E-03     11.3639E-03
            2940            3356     13.3023E-03     13.1665E-03
            2940            3357     12.7604E-03     11.6047E-03
            2940            3373     11.6360E-03     11.3639E-03
            2940            3374     11.5371E-03     10.1496E-03
            2941            3357     12.7604E-03     11.6047E-03
            2941            3358     14.3591E-03     12.4769E-03
            2941            3374     11.5371E-03     10.1496E-03
            2941            3375     13.9881E-03     11.8403E-03
            2942             387     15.6997E-03     13.3106E-03
            2942             388     15.6650E-03     13.5725E-03
            2942            3358     14.3591E-03     12.4769E-03
            2942            3375     13.9881E-03     11.8403E-03
            2943             463     102.717E-03     104.552E-03
            2943             464     98.6796E-03     99.2330E-03
            2943            3359     95.2840E-03     96.3023E-03
            2943            3376     98.8427E-03     100.463E-03
            2944            3359     95.2840E-03     96.3023E-03
            2944            3360     88.2722E-03     89.9238E-03
            2944            3376     98.8427E-03     100.463E-03
            2944            3377     90.6169E-03     92.0396E-03
            2945            3360     88.2722E-03     89.9238E-03
            2945            3361     81.0751E-03     82.8852E-03
            2945            3377     90.6169E-03     92.0396E-03
            2945            3378     81.5630E-03     83.2664E-03
            2946            3361     81.0751E-03     82.8852E-03
            2946            3362     73.7649E-03     75.6714E-03
            2946            3378     81.5630E-03     83.2664E-03
            2946            3379     72.9688E-03     75.0511E-03
            2947            3362     73.7649E-03     75.6714E-03
            2947            3363     66.6404E-03     68.6671E-03
            2947            3379     72.9688E-03     75.0511E-03
            2947            3380     65.5705E-03     67.7187E-03
            2948            3363     66.6404E-03     68.6671E-03
            2948            3364     59.9823E-03     61.9620E-03
            2948            3380     65.5705E-03     67.7187E-03
            2948            3381     58.7227E-03     60.8577E-03
            2949            3364     59.9823E-03     61.9620E-03
            2949            3365     53.5462E-03     55.4501E-03
            2949            3381     58.7227E-03     60.8577E-03
            2949            3382     52.2591E-03     54.3721E-03
            2950            3365     53.5462E-03     55.4501E-03
            2950            3366     47.3099E-03     49.1368E-03
            2950            3382     52.2591E-03     54.3721E-03
            2950            3383     46.0488E-03     48.1021E-03
            2951            3366     47.3099E-03     49.1368E-03
            2951            3367     41.2263E-03     42.9654E-03
            2951            3383     46.0488E-03     48.1021E-03
            2951            3384     39.9874E-03     41.9954E-03
            2952            3367     41.2263E-03     42.9654E-03
            2952            3368     35.2726E-03     36.9387E-03
            2952            3384     39.9874E-03     41.9954E-03
            2952            3385     34.0610E-03     36.0018E-03
            2953            3368     35.2726E-03     36.9387E-03
            2953            3369     29.4870E-03     31.0604E-03
            2953            3385     34.0610E-03     36.0018E-03
            2953            3386     28.2441E-03     30.1046E-03
            2954            3369     29.4870E-03     31.0604E-03
            2954            3370     23.9120E-03     25.3603E-03
            2954            3386     28.2441E-03     30.1046E-03
            2954            3387     22.6079E-03     24.3217E-03
            2955            3370     23.9120E-03     25.3603E-03
            2955            3371     18.7556E-03     19.9489E-03
            2955            3387     22.6079E-03     24.3217E-03
            2955            3388     17.2526E-03     18.7039E-03
            2956            3371     18.7556E-03     19.9489E-03
            2956            3372     14.3980E-03     15.0694E-03
            2956            3388     17.2526E-03     18.7039E-03
            2956            3389     12.7300E-03     13.5543E-03
            2957            3372     14.3980E-03     15.0694E-03
            2957            3373     11.6360E-03     11.3639E-03
            2957            3389     12.7300E-03     13.5543E-03
            2957            3390     10.2331E-03     9.81662E-03
            2958            3373     11.6360E-03     11.3639E-03
            2958            3374     11.5371E-03     10.1496E-03
            2958            3390     10.2331E-03     9.81662E-03
            2958            3391     10.8347E-03     9.11295E-03
            2959            3374     11.5371E-03     10.1496E-03
            2959            3375     13.9881E-03     11.8403E-03
            2959            3391     10.8347E-03     9.11295E-03
            2959            3392     14.0484E-03     11.8400E-03
            2960             386     16.1029E-03     13.9280E-03
            2960             387     15.6997E-03     13.3106E-03
            2960            3375     13.9881E-03     11.8403E-03
            2960            3392     14.0484E-03     11.8400E-03
            2961             462     107.976E-03     107.768E-03
            2961             463     102.717E-03     104.552E-03
            2961            3376     98.8427E-03     100.463E-03
            2961            3393     102.867E-03     103.137E-03
            2962            3376     98.8427E-03     100.463E-03
            2962            3377     90.6169E-03     92.0396E-03
            2962            3393     102.867E-03     103.137E-03
            2962            3394     91.2360E-03     92.4976E-03
            2963            3377     90.6169E-03     92.0396E-03
            2963            3378     81.5630E-03     83.2664E-03
            2963            3394     91.2360E-03     92.4976E-03
            2963            3395     79.9005E-03     81.9024E-03
            2964            3378     81.5630E-03     83.2664E-03
            2964            3379     72.9688E-03     75.0511E-03
            2964            3395     79.9005E-03     81.9024E-03
            2964            3396     71.2337E-03     73.4048E-03
            2965            3379     72.9688E-03     75.0511E-03
            2965            3380     65.5705E-03     67.7187E-03
            2965            3396     71.2337E-03     73.4048E-03
            2965            3397     63.7810E-03     65.9755E-03
            2966            3380     65.5705E-03     67.7187E-03
            2966            3381     58.7227E-03     60.8577E-03
            2966            3397     63.7810E-03     65.9755E-03
            2966            3398     56.9823E-03     59.2312E-03
            2967            3381     58.7227E-03     60.8577E-03
            2967            3382     52.2591E-03     54.3721E-03
            2967            3398     56.9823E-03     59.2312E-03
            2967            3399     50.6379E-03     52.8891E-03
            2968            3382     52.2591E-03     54.3721E-03
            2968            3383     46.0488E-03     48.1021E-03
            2968            3399     50.6379E-03     52.8891E-03
            2968            3400     44.5126E-03     46.7805E-03
            2969            3383     46.0488E-03     48.1021E-03
            2969            3384     39.9874E-03     41.9954E-03
            2969            3400     44.5126E-03     46.7805E-03
            2969            3401     38.5552E-03     40.8125E-03
            2970            3384     39.9874E-03     41.9954E-03
            2970            3385     34.0610E-03     36.0018E-03
            2970            3401     38.5552E-03     40.8125E-03
            2970            3402     32.6852E-03     34.9200E-03
            2971            3385     34.0610E-03     36.0018E-03
            2971            3386     28.2441E-03     30.1046E-03
            2971            3402     32.6852E-03     34.9200E-03
            2971            3403     26.8984E-03     29.0734E-03
            2972            3386     28.2441E-03     30.1046E-03
            2972            3387     22.6079E-03     24.3217E-03
            2972            3403     26.8984E-03     29.0734E-03
            2972            3404     21.1971E-03     23.2560E-03
            2973            3387     22.6079E-03     24.3217E-03
            2973            3388     17.2526E-03     18.7039E-03
            2973            3404     21.1971E-03     23.2560E-03
            2973            3405     15.7090E-03     17.5097E-03
            2974            3388     17.2526E-03     18.7039E-03
            2974            3389     12.7300E-03     13.5543E-03
            2974            3405     15.7090E-03     17.5097E-03
            2974            3406     10.7976E-03     12.0128E-03
            2975            3389     12.7300E-03     13.5543E-03
            2975            3390     10.2331E-03     9.81662E-03
            2975            3406     10.7976E-03     12.0128E-03
            2975            3407     8.38169E-03     8.10686E-03
            2976            3390     10.2331E-03     9.81662E-03
            2976            3391     10.8347E-03     9.11295E-03
            2976            3407     8.38169E-03     8.10686E-03
            2976            3408     10.4489E-03     8.57187E-03
            2977            3391     10.8347E-03     9.11295E-03
            2977            3392     14.0484E-03     11.8400E-03
            2977            3408     10.4489E-03     8.57187E-03
            2977            3409     15.2449E-03     12.7149E-03
            2978             385     17.7872E-03     15.1257E-03
            2978             386     16.1029E-03     13.9280E-03
            2978            3392     14.0484E-03     11.8400E-03
            2978            3409     15.2449E-03     12.7149E-03
            2979             461     112.266E-03     113.129E-03
            2979             462     107.976E-03     107.768E-03
            2979            3393     102.867E-03     103.137E-03
            2979            3410     103.346E-03     104.888E-03
            2980            3393     102.867E-03     103.137E-03
            2980            3394     91.2360E-03     92.4976E-03
            2980            3410     103.346E-03     104.888E-03
            2980            3411     87.8570E-03     90.0444E-03
            2981            3394     91.2360E-03     92.4976E-03
            2981            3395     79.9005E-03     81.9024E-03
            2981            3411     87.8570E-03     90.0444E-03
            2981            3412     77.0561E-03     79.1439E-03
            2982            3395     79.9005E-03     81.9024E-03
            2982            3396     71.2337E-03     73.4048E-03
            2982            3412     77.0561E-03     79.1439E-03
            2982            3413     68.8656E-03     70.9331E-03
            2983            3396     71.2337E-03     73.4048E-03
            2983            3397     63.7810E-03     65.9755E-03
            2983            3413     68.8656E-03     70.9331E-03
            2983            3414     61.5935E-03     63.7578E-03
            2984            3397     63.7810E-03     65.9755E-03
            2984            3398     56.9823E-03     59.2312E-03
            2984            3414     61.5935E-03     63.7578E-03
            2984            3415     55.0610E-03     57.3340E-03
            2985            3398     56.9823E-03     59.2312E-03
            2985            3399     50.6379E-03     52.8891E-03
            2985            3415     55.0610E-03     57.3340E-03
            2985            3416     48.8560E-03     51.2387E-03
            2986            3399     50.6379E-03     52.8891E-03
            2986            3400     44.5126E-03     46.7805E-03
            2986            3416     48.8560E-03     51.2387E-03
            2986            3417     42.8989E-03     45.3718E-03
            2987            3400     44.5126E-03     46.7805E-03
            2987            3401     38.5552E-03     40.8125E-03
            2987            3417     42.8989E-03     45.3718E-03
            2987            3418     37.0568E-03     39.5905E-03
            2988            3401     38.5552E-03     40.8125E-03
            2988            3402     32.6852E-03     34.9200E-03
            2988            3418     37.0568E-03     39.5905E-03
            2988            3419     31.2895E-03     33.8530E-03
            2989            3402     32.6852E-03     34.9200E-03
            2989            3403     26.8984E-03     29.0734E-03
            2989            3419     31.2895E-03     33.8530E-03
            2989            3420     25.5593E-03     28.1080E-03
            2990            3403     26.8984E-03     29.0734E-03
            2990            3404     21.1971E-03     23.2560E-03
            2990            3420     25.5593E-03     28.1080E-03
            2990            3421     19.8431E-03     22.3222E-03
            2991            3404     21.1971E-03     23.2560E-03
            2991            3405     15.7090E-03     17.5097E-03
            2991            3421     19.8431E-03     22.3222E-03
            2991            3422     14.1904E-03     16.4939E-03
            2992            3405     15.7090E-03     17.5097E-03
            2992            3406     10.7976E-03     12.0128E-03
            2992            3422     14.1904E-03     16.4939E-03
            2992            3423     8.85693E-03     10.6900E-03
            2993            3406     10.7976E-03     12.0128E-03
            2993            3407     8.38169E-03     8.10686E-03
            2993            3423     8.85693E-03     10.6900E-03
            2993            3424     5.77964E-03     5.98006E-03
            2994            3407     8.38169E-03     8.10686E-03
            2994            3408     10.4489E-03     8.57187E-03
            2994            3424     5.77964E-03     5.98006E-03
            2994            3425     8.47621E-03     6.99891E-03
            2995            3408     10.4489E-03     8.57187E-03
            2995            3409     15.2449E-03     12.7149E-03
            2995            3425     8.47621E-03     6.99891E-03
            2995            3426     16.0065E-03     14.2379E-03
            2996             384     20.3259E-03     18.6538E-03
            2996             385     17.7872E-03     15.1257E-03
            2996            3409     15.2449E-03     12.7149E-03
            2996            3426     16.0065E-03     14.2379E-03
            2997             460     107.233E-03     110.698E-03
            2997             461     112.266E-03     113.129E-03
            2997            3410     103.346E-03     104.888E-03
            2997            3427     100.804E-03     102.844E-03
            2998            3410     103.346E-03     104.888E-03
            2998            3411     87.8570E-03     90.0444E-03
            2998            3427     100.804E-03     102.844E-03
            2998            3428     91.0033E-03     91.1449E-03
            2999            3411     87.8570E-03     90.0444E-03
            2999            3412     77.0561E-03     79.1439E-03
            2999            3428     91.0033E-03     91.1449E-03
            2999            3429     83.9643E-03     83.9630E-03
            3000            3412     77.0561E-03     79.1439E-03
            3000            3413     68.8656E-03     70.9331E-03
            3000            3429     83.9643E-03     83.9630E-03
            3000            3430     77.3017E-03     77.5737E-03
            3001            3413     68.8656E-03     70.9331E-03
            3001            3414     61.5935E-03     63.7578E-03
            3001            3430     77.3017E-03     77.5737E-03
            3001            3431     71.0939E-03     71.5978E-03
            3002            3414     61.5935E-03     63.7578E-03
            3002            3415     55.0610E-03     57.3340E-03
            3002            3431     71.0939E-03     71.5978E-03
            3002            3432     64.9580E-03     65.7838E-03
            3003            3415     55.0610E-03     57.3340E-03
            3003            3416     48.8560E-03     51.2387E-03
            3003            3432     64.9580E-03     65.7838E-03
            3003            3433     58.9508E-03     59.9816E-03
            3004            3416     48.8560E-03     51.2387E-03
            3004            3417     42.8989E-03     45.3718E-03
            3004            3433     58.9508E-03     59.9816E-03
            3004            3434     52.9547E-03     54.1928E-03
            3005            3417     42.8989E-03     45.3718E-03
            3005            3418     37.0568E-03     39.5905E-03
            3005            3434     52.9547E-03     54.1928E-03
            3005            3435     47.0292E-03     48.3839E-03
            3006            3418     37.0568E-03     39.5905E-03
            3006            3419     31.2895E-03     33.8530E-03
            3006            3435     47.0292E-03     48.3839E-03
            3006            3436     41.1421E-03     42.5869E-03
            3007            3419     31.2895E-03     33.8530E-03
            3007            3420     25.5593E-03     28.1080E-03
            3007            3436     41.1421E-03     42.5869E-03
            3007            3437     35.3700E-03     36.8374E-03
            3008            3420     25.5593E-03     28.1080E-03
            3008            3421     19.8431E-03     22.3222E-03
            3008            3437     35.3700E-03     36.8374E-03
            3008            3438     29.7292E-03     31.1763E-03
            3009            3421     19.8431E-03     22.3222E-03
            3009            3422     14.1904E-03     16.4939E-03
            3009            3438     29.7292E-03     31.1763E-03
            3009            3439     24.3266E-03     25.6908E-03
            3010            3422     14.1904E-03     16.4939E-03
            3010            3423     8.85693E-03     10.6900E-03
            3010            3439     24.3266E-03     25.6908E-03
            3010            3440     19.3209E-03     20.5239E-03
            3011            3423     8.85693E-03     10.6900E-03
            3011            3424     5.77964E-03     5.98006E-03
            3011            3440     19.3209E-03     20.5239E-03
            3011            3441     15.8509E-03     16.2689E-03
            3012            3424     5.77964E-03     5.98006E-03
            3012            3425     8.47621E-03     6.99891E-03
            3012            3441     15.8509E-03     16.2689E-03
            3012            3442     15.5788E-03     15.7869E-03
            3013            3425     8.47621E-03     6.99891E-03
            3013            3426     16.0065E-03     14.2379E-03
            3013            3442     15.5788E-03     15.7869E-03
            3013            3443     18.5514E-03     21.6325E-03
            3014             383     20.6715E-03     26.1628E-03
            3014             384     20.3259E-03     18.6538E-03
            3014            3426     16.0065E-03     14.2379E-03
            3014            3443     18.5514E-03     21.6325E-03
            3015             459     106.441E-03     104.820E-03
            3015             460     107.233E-03     110.698E-03
            3015            3427     100.804E-03     102.844E-03
            3015            3444     104.471E-03     103.278E-03
            3016            3427     100.804E-03     102.844E-03
            3016            3428     91.0033E-03     91.1449E-03
            3016            3444     104.471E-03     103.278E-03
            3016            3445     99.9838E-03     99.1322E-03
            3017            3428     91.0033E-03     91.1449E-03
            3017            3429     83.9643E-03     83.9630E-03
            3017            3445     99.9838E-03     99.1322E-03
            3017            3446     94.9070E-03     93.9834E-03
            3018            3429     83.9643E-03     83.9630E-03
            3018            3430     77.3017E-03     77.5737E-03
            3018            3446     94.9070E-03     93.9834E-03
            3018            3447     89.3873E-03     88.6295E-03
            3019            3430     77.3017E-03     77.5737E-03
            3019            3431     71.0939E-03     71.5978E-03
            3019            3447     89.3873E-03     88.6295E-03
            3019            3448     83.4194E-03     82.8875E-03
            3020            3431     71.0939E-03     71.5978E-03
            3020            3432     64.9580E-03     65.7838E-03
            3020            3448     83.4194E-03     82.8875E-03
            3020            3449     77.1928E-03     76.8874E-03
            3021            3432     64.9580E-03     65.7838E-03
            3021            3433     58.9508E-03     59.9816E-03
            3021            3449     77.1928E-03     76.8874E-03
            3021            3450     70.7646E-03     70.6667E-03
            3022            3433     58.9508E-03     59.9816E-03
            3022            3434     52.9547E-03     54.1928E-03
            3022            3450     70.7646E-03     70.6667E-03
            3022            3451     64.2477E-03     64.3037E-03
            3023            3434     52.9547E-03     54.1928E-03
            3023            3435     47.0292E-03     48.3839E-03
            3023            3451     64.2477E-03     64.3037E-03
            3023            3452     57.7078E-03     57.8915E-03
            3024            3435     47.0292E-03     48.3839E-03
            3024            3436     41.1421E-03     42.5869E-03
            3024            3452     57.7078E-03     57.8915E-03
            3024            3453     51.2561E-03     51.5076E-03
            3025            3436     41.1421E-03     42.5869E-03
            3025            3437     35.3700E-03     36.8374E-03
            3025            3453     51.2561E-03     51.5076E-03
            3025            3454     44.9803E-03     45.2798E-03
            3026            3437     35.3700E-03     36.8374E-03
            3026            3438     29.7292E-03     31.1763E-03
            3026            3454     44.9803E-03     45.2798E-03
            3026            3455     39.0386E-03     39.3404E-03
            3027            3438     29.7292E-03     31.1763E-03
            3027            3439     24.3266E-03     25.6908E-03
            3027            3455     39.0386E-03     39.3404E-03
            3027            3456     33.5927E-03     33.9260E-03
            3028            3439     24.3266E-03     25.6908E-03
            3028            3440     19.3209E-03     20.5239E-03
            3028            3456     33.5927E-03     33.9260E-03
            3028            3457     28.9098E-03     29.3528E-03
            3029            3440     19.3209E-03     20.5239E-03
            3029            3441     15.8509E-03     16.2689E-03
            3029            3457     28.9098E-03     29.3528E-03
            3029            3458     25.2853E-03     26.1514E-03
            3030            3441     15.8509E-03     16.2689E-03
            3030            3442     15.5788E-03     15.7869E-03
            3030            3458     25.2853E-03     26.1514E-03
            3030            3459     22.8776E-03     25.0598E-03
            3031            3442     15.5788E-03     15.7869E-03
            3031            3443     18.5514E-03     21.6325E-03
            3031            3459     22.8776E-03     25.0598E-03
            3031            3460     23.0428E-03     26.6657E-03
            3032             382     24.1132E-03     28.2124E-03
            3032             383     20.6715E-03     26.1628E-03
            3032            3443     18.5514E-03     21.6325E-03
            3032            3460     23.0428E-03     26.6657E-03
            3033             458     113.048E-03     113.156E-03
            3033             459     106.441E-03     104.820E-03
            3033            3444     104.471E-03     103.278E-03
            3033            3461     110.947E-03     111.404E-03
            3034            3444     104.471E-03     103.278E-03
            3034            3445     99.9838E-03     99.1322E-03
            3034            3461     110.947E-03     111.404E-03
            3034            3462     105.923E-03     106.771E-03
            3035            3445     99.9838E-03     99.1322E-03
            3035            3446     94.9070E-03     93.9834E-03
            3035            3462     105.923E-03     106.771E-03
            3035            3463     99.9357E-03     100.728E-03
            3036            3446     94.9070E-03     93.9834E-03
            3036            3447     89.3873E-03     88.6295E-03
            3036            3463     99.9357E-03     100.728E-03
            3036            3464     93.6108E-03     94.1705E-03
            3037            3447     89.3873E-03     88.6295E-03
            3037            3448     83.4194E-03     82.8875E-03
            3037            3464     93.6108E-03     94.1705E-03
            3037            3465     86.8201E-03     87.2795E-03
            3038            3448     83.4194E-03     82.8875E-03
            3038            3449     77.1928E-03     76.8874E-03
            3038            3465     86.8201E-03     87.2795E-03
            3038            3466     79.7362E-03     80.1790E-03
            3039            3449     77.1928E-03     76.8874E-03
            3039            3450     70.7646E-03     70.6667E-03
            3039            3466     79.7362E-03     80.1790E-03
            3039            3467     72.4830E-03     72.9301E-03
            3040            3450     70.7646E-03     70.6667E-03
            3040            3451     64.2477E-03     64.3037E-03
            3040            3467     72.4830E-03     72.9301E-03
            3040            3468     65.1430E-03     65.6308E-03
            3041            3451     64.2477E-03     64.3037E-03
            3041            3452     57.7078E-03     57.8915E-03
            3041            3468     65.1430E-03     65.6308E-03
            3041            3469     57.8252E-03     58.3364E-03
            3042            3452     57.7078E-03     57.8915E-03
            3042            3453     51.2561E-03     51.5076E-03
            3042            3469     57.8252E-03     58.3364E-03
            3042            3470     50.6005E-03     51.1446E-03
            3043            3453     51.2561E-03     51.5076E-03
            3043            3454     44.9803E-03     45.2798E-03
            3043            3470     50.6005E-03     51.1446E-03
            3043            3471     43.5839E-03     44.1494E-03
            3044            3454     44.9803E-03     45.2798E-03
            3044            3455     39.0386E-03     39.3404E-03
            3044            3471     43.5839E-03     44.1494E-03
            3044            3472     36.9106E-03     37.5162E-03
            3045            3455     39.0386E-03     39.3404E-03
            3045            3456     33.5927E-03     33.9260E-03
            3045            3472     36.9106E-03     37.5162E-03
            3045            3473     30.7979E-03     31.5018E-03
            3046            3456     33.5927E-03     33.9260E-03
            3046            3457     28.9098E-03     29.3528E-03
            3046            3473     30.7979E-03     31.5018E-03
            3046            3474     25.6427E-03     26.5534E-03
            3047            3457     28.9098E-03     29.3528E-03
            3047            3458     25.2853E-03     26.1514E-03
            3047            3474     25.6427E-03     26.5534E-03
            3047            3475     21.9685E-03     23.3682E-03
            3048            3458     25.2853E-03     26.1514E-03
            3048            3459     22.8776E-03     25.0598E-03
            3048            3475     21.9685E-03     23.3682E-03
            3048            3476     21.0501E-03     22.5481E-03
            3049            3459     22.8776E-03     25.0598E-03
            3049            3460     23.0428E-03     26.6657E-03
            3049            3476     21.0501E-03     22.5481E-03
            3049            3477     23.5115E-03     23.1811E-03
            3050             381     25.4637E-03     23.5743E-03
            3050             382     24.1132E-03     28.2124E-03
            3050            3460     23.0428E-03     26.6657E-03
            3050            3477     23.5115E-03     23.1811E-03
            3051             457     118.861E-03     120.053E-03
            3051             458     113.048E-03     113.156E-03
            3051            3461     110.947E-03     111.404E-03
            3051            3478     116.152E-03     117.647E-03
            3052            3461     110.947E-03     111.404E-03
            3052            3462     105.923E-03     106.771E-03
            3052            3478     116.152E-03     117.647E-03
            3052            3479     110.604E-03     112.344E-03
            3053            3462     105.923E-03     106.771E-03
            3053            3463     99.9357E-03     100.728E-03
            3053            3479     110.604E-03     112.344E-03
            3053            3480     104.287E-03     105.953E-03
            3054            3463     99.9357E-03     100.728E-03
            3054            3464     93.6108E-03     94.1705E-03
            3054            3480     104.287E-03     105.953E-03
            3054            3481     97.1729E-03     98.7215E-03
            3055            3464     93.6108E-03     94.1705E-03
            3055            3465     86.8201E-03     87.2795E-03
            3055            3481     97.1729E-03     98.7215E-03
            3055            3482     89.7332E-03     91.0395E-03
            3056            3465     86.8201E-03     87.2795E-03
            3056            3466     79.7362E-03     80.1790E-03
            3056            3482     89.7332E-03     91.0395E-03
            3056            3483     81.9518E-03     83.0975E-03
            3057            3466     79.7362E-03     80.1790E-03
            3057            3467     72.4830E-03     72.9301E-03
            3057            3483     81.9518E-03     83.0975E-03
            3057            3484     74.0172E-03     75.0612E-03
            3058            3467     72.4830E-03     72.9301E-03
            3058            3468     65.1430E-03     65.6308E-03
            3058            3484     74.0172E-03     75.0612E-03
            3058            3485     66.0344E-03     66.9984E-03
            3059            3468     65.1430E-03     65.6308E-03
            3059            3469     57.8252E-03     58.3364E-03
            3059            3485     66.0344E-03     66.9984E-03
            3059            3486     58.0764E-03     59.0068E-03
            3060            3469     57.8252E-03     58.3364E-03
            3060            3470     50.6005E-03     51.1446E-03
            3060            3486     58.0764E-03     59.0068E-03
            3060            3487     50.2370E-03     51.1456E-03
            3061            3470     50.6005E-03     51.1446E-03
            3061            3471     43.5839E-03     44.1494E-03
            3061            3487     50.2370E-03     51.1456E-03
            3061            3488     42.6022E-03     43.5197E-03
            3062            3471     43.5839E-03     44.1494E-03
            3062            3472     36.9106E-03     37.5162E-03
            3062            3488     42.6022E-03     43.5197E-03
            3062            3489     35.3152E-03     36.2768E-03
            3063            3472     36.9106E-03     37.5162E-03
            3063            3473     30.7979E-03     31.5018E-03
            3063            3489     35.3152E-03     36.2768E-03
            3063            3490     28.6386E-03     29.6921E-03
            3064            3473     30.7979E-03     31.5018E-03
            3064            3474     25.6427E-03     26.5534E-03
            3064            3490     28.6386E-03     29.6921E-03
            3064            3491     23.0692E-03     24.2548E-03
            3065            3474     25.6427E-03     26.5534E-03
            3065            3475     21.9685E-03     23.3682E-03
            3065            3491     23.0692E-03     24.2548E-03
            3065            3492     19.6338E-03     20.7006E-03
            3066            3475     21.9685E-03     23.3682E-03
            3066            3476     21.0501E-03     22.5481E-03
            3066            3492     19.6338E-03     20.7006E-03
            3066            3493     19.4394E-03     19.3762E-03
            3067            3476     21.0501E-03     22.5481E-03
            3067            3477     23.5115E-03     23.1811E-03
            3067            3493     19.4394E-03     19.3762E-03
            3067            3494     21.4790E-03     20.0868E-03
            3068             380     22.7317E-03     20.9309E-03
            3068             381     25.4637E-03     23.5743E-03
            3068            3477     23.5115E-03     23.1811E-03
            3068            3494     21.4790E-03     20.0868E-03
            3069             456     123.817E-03     124.690E-03
            3069             457     118.861E-03     120.053E-03
            3069            3478     116.152E-03     117.647E-03
            3069            3495     120.842E-03     122.158E-03
            3070            3478     116.152E-03     117.647E-03
            3070            3479     110.604E-03     112.344E-03
            3070            3495     120.842E-03     122.158E-03
            3070            3496     114.513E-03     116.526E-03
            3071            3479     110.604E-03     112.344E-03
            3071            3480     104.287E-03     105.953E-03
            3071            3496     114.513E-03     116.526E-03
            3071            3497     107.565E-03     109.771E-03
            3072            3480     104.287E-03     105.953E-03
            3072            3481     97.1729E-03     98.7215E-03
            3072            3497     107.565E-03     109.771E-03
            3072            3498     100.004E-03     102.080E-03
            3073            3481     97.1729E-03     98.7215E-03
            3073            3482     89.7332E-03     91.0395E-03
            3073            3498     100.004E-03     102.080E-03
            3073            3499     91.8938E-03     93.8253E-03
            3074            3482     89.7332E-03     91.0395E-03
            3074            3483     81.9518E-03     83.0975E-03
            3074            3499     91.8938E-03     93.8253E-03
            3074            3500     83.5637E-03     85.2949E-03
            3075            3483     81.9518E-03     83.0975E-03
            3075            3484     74.0172E-03     75.0612E-03
            3075            3500     83.5637E-03     85.2949E-03
            3075            3501     75.1007E-03     76.6604E-03
            3076            3484     74.0172E-03     75.0612E-03
            3076            3485     66.0344E-03     66.9984E-03
            3076            3501     75.1007E-03     76.6604E-03
            3076            3502     66.6177E-03     68.0582E-03
            3077            3485     66.0344E-03     66.9984E-03
            3077            3486     58.0764E-03     59.0068E-03
            3077            3502     66.6177E-03     68.0582E-03
            3077            3503     58.2005E-03     59.5476E-03
            3078            3486     58.0764E-03     59.0068E-03
            3078            3487     50.2370E-03     51.1456E-03
            3078            3503     58.2005E-03     59.5476E-03
            3078            3504     49.9005E-03     51.1984E-03
            3079            3487     50.2370E-03     51.1456E-03
            3079            3488     42.6022E-03     43.5197E-03
            3079            3504     49.9005E-03     51.1984E-03
            3079            3505     41.7996E-03     43.0833E-03
            3080            3488     42.6022E-03     43.5197E-03
            3080            3489     35.3152E-03     36.2768E-03
            3080            3505     41.7996E-03     43.0833E-03
            3080            3506     34.0324E-03     35.3401E-03
            3081            3489     35.3152E-03     36.2768E-03
            3081            3490     28.6386E-03     29.6921E-03
            3081            3506     34.0324E-03     35.3401E-03
            3081            3507     26.8802E-03     28.2126E-03
            3082            3490     28.6386E-03     29.6921E-03
            3082            3491     23.0692E-03     24.2548E-03
            3082            3507     26.8802E-03     28.2126E-03
            3082            3508     20.9343E-03     22.1756E-03
            3083            3491     23.0692E-03     24.2548E-03
            3083            3492     19.6338E-03     20.7006E-03
            3083            3508     20.9343E-03     22.1756E-03
            3083            3509     17.4311E-03     17.9666E-03
            3084            3492     19.6338E-03     20.7006E-03
            3084            3493     19.4394E-03     19.3762E-03
            3084            3509     17.4311E-03     17.9666E-03
            3084            3510     17.1150E-03     16.3862E-03
            3085            3493     19.4394E-03     19.3762E-03
            3085            3494     21.4790E-03     20.0868E-03
            3085            3510     17.1150E-03     16.3862E-03
            3085            3511     19.6938E-03     17.7441E-03
            3086             379     21.6360E-03     19.1302E-03
            3086             380     22.7317E-03     20.9309E-03
            3086            3494     21.4790E-03     20.0868E-03
            3086            3511     19.6938E-03     17.7441E-03
            3087             455     128.361E-03     129.425E-03
            3087             456     123.817E-03     124.690E-03
            3087            3495     120.842E-03     122.158E-03
            3087            3512     124.914E-03     126.373E-03
            3088            3495     120.842E-03     122.158E-03
            3088            3496     114.513E-03     116.526E-03
            3088            3512     124.914E-03     126.373E-03
            3088            3513     117.823E-03     119.881E-03
            3089            3496     114.513E-03     116.526E-03
            3089            3497     107.565E-03     109.771E-03
            3089            3513     117.823E-03     119.881E-03
            3089            3514     110.180E-03     112.530E-03
            3090            3497     107.565E-03     109.771E-03
            3090            3498     100.004E-03     102.080E-03
            3090            3514     110.180E-03     112.530E-03
            3090            3515     101.904E-03     104.331E-03
            3091            3498     100.004E-03     102.080E-03
            3091            3499     91.8938E-03     93.8253E-03
            3091            3515     101.904E-03     104.331E-03
            3091            3516     93.2581E-03     95.5750E-03
            3092            3499     91.8938E-03     93.8253E-03
            3092            3500     83.5637E-03     85.2949E-03
            3092            3516     93.2581E-03     95.5750E-03
            3092            3517     84.4237E-03     86.5714E-03
            3093            3500     83.5637E-03     85.2949E-03
            3093            3501     75.1007E-03     76.6604E-03
            3093            3517     84.4237E-03     86.5714E-03
            3093            3518     75.5506E-03     77.5395E-03
            3094            3501     75.1007E-03     76.6604E-03
            3094            3502     66.6177E-03     68.0582E-03
            3094            3518     75.5506E-03     77.5395E-03
            3094            3519     66.7415E-03     68.5809E-03
            3095            3502     66.6177E-03     68.0582E-03
            3095            3503     58.2005E-03     59.5476E-03
            3095            3519     66.7415E-03     68.5809E-03
            3095            3520     58.0157E-03     59.7452E-03
            3096            3503     58.2005E-03     59.5476E-03
            3096            3504     49.9005E-03     51.1984E-03
            3096            3520     58.0157E-03     59.7452E-03
            3096            3521     49.4181E-03     51.0750E-03
            3097            3504     49.9005E-03     51.1984E-03
            3097            3505     41.7996E-03     43.0833E-03
            3097            3521     49.4181E-03     51.0750E-03
            3097            3522     41.0059E-03     42.6246E-03
            3098            3505     41.7996E-03     43.0833E-03
            3098            3506     34.0324E-03     35.3401E-03
            3098            3522     41.0059E-03     42.6246E-03
            3098            3523     32.8849E-03     34.4870E-03
            3099            3506     34.0324E-03     35.3401E-03
            3099            3507     26.8802E-03     28.2126E-03
            3099            3523     32.8849E-03     34.4870E-03
            3099            3524     25.3136E-03     26.8685E-03
            3100            3507     26.8802E-03     28.2126E-03
            3100            3508     20.9343E-03     22.1756E-03
            3100            3524     25.3136E-03     26.8685E-03
            3100            3525     18.9824E-03     20.1883E-03
            3101            3508     20.9343E-03     22.1756E-03
            3101            3509     17.4311E-03     17.9666E-03
            3101            3525     18.9824E-03     20.1883E-03
            3101            3526     15.0795E-03     15.3176E-03
            3102            3509     17.4311E-03     17.9666E-03
            3102            3510     17.1150E-03     16.3862E-03
            3102            3526     15.0795E-03     15.3176E-03
            3102            3527     14.9595E-03     13.7249E-03
            3103            3510     17.1150E-03     16.3862E-03
            3103            3511     19.6938E-03     17.7441E-03
            3103            3527     14.9595E-03     13.7249E-03
            3103            3528     18.2898E-03     15.8265E-03
            3104             378     20.5796E-03     17.6960E-03
            3104             379     21.6360E-03     19.1302E-03
            3104            3511     19.6938E-03     17.7441E-03
            3104            3528     18.2898E-03     15.8265E-03
            3105             454     132.347E-03     133.821E-03
            3105             455     128.361E-03     129.425E-03
            3105            3512     124.914E-03     126.373E-03
            3105            3529     128.597E-03     130.221E-03
            3106            3512     124.914E-03     126.373E-03
            3106            3513     117.823E-03     119.881E-03
            3106            3529     128.597E-03     130.221E-03
            3106            3530     120.709E-03     122.740E-03
            3107            3513     117.823E-03     119.881E-03
            3107            3514     110.180E-03     112.530E-03
            3107            3530     120.709E-03     122.740E-03
            3107            3531     112.052E-03     114.511E-03
            3108            3514     110.180E-03     112.530E-03
            3108            3515     101.904E-03     104.331E-03
            3108            3531     112.052E-03     114.511E-03
            3108            3532     102.973E-03     105.561E-03
            3109            3515     101.904E-03     104.331E-03
            3109            3516     93.2581E-03     95.5750E-03
            3109            3532     102.973E-03     105.561E-03
            3109            3533     93.7081E-03     96.2334E-03
            3110            3516     93.2581E-03     95.5750E-03
            3110            3517     84.4237E-03     86.5714E-03
            3110            3533     93.7081E-03     96.2334E-03
            3110            3534     84.4230E-03     86.8661E-03
            3111            3517     84.4237E-03     86.5714E-03
            3111            3518     75.5506E-03     77.5395E-03
            3111            3534     84.4230E-03     86.8661E-03
            3111            3535     75.3099E-03     77.6043E-03
            3112            3518     75.5506E-03     77.5395E-03
            3112            3519     66.7415E-03     68.5809E-03
            3112            3535     75.3099E-03     77.6043E-03
            3112            3536     66.3078E-03     68.4644E-03
            3113            3519     66.7415E-03     68.5809E-03
            3113            3520     58.0157E-03     59.7452E-03
            3113            3536     66.3078E-03     68.4644E-03
            3113            3537     57.4366E-03     59.4840E-03
            3114            3520     58.0157E-03     59.7452E-03
            3114            3521     49.4181E-03     51.0750E-03
            3114            3537     57.4366E-03     59.4840E-03
            3114            3538     48.6964E-03     50.6566E-03
            3115            3521     49.4181E-03     51.0750E-03
            3115            3522     41.0059E-03     42.6246E-03
            3115            3538     48.6964E-03     50.6566E-03
            3115            3539     40.1024E-03     42.0088E-03
            3116            3522     41.0059E-03     42.6246E-03
            3116            3523     32.8849E-03     34.4870E-03
            3116            3539     40.1024E-03     42.0088E-03
            3116            3540     31.7555E-03     33.6020E-03
            3117            3523     32.8849E-03     34.4870E-03
            3117            3524     25.3136E-03     26.8685E-03
            3117            3540     31.7555E-03     33.6020E-03
            3117            3541     23.8542E-03     25.5653E-03
            3118            3524     25.3136E-03     26.8685E-03
            3118            3525     18.9824E-03     20.1883E-03
            3118            3541     23.8542E-03     25.5653E-03
            3118            3542     16.9940E-03     18.2655E-03
            3119            3525     18.9824E-03     20.1883E-03
            3119            3526     15.0795E-03     15.3176E-03
            3119            3542     16.9940E-03     18.2655E-03
            3119            3543     12.8512E-03     12.8520E-03
            3120            3526     15.0795E-03     15.3176E-03
            3120            3527     14.9595E-03     13.7249E-03
            3120            3543     12.8512E-03     12.8520E-03
            3120            3544     13.1697E-03     11.4006E-03
            3121            3527     14.9595E-03     13.7249E-03
            3121            3528     18.2898E-03     15.8265E-03
            3121            3544     13.1697E-03     11.4006E-03
            3121            3545     17.3903E-03     14.6015E-03
            3122             377     20.1998E-03     17.2292E-03
            3122             378     20.5796E-03     17.6960E-03
            3122            3528     18.2898E-03     15.8265E-03
            3122            3545     17.3903E-03     14.6015E-03
            3123             453     136.617E-03     137.427E-03
            3123             454     132.347E-03     133.821E-03
            3123            3529     128.597E-03     130.221E-03
            3123            3546     132.221E-03     133.637E-03
            3124            3529     128.597E-03     130.221E-03
            3124            3530     120.709E-03     122.740E-03
            3124            3546     132.221E-03     133.637E-03
            3124            3547     122.958E-03     125.215E-03
            3125            3530     120.709E-03     122.740E-03
            3125            3531     112.052E-03     114.511E-03
            3125            3547     122.958E-03     125.215E-03
            3125            3548     113.158E-03     115.627E-03
            3126            3531     112.052E-03     114.511E-03
            3126            3532     102.973E-03     105.561E-03
            3126            3548     113.158E-03     115.627E-03
            3126            3549     103.046E-03     105.611E-03
            3127            3532     102.973E-03     105.561E-03
            3127            3533     93.7081E-03     96.2334E-03
            3127            3549     103.046E-03     105.611E-03
            3127            3550     93.0577E-03     95.7444E-03
            3128            3533     93.7081E-03     96.2334E-03
            3128            3534     84.4230E-03     86.8661E-03
            3128            3550     93.0577E-03     95.7444E-03
            3128            3551     83.5806E-03     86.1834E-03
            3129            3534     84.4230E-03     86.8661E-03
            3129            3535     75.3099E-03     77.6043E-03
            3129            3551     83.5806E-03     86.1834E-03
            3129            3552     74.3395E-03     76.8346E-03
            3130            3535     75.3099E-03     77.6043E-03
            3130            3536     66.3078E-03     68.4644E-03
            3130            3552     74.3395E-03     76.8346E-03
            3130            3553     65.3172E-03     67.7113E-03
            3131            3536     66.3078E-03     68.4644E-03
            3131            3537     57.4366E-03     59.4840E-03
            3131            3553     65.3172E-03     67.7113E-03
            3131            3554     56.4478E-03     58.7384E-03
            3132            3537     57.4366E-03     59.4840E-03
            3132            3538     48.6964E-03     50.6566E-03
            3132            3554     56.4478E-03     58.7384E-03
            3132            3555     47.6900E-03     49.9092E-03
            3133            3538     48.6964E-03     50.6566E-03
            3133            3539     40.1024E-03     42.0088E-03
            3133            3555     47.6900E-03     49.9092E-03
            3133            3556     39.0604E-03     41.2051E-03
            3134            3539     40.1024E-03     42.0088E-03
            3134            3540     31.7555E-03     33.6020E-03
            3134            3556     39.0604E-03     41.2051E-03
            3134            3557     30.5718E-03     32.6396E-03
            3135            3540     31.7555E-03     33.6020E-03
            3135            3541     23.8542E-03     25.5653E-03
            3135            3557     30.5718E-03     32.6396E-03
            3135            3558     22.4316E-03     24.3035E-03
            3136            3541     23.8542E-03     25.5653E-03
            3136            3542     16.9940E-03     18.2655E-03
            3136            3558     22.4316E-03     24.3035E-03
            3136            3559     15.1525E-03     16.4736E-03
            3137            3542     16.9940E-03     18.2655E-03
            3137            3543     12.8512E-03     12.8520E-03
            3137            3559     15.1525E-03     16.4736E-03
            3137            3560     10.7321E-03     10.5031E-03
            3138            3543     12.8512E-03     12.8520E-03
            3138            3544     13.1697E-03     11.4006E-03
            3138            3560     10.7321E-03     10.5031E-03
            3138            3561     11.7984E-03     9.68364E-03
            3139            3544     13.1697E-03     11.4006E-03
            3139            3545     17.3903E-03     14.6015E-03
            3139            3561     11.7984E-03     9.68364E-03
            3139            3562     17.2805E-03     14.1986E-03
            3140             376     20.6105E-03     17.3017E-03
            3140             377     20.1998E-03     17.2292E-03
            3140            3545     17.3903E-03     14.6015E-03
            3140            3562     17.2805E-03     14.1986E-03
            3141             452     140.108E-03     142.419E-03
            3141             453     136.617E-03     137.427E-03
            3141            3546     132.221E-03     133.637E-03
            3141            3563     135.220E-03     137.345E-03
            3142            3546     132.221E-03     133.637E-03
            3142            3547     122.958E-03     125.215E-03
            3142            3563     135.220E-03     137.345E-03
            3142            3564     124.734E-03     126.676E-03
            3143            3547     122.958E-03     125.215E-03
            3143            3548     113.158E-03     115.627E-03
            3143            3564     124.734E-03     126.676E-03
            3143            3565     112.974E-03     115.230E-03
            3144            3548     113.158E-03     115.627E-03
            3144            3549     103.046E-03     105.611E-03
            3144            3565     112.974E-03     115.230E-03
            3144            3566     101.558E-03     104.228E-03
            3145            3549     103.046E-03     105.611E-03
            3145            3550     93.0577E-03     95.7444E-03
            3145            3566     101.558E-03     104.228E-03
            3145            3567     91.4399E-03     94.1377E-03
            3146            3550     93.0577E-03     95.7444E-03
            3146            3551     83.5806E-03     86.1834E-03
            3146            3567     91.4399E-03     94.1377E-03
            3146            3568     81.8820E-03     84.5405E-03
            3147            3551     83.5806E-03     86.1834E-03
            3147            3552     74.3395E-03     76.8346E-03
            3147            3568     81.8820E-03     84.5405E-03
            3147            3569     72.7329E-03     75.3503E-03
            3148            3552     74.3395E-03     76.8346E-03
            3148            3553     65.3172E-03     67.7113E-03
            3148            3569     72.7329E-03     75.3503E-03
            3148            3570     63.8412E-03     66.3844E-03
            3149            3553     65.3172E-03     67.7113E-03
            3149            3554     56.4478E-03     58.7384E-03
            3149            3570     63.8412E-03     66.3844E-03
            3149            3571     55.0902E-03     57.5876E-03
            3150            3554     56.4478E-03     58.7384E-03
            3150            3555     47.6900E-03     49.9092E-03
            3150            3571     55.0902E-03     57.5876E-03
            3150            3572     46.4502E-03     48.8872E-03
            3151            3555     47.6900E-03     49.9092E-03
            3151            3556     39.0604E-03     41.2051E-03
            3151            3572     46.4502E-03     48.8872E-03
            3151            3573     37.8725E-03     40.2536E-03
            3152            3556     39.0604E-03     41.2051E-03
            3152            3557     30.5718E-03     32.6396E-03
            3152            3573     37.8725E-03     40.2536E-03
            3152            3574     29.3875E-03     31.6673E-03
            3153            3557     30.5718E-03     32.6396E-03
            3153            3558     22.4316E-03     24.3035E-03
            3153            3574     29.3875E-03     31.6673E-03
            3153            3575     21.0265E-03     23.1345E-03
            3154            3558     22.4316E-03     24.3035E-03
            3154            3559     15.1525E-03     16.4736E-03
            3154            3575     21.0265E-03     23.1345E-03
            3154            3576     13.3807E-03     14.8804E-03
            3155            3559     15.1525E-03     16.4736E-03
            3155            3560     10.7321E-03     10.5031E-03
            3155            3576     13.3807E-03     14.8804E-03
            3155            3577     9.10979E-03     8.57410E-03
            3156            3560     10.7321E-03     10.5031E-03
            3156            3561     11.7984E-03     9.68364E-03
            3156            3577     9.10979E-03     8.57410E-03
            3156            3578     11.2868E-03     8.61436E-03
            3157            3561     11.7984E-03     9.68364E-03
            3157            3562     17.2805E-03     14.1986E-03
            3157            3578     11.2868E-03     8.61436E-03
            3157            3579     17.7949E-03     14.7412E-03
            3158             375     21.3740E-03     18.5336E-03
            3158             376     20.6105E-03     17.3017E-03
            3158            3562     17.2805E-03     14.1986E-03
            3158            3579     17.7949E-03     14.7412E-03
            3159             451     144.786E-03     144.581E-03
            3159             452     140.108E-03     142.419E-03
            3159            3563     135.220E-03     137.345E-03
            3159            3580     138.617E-03     139.014E-03
            3160            3563     135.220E-03     137.345E-03
            3160            3564     124.734E-03     126.676E-03
            3160            3580     138.617E-03     139.014E-03
            3160            3581     124.391E-03     125.990E-03
            3161            3564     124.734E-03     126.676E-03
            3161            3565     112.974E-03     115.230E-03
            3161            3581     124.391E-03     125.990E-03
            3161            3582     110.182E-03     112.612E-03
            3162            3565     112.974E-03     115.230E-03
            3162            3566     101.558E-03     104.228E-03
            3162            3582     110.182E-03     112.612E-03
            3162            3583     98.9022E-03     101.472E-03
            3163            3566     101.558E-03     104.228E-03
            3163            3567     91.4399E-03     94.1377E-03
            3163            3583     98.9022E-03     101.472E-03
            3163            3584     88.8856E-03     91.4622E-03
            3164            3567     91.4399E-03     94.1377E-03
            3164            3568     81.8820E-03     84.5405E-03
            3164            3584     88.8856E-03     91.4622E-03
            3164            3585     79.5488E-03     82.1814E-03
            3165            3568     81.8820E-03     84.5405E-03
            3165            3569     72.7329E-03     75.3503E-03
            3165            3585     79.5488E-03     82.1814E-03
            3165            3586     70.6761E-03     73.3142E-03
            3166            3569     72.7329E-03     75.3503E-03
            3166            3570     63.8412E-03     66.3844E-03
            3166            3586     70.6761E-03     73.3142E-03
            3166            3587     62.0151E-03     64.6847E-03
            3167            3570     63.8412E-03     66.3844E-03
            3167            3571     55.0902E-03     57.5876E-03
            3167            3587     62.0151E-03     64.6847E-03
            3167            3588     53.5105E-03     56.1821E-03
            3168            3571     55.0902E-03     57.5876E-03
            3168            3572     46.4502E-03     48.8872E-03
            3168            3588     53.5105E-03     56.1821E-03
            3168            3589     45.0680E-03     47.7359E-03
            3169            3572     46.4502E-03     48.8872E-03
            3169            3573     37.8725E-03     40.2536E-03
            3169            3589     45.0680E-03     47.7359E-03
            3169            3590     36.6613E-03     39.2926E-03
            3170            3573     37.8725E-03     40.2536E-03
            3170            3574     29.3875E-03     31.6673E-03
            3170            3590     36.6613E-03     39.2926E-03
            3170            3591     28.2603E-03     30.8148E-03
            3171            3574     29.3875E-03     31.6673E-03
            3171            3575     21.0265E-03     23.1345E-03
            3171            3591     28.2603E-03     30.8148E-03
            3171            3592     19.8776E-03     22.2584E-03
            3172            3575     21.0265E-03     23.1345E-03
            3172            3576     13.3807E-03     14.8804E-03
            3172            3592     19.8776E-03     22.2584E-03
            3172            3593     11.6734E-03     13.6501E-03
            3173            3576     13.3807E-03     14.8804E-03
            3173            3577     9.10979E-03     8.57410E-03
            3173            3593     11.6734E-03     13.6501E-03
            3173            3594     6.97842E-03     6.66619E-03
            3174            3577     9.10979E-03     8.57410E-03
            3174            3578     11.2868E-03     8.61436E-03
            3174            3594     6.97842E-03     6.66619E-03
            3174            3595     10.8074E-03     8.08537E-03
            3175            3578     11.2868E-03     8.61436E-03
            3175            3579     17.7949E-03     14.7412E-03
            3175            3595     10.8074E-03     8.08537E-03
            3175            3596     19.6796E-03     16.2644E-03
            3176             374     24.0187E-03     20.3246E-03
            3176             375     21.3740E-03     18.5336E-03
            3176            3579     17.7949E-03     14.7412E-03
            3176            3596     19.6796E-03     16.2644E-03
            3177             450     148.228E-03     148.836E-03
            3177             451     144.786E-03     144.581E-03
            3177            3580     138.617E-03     139.014E-03
            3177            3597     137.784E-03     139.259E-03
            3178            3580     138.617E-03     139.014E-03
            3178            3581     124.391E-03     125.990E-03
            3178            3597     137.784E-03     139.259E-03
            3178            3598     119.362E-03     121.653E-03
            3179            3581     124.391E-03     125.990E-03
            3179            3582     110.182E-03     112.612E-03
            3179            3598     119.362E-03     121.653E-03
            3179            3599     105.997E-03     108.161E-03
            3180            3582     110.182E-03     112.612E-03
            3180            3583     98.9022E-03     101.472E-03
            3180            3599     105.997E-03     108.161E-03
            3180            3600     95.4421E-03     97.6136E-03
            3181            3583     98.9022E-03     101.472E-03
            3181            3584     88.8856E-03     91.4622E-03
            3181            3600     95.4421E-03     97.6136E-03
            3181            3601     85.8146E-03     88.1364E-03
            3182            3584     88.8856E-03     91.4622E-03
            3182            3585     79.5488E-03     82.1814E-03
            3182            3601     85.8146E-03     88.1364E-03
            3182            3602     76.9520E-03     79.4388E-03
            3183            3585     79.5488E-03     82.1814E-03
            3183            3586     70.6761E-03     73.3142E-03
            3183            3602     76.9520E-03     79.4388E-03
            3183            3603     68.4042E-03     71.0557E-03
            3184            3586     70.6761E-03     73.3142E-03
            3184            3587     62.0151E-03     64.6847E-03
            3184            3603     68.4042E-03     71.0557E-03
            3184            3604     60.0990E-03     62.8840E-03
            3185            3587     62.0151E-03     64.6847E-03
            3185            3588     53.5105E-03     56.1821E-03
            3185            3604     60.0990E-03     62.8840E-03
            3185            3605     51.8927E-03     54.7753E-03
            3186            3588     53.5105E-03     56.1821E-03
            3186            3589     45.0680E-03     47.7359E-03
            3186            3605     51.8927E-03     54.7753E-03
            3186            3606     43.7445E-03     46.6807E-03
            3187            3589     45.0680E-03     47.7359E-03
            3187            3590     36.6613E-03     39.2926E-03
            3187            3606     43.7445E-03     46.6807E-03
            3187            3607     35.6098E-03     38.5489E-03
            3188            3590     36.6613E-03     39.2926E-03
            3188            3591     28.2603E-03     30.8148E-03
            3188            3607     35.6098E-03     38.5489E-03
            3188            3608     27.4374E-03     30.3199E-03
            3189            3591     28.2603E-03     30.8148E-03
            3189            3592     19.8776E-03     22.2584E-03
            3189            3608     27.4374E-03     30.3199E-03
            3189            3609     19.2423E-03     21.9723E-03
            3190            3592     19.8776E-03     22.2584E-03
            3190            3593     11.6734E-03     13.6501E-03
            3190            3609     19.2423E-03     21.9723E-03
            3190            3610     10.9486E-03     13.3726E-03
            3191            3593     11.6734E-03     13.6501E-03
            3191            3594     6.97842E-03     6.66619E-03
            3191            3610     10.9486E-03     13.3726E-03
            3191            3611     5.31754E-03     5.82287E-03
            3192            3594     6.97842E-03     6.66619E-03
            3192            3595     10.8074E-03     8.08537E-03
            3192            3611     5.31754E-03     5.82287E-03
            3192            3612     8.70840E-03     7.37220E-03
            3193            3595     10.8074E-03     8.08537E-03
            3193            3596     19.6796E-03     16.2644E-03
            3193            3612     8.70840E-03     7.37220E-03
            3193            3613     20.0078E-03     18.6456E-03
            3194             373     26.5242E-03     25.2494E-03
            3194             374     24.0187E-03     20.3246E-03
            3194            3596     19.6796E-03     16.2644E-03
            3194            3613     20.0078E-03     18.6456E-03
            3195             449     142.682E-03     147.231E-03
            3195             450     148.228E-03     148.836E-03
            3195            3597     137.784E-03     139.259E-03
            3195            3614     134.165E-03     136.875E-03
            3196            3597     137.784E-03     139.259E-03
            3196            3598     119.362E-03     121.653E-03
            3196            3614     134.165E-03     136.875E-03
            3196            3615     121.193E-03     121.401E-03
            3197            3598     119.362E-03     121.653E-03
            3197            3599     105.997E-03     108.161E-03
            3197            3615     121.193E-03     121.401E-03
            3197            3616     111.748E-03     111.772E-03
            3198            3599     105.997E-03     108.161E-03
            3198            3600     95.4421E-03     97.6136E-03
            3198            3616     111.748E-03     111.772E-03
            3198            3617     102.696E-03     103.104E-03
            3199            3600     95.4421E-03     97.6136E-03
            3199            3601     85.8146E-03     88.1364E-03
            3199            3617     102.696E-03     103.104E-03
            3199            3618     94.2431E-03     94.9515E-03
            3200            3601     85.8146E-03     88.1364E-03
            3200            3602     76.9520E-03     79.4388E-03
            3200            3618     94.2431E-03     94.9515E-03
            3200            3619     85.8155E-03     86.9471E-03
            3201            3602     76.9520E-03     79.4388E-03
            3201            3603     68.4042E-03     71.0557E-03
            3201            3619     85.8155E-03     86.9471E-03
            3201            3620     77.5646E-03     78.9570E-03
            3202            3603     68.4042E-03     71.0557E-03
            3202            3604     60.0990E-03     62.8840E-03
            3202            3620     77.5646E-03     78.9570E-03
            3202            3621     69.2976E-03     70.9473E-03
            3203            3604     60.0990E-03     62.8840E-03
            3203            3605     51.8927E-03     54.7753E-03
            3203            3621     69.2976E-03     70.9473E-03
            3203            3622     61.1090E-03     62.9002E-03
            3204            3605     51.8927E-03     54.7753E-03
            3204            3606     43.7445E-03     46.6807E-03
            3204            3622     61.1090E-03     62.9002E-03
            3204            3623     52.9618E-03     54.8560E-03
            3205            3606     43.7445E-03     46.6807E-03
            3205            3607     35.6098E-03     38.5489E-03
            3205            3623     52.9618E-03     54.8560E-03
            3205            3624     44.9275E-03     46.8384E-03
            3206            3607     35.6098E-03     38.5489E-03
            3206            3608     27.4374E-03     30.3199E-03
            3206            3624     44.9275E-03     46.8384E-03
            3206            3625     37.0628E-03     38.9304E-03
            3207            3608     27.4374E-03     30.3199E-03
            3207            3609     19.2423E-03     21.9723E-03
            3207            3625     37.0628E-03     38.9304E-03
            3207            3626     29.4861E-03     31.2172E-03
            3208            3609     19.2423E-03     21.9723E-03
            3208            3610     10.9486E-03     13.3726E-03
            3208            3626     29.4861E-03     31.2172E-03
            3208            3627     22.3170E-03     23.8737E-03
            3209            3610     10.9486E-03     13.3726E-03
            3209            3611     5.31754E-03     5.82287E-03
            3209            3627     22.3170E-03     23.8737E-03
            3209            3628     17.0870E-03     17.8495E-03
            3210            3611     5.31754E-03     5.82287E-03
            3210            3612     8.70840E-03     7.37220E-03
            3210            3628     17.0870E-03     17.8495E-03
            3210            3629     16.4063E-03     17.1634E-03
            3211            3612     8.70840E-03     7.37220E-03
            3211            3613     20.0078E-03     18.6456E-03
            3211            3629     16.4063E-03     17.1634E-03
            3211            3630     21.2314E-03     25.7901E-03
            3212             372     24.9431E-03     32.6255E-03
            3212             373     26.5242E-03     25.2494E-03
            3212            3613     20.0078E-03     18.6456E-03
            3212            3630     21.2314E-03     25.7901E-03
            3213             448     142.810E-03     141.258E-03
            3213             449     142.682E-03     147.231E-03
            3213            3614     134.165E-03     136.875E-03
            3213            3631     138.873E-03     137.885E-03
            3214            3614     134.165E-03     136.875E-03
            3214            3615     121.193E-03     121.401E-03
            3214            3631     138.873E-03     137.885E-03
            3214            3632     130.719E-03     130.264E-03
            3215            3615     121.193E-03     121.401E-03
            3215            3616     111.748E-03     111.772E-03
            3215            3632     130.719E-03     130.264E-03
            3215            3633     122.710E-03     122.211E-03
            3216            3616     111.748E-03     111.772E-03
            3216            3617     102.696E-03     103.104E-03
            3216            3633     122.710E-03     122.211E-03
            3216            3634     114.670E-03     114.322E-03
            3217            3617     102.696E-03     103.104E-03
            3217            3618     94.2431E-03     94.9515E-03
            3217            3634     114.670E-03     114.322E-03
            3217            3635     106.205E-03     106.157E-03
            3218            3618     94.2431E-03     94.9515E-03
            3218            3619     85.8155E-03     86.9471E-03
            3218            3635     106.205E-03     106.157E-03
            3218            3636     97.5976E-03     97.8058E-03
            3219            3619     85.8155E-03     86.9471E-03
            3219            3620     77.5646E-03     78.9570E-03
            3219            3636     97.5976E-03     97.8058E-03
            3219            3637     88.7846E-03     89.2273E-03
            3220            3620     77.5646E-03     78.9570E-03
            3220            3621     69.2976E-03     70.9473E-03
            3220            3637     88.7846E-03     89.2273E-03
            3220            3638     79.9152E-03     80.5374E-03
            3221            3621     69.2976E-03     70.9473E-03
            3221            3622     61.1090E-03     62.9002E-03
            3221            3638     79.9152E-03     80.5374E-03
            3221            3639     71.0350E-03     71.7767E-03
            3222            3622     61.1090E-03     62.9002E-03
            3222            3623     52.9618E-03     54.8560E-03
            3222            3639     71.0350E-03     71.7767E-03
            3222            3640     62.2478E-03     63.0616E-03
            3223            3623     52.9618E-03     54.8560E-03
            3223            3624     44.9275E-03     46.8384E-03
            3223            3640     62.2478E-03     63.0616E-03
            3223            3641     53.6724E-03     54.5026E-03
            3224            3624     44.9275E-03     46.8384E-03
            3224            3625     37.0628E-03     38.9304E-03
            3224            3641     53.6724E-03     54.5026E-03
            3224            3642     45.4589E-03     46.2603E-03
            3225            3625     37.0628E-03     38.9304E-03
            3225            3626     29.4861E-03     31.2172E-03
            3225            3642     45.4589E-03     46.2603E-03
            3225            3643     37.8882E-03     38.6447E-03
            3226            3626     29.4861E-03     31.2172E-03
            3226            3627     22.3170E-03     23.8737E-03
            3226            3643     37.8882E-03     38.6447E-03
            3226            3644     31.3334E-03     32.0994E-03
            3227            3627     22.3170E-03     23.8737E-03
            3227            3628     17.0870E-03     17.8495E-03
            3227            3644     31.3334E-03     32.0994E-03
            3227            3645     26.4786E-03     27.5862E-03
            3228            3628     17.0870E-03     17.8495E-03
            3228            3629     16.4063E-03     17.1634E-03
            3228            3645     26.4786E-03     27.5862E-03
            3228            3646     23.9880E-03     26.3656E-03
            3229            3629     16.4063E-03     17.1634E-03
            3229            3630     21.2314E-03     25.7901E-03
            3229            3646     23.9880E-03     26.3656E-03
            3229            3647     25.8852E-03     29.5534E-03
            3230             371     28.3949E-03     32.3987E-03
            3230             372     24.9431E-03     32.6255E-03
            3230            3630     21.2314E-03     25.7901E-03
            3230            3647     25.8852E-03     29.5534E-03
            3231             447     149.553E-03     149.511E-03
            3231             448     142.810E-03     141.258E-03
            3231            3631     138.873E-03     137.885E-03
            3231            3648     146.132E-03     146.738E-03
            3232            3631     138.873E-03     137.885E-03
            3232            3632     130.719E-03     130.264E-03
            3232            3648     146.132E-03     146.738E-03
            3232            3649     138.036E-03     139.384E-03
            3233            3632     130.719E-03     130.264E-03
            3233            3633     122.710E-03     122.211E-03
            3233            3649     138.036E-03     139.384E-03
            3233            3650     128.810E-03     130.197E-03
            3234            3633     122.710E-03     122.211E-03
            3234            3634     114.670E-03     114.322E-03
            3234            3650     128.810E-03     130.197E-03
            3234            3651     119.618E-03     120.825E-03
            3235            3634     114.670E-03     114.322E-03
            3235            3635     106.205E-03     106.157E-03
            3235            3651     119.618E-03     120.825E-03
            3235            3652     110.167E-03     111.229E-03
            3236            3635     106.205E-03     106.157E-03
            3236            3636     97.5976E-03     97.8058E-03
            3236            3652     110.167E-03     111.229E-03
            3236            3653     100.476E-03     101.522E-03
            3237            3636     97.5976E-03     97.8058E-03
            3237            3637     88.7846E-03     89.2273E-03
            3237            3653     100.476E-03     101.522E-03
            3237            3654     90.6913E-03     91.7396E-03
            3238            3637     88.7846E-03     89.2273E-03
            3238            3638     79.9152E-03     80.5374E-03
            3238            3654     90.6913E-03     91.7396E-03
            3238            3655     80.8625E-03     81.9334E-03
            3239            3638     79.9152E-03     80.5374E-03
            3239            3639     71.0350E-03     71.7767E-03
            3239            3655     80.8625E-03     81.9334E-03
            3239            3656     71.0716E-03     72.1691E-03
            3240            3639     71.0350E-03     71.7767E-03
            3240            3640     62.2478E-03     63.0616E-03
            3240            3656     71.0716E-03     72.1691E-03
            3240            3657     61.4009E-03     62.5080E-03
            3241            3640     62.2478E-03     63.0616E-03
            3241            3641     53.6724E-03     54.5026E-03
            3241            3657     61.4009E-03     62.5080E-03
            3241            3658     51.9314E-03     53.0483E-03
            3242            3641     53.6724E-03     54.5026E-03
            3242            3642     45.4589E-03     46.2603E-03
            3242            3658     51.9314E-03     53.0483E-03
            3242            3659     42.8477E-03     43.9611E-03
            3243            3642     45.4589E-03     46.2603E-03
            3243            3643     37.8882E-03     38.6447E-03
            3243            3659     42.8477E-03     43.9611E-03
            3243            3660     34.3760E-03     35.5415E-03
            3244            3643     37.8882E-03     38.6447E-03
            3244            3644     31.3334E-03     32.0994E-03
            3244            3660     34.3760E-03     35.5415E-03
            3244            3661     27.1985E-03     28.4735E-03
            3245            3644     31.3334E-03     32.0994E-03
            3245            3645     26.4786E-03     27.5862E-03
            3245            3661     27.1985E-03     28.4735E-03
            3245            3662     22.3435E-03     23.9223E-03
            3246            3645     26.4786E-03     27.5862E-03
            3246            3646     23.9880E-03     26.3656E-03
            3246            3662     22.3435E-03     23.9223E-03
            3246            3663     22.0367E-03     23.2750E-03
            3247            3646     23.9880E-03     26.3656E-03
            3247            3647     25.8852E-03     29.5534E-03
            3247            3663     22.0367E-03     23.2750E-03
            3247            3664     26.7199E-03     25.5126E-03
            3248             370     29.9784E-03     26.9179E-03
            3248             371     28.3949E-03     32.3987E-03
            3248            3647     25.8852E-03     29.5534E-03
            3248            3664     26.7199E-03     25.5126E-03
            3249             446     154.895E-03     156.951E-03
            3249             447     149.553E-03     149.511E-03
            3249            3648     146.132E-03     146.738E-03
            3249            3665     151.197E-03     153.351E-03
            3250            3648     146.132E-03     146.738E-03
            3250            3649     138.036E-03     139.384E-03
            3250            3665     151.197E-03     153.351E-03
            3250            3666     143.208E-03     145.506E-03
            3251            3649     138.036E-03     139.384E-03
            3251            3650     128.810E-03     130.197E-03
            3251            3666     143.208E-03     145.506E-03
            3251            3667     133.816E-03     136.217E-03
            3252            3650     128.810E-03     130.197E-03
            3252            3651     119.618E-03     120.825E-03
            3252            3667     133.816E-03     136.217E-03
            3252            3668     123.702E-03     125.975E-03
            3253            3651     119.618E-03     120.825E-03
            3253            3652     110.167E-03     111.229E-03
            3253            3668     123.702E-03     125.975E-03
            3253            3669     113.402E-03     115.419E-03
            3254            3652     110.167E-03     111.229E-03
            3254            3653     100.476E-03     101.522E-03
            3254            3669     113.402E-03     115.419E-03
            3254            3670     102.874E-03     104.703E-03
            3255            3653     100.476E-03     101.522E-03
            3255            3654     90.6913E-03     91.7396E-03
            3255            3670     102.874E-03     104.703E-03
            3255            3671     92.3076E-03     93.9835E-03
            3256            3654     90.6913E-03     91.7396E-03
            3256            3655     80.8625E-03     81.9334E-03
            3256            3671     92.3076E-03     93.9835E-03
            3256            3672     81.7317E-03     83.3194E-03
            3257            3655     80.8625E-03     81.9334E-03
            3257            3656     71.0716E-03     72.1691E-03
            3257            3672     81.7317E-03     83.3194E-03
            3257            3673     71.2458E-03     72.7659E-03
            3258            3656     71.0716E-03     72.1691E-03
            3258            3657     61.4009E-03     62.5080E-03
            3258            3673     71.2458E-03     72.7659E-03
            3258            3674     60.8754E-03     62.3635E-03
            3259            3657     61.4009E-03     62.5080E-03
            3259            3658     51.9314E-03     53.0483E-03
            3259            3674     60.8754E-03     62.3635E-03
            3259            3675     50.7179E-03     52.1906E-03
            3260            3658     51.9314E-03     53.0483E-03
            3260            3659     42.8477E-03     43.9611E-03
            3260            3675     50.7179E-03     52.1906E-03
            3260            3676     40.8871E-03     42.3886E-03
            3261            3659     42.8477E-03     43.9611E-03
            3261            3660     34.3760E-03     35.5415E-03
            3261            3676     40.8871E-03     42.3886E-03
            3261            3677     31.7341E-03     33.2783E-03
            3262            3660     34.3760E-03     35.5415E-03
            3262            3661     27.1985E-03     28.4735E-03
            3262            3677     31.7341E-03     33.2783E-03
            3262            3678     23.9417E-03     25.5292E-03
            3263            3661     27.1985E-03     28.4735E-03
            3263            3662     22.3435E-03     23.9223E-03
            3263            3678     23.9417E-03     25.5292E-03
            3263            3679     19.4634E-03     20.5718E-03
            3264            3662     22.3435E-03     23.9223E-03
            3264            3663     22.0367E-03     23.2750E-03
            3264            3679     19.4634E-03     20.5718E-03
            3264            3680     20.1914E-03     19.5310E-03
            3265            3663     22.0367E-03     23.2750E-03
            3265            3664     26.7199E-03     25.5126E-03
            3265            3680     20.1914E-03     19.5310E-03
            3265            3681     24.3416E-03     22.0602E-03
            3266             369     26.7317E-03     24.0915E-03
            3266             370     29.9784E-03     26.9179E-03
            3266            3664     26.7199E-03     25.5126E-03
            3266            3681     24.3416E-03     22.0602E-03
            3267             445     160.098E-03     160.836E-03
            3267             446     154.895E-03     156.951E-03
            3267            3665     151.197E-03     153.351E-03
            3267            3682     155.833E-03     157.526E-03
            3268            3665     151.197E-03     153.351E-03
            3268            3666     143.208E-03     145.506E-03
            3268            3682     155.833E-03     157.526E-03
            3268            3683     146.893E-03     149.753E-03
            3269            3666     143.208E-03     145.506E-03
            3269            3667     133.816E-03     136.217E-03
            3269            3683     146.893E-03     149.753E-03
            3269            3684     137.235E-03     140.168E-03
            3270            3667     133.816E-03     136.217E-03
            3270            3668     123.702E-03     125.975E-03
            3270            3684     137.235E-03     140.168E-03
            3270            3685     126.619E-03     129.487E-03
            3271            3668     123.702E-03     125.975E-03
            3271            3669     113.402E-03     115.419E-03
            3271            3685     126.619E-03     129.487E-03
            3271            3686     115.545E-03     118.251E-03
            3272            3669     113.402E-03     115.419E-03
            3272            3670     102.874E-03     104.703E-03
            3272            3686     115.545E-03     118.251E-03
            3272            3687     104.431E-03     106.850E-03
            3273            3670     102.874E-03     104.703E-03
            3273            3671     92.3076E-03     93.9835E-03
            3273            3687     104.431E-03     106.850E-03
            3273            3688     93.2494E-03     95.4877E-03
            3274            3671     92.3076E-03     93.9835E-03
            3274            3672     81.7317E-03     83.3194E-03
            3274            3688     93.2494E-03     95.4877E-03
            3274            3689     82.1966E-03     84.2557E-03
            3275            3672     81.7317E-03     83.3194E-03
            3275            3673     71.2458E-03     72.7659E-03
            3275            3689     82.1966E-03     84.2557E-03
            3275            3690     71.2180E-03     73.1676E-03
            3276            3673     71.2458E-03     72.7659E-03
            3276            3674     60.8754E-03     62.3635E-03
            3276            3690     71.2180E-03     73.1676E-03
            3276            3691     60.3862E-03     62.2620E-03
            3277            3674     60.8754E-03     62.3635E-03
            3277            3675     50.7179E-03     52.1906E-03
            3277            3691     60.3862E-03     62.2620E-03
            3277            3692     49.7326E-03     51.5814E-03
            3278            3675     50.7179E-03     52.1906E-03
            3278            3676     40.8871E-03     42.3886E-03
            3278            3692     49.7326E-03     51.5814E-03
            3278            3693     39.3737E-03     41.2363E-03
            3279            3676     40.8871E-03     42.3886E-03
            3279            3677     31.7341E-03     33.2783E-03
            3279            3693     39.3737E-03     41.2363E-03
            3279            3694     29.6101E-03     31.4946E-03
            3280            3677     31.7341E-03     33.2783E-03
            3280            3678     23.9417E-03     25.5292E-03
            3280            3694     29.6101E-03     31.4946E-03
            3280            3695     21.3523E-03     23.0071E-03
            3281            3678     23.9417E-03     25.5292E-03
            3281            3679     19.4634E-03     20.5718E-03
            3281            3695     21.3523E-03     23.0071E-03
            3281            3696     16.7284E-03     17.1864E-03
            3282            3679     19.4634E-03     20.5718E-03
            3282            3680     20.1914E-03     19.5310E-03
            3282            3696     16.7284E-03     17.1864E-03
            3282            3697     17.4403E-03     16.0055E-03
            3283            3680     20.1914E-03     19.5310E-03
            3283            3681     24.3416E-03     22.0602E-03
            3283            3697     17.4403E-03     16.0055E-03
            3283            3698     22.5407E-03     19.4960E-03
            3284             368     25.9010E-03     22.1693E-03
            3284             369     26.7317E-03     24.0915E-03
            3284            3681     24.3416E-03     22.0602E-03
            3284            3698     22.5407E-03     19.4960E-03
            3285             444     163.601E-03     165.772E-03
            3285             445     160.098E-03     160.836E-03
            3285            3682     155.833E-03     157.526E-03
            3285            3699     159.306E-03     161.516E-03
            3286            3682     155.833E-03     157.526E-03
            3286            3683     146.893E-03     149.753E-03
            3286            3699     159.306E-03     161.516E-03
            3286            3700     150.029E-03     152.647E-03
            3287            3683     146.893E-03     149.753E-03
            3287            3684     137.235E-03     140.168E-03
            3287            3700     150.029E-03     152.647E-03
            3287            3701     139.373E-03     142.600E-03
            3288            3684     137.235E-03     140.168E-03
            3288            3685     126.619E-03     129.487E-03
            3288            3701     139.373E-03     142.600E-03
            3288            3702     128.102E-03     131.333E-03
            3289            3685     126.619E-03     129.487E-03
            3289            3686     115.545E-03     118.251E-03
            3289            3702     128.102E-03     131.333E-03
            3289            3703     116.512E-03     119.535E-03
            3290            3686     115.545E-03     118.251E-03
            3290            3687     104.431E-03     106.850E-03
            3290            3703     116.512E-03     119.535E-03
            3290            3704     104.828E-03     107.705E-03
            3291            3687     104.431E-03     106.850E-03
            3291            3688     93.2494E-03     95.4877E-03
            3291            3704     104.828E-03     107.705E-03
            3291            3705     93.3862E-03     96.0139E-03
            3292            3688     93.2494E-03     95.4877E-03
            3292            3689     82.1966E-03     84.2557E-03
            3292            3705     93.3862E-03     96.0139E-03
            3292            3706     82.0219E-03     84.4814E-03
            3293            3689     82.1966E-03     84.2557E-03
            3293            3690     71.2180E-03     73.1676E-03
            3293            3706     82.0219E-03     84.4814E-03
            3293            3707     70.8197E-03     73.1378E-03
            3294            3690     71.2180E-03     73.1676E-03
            3294            3691     60.3862E-03     62.2620E-03
            3294            3707     70.8197E-03     73.1378E-03
            3294            3708     59.7336E-03     61.9637E-03
            3295            3691     60.3862E-03     62.2620E-03
            3295            3692     49.7326E-03     51.5814E-03
            3295            3708     59.7336E-03     61.9637E-03
            3295            3709     48.7920E-03     50.9834E-03
            3296            3692     49.7326E-03     51.5814E-03
            3296            3693     39.3737E-03     41.2363E-03
            3296            3709     48.7920E-03     50.9834E-03
            3296            3710     38.1015E-03     40.2742E-03
            3297            3693     39.3737E-03     41.2363E-03
            3297            3694     29.6101E-03     31.4946E-03
            3297            3710     38.1015E-03     40.2742E-03
            3297            3711     27.8671E-03     29.9977E-03
            3298            3694     29.6101E-03     31.4946E-03
            3298            3695     21.3523E-03     23.0071E-03
            3298            3711     27.8671E-03     29.9977E-03
            3298            3712     18.9781E-03     20.7071E-03
            3299            3695     21.3523E-03     23.0071E-03
            3299            3696     16.7284E-03     17.1864E-03
            3299            3712     18.9781E-03     20.7071E-03
            3299            3713     13.9501E-03     14.0424E-03
            3300            3696     16.7284E-03     17.1864E-03
            3300            3697     17.4403E-03     16.0055E-03
            3300            3713     13.9501E-03     14.0424E-03
            3300            3714     15.2623E-03     12.9894E-03
            3301            3697     17.4403E-03     16.0055E-03
            3301            3698     22.5407E-03     19.4960E-03
            3301            3714     15.2623E-03     12.9894E-03
            3301            3715     21.3055E-03     17.7551E-03
            3302             367     24.9063E-03     21.1881E-03
            3302             368     25.9010E-03     22.1693E-03
            3302            3698     22.5407E-03     19.4960E-03
            3302            3715     21.3055E-03     17.7551E-03
            3303             443     168.066E-03     168.827E-03
            3303             444     163.601E-03     165.772E-03
            3303            3699     159.306E-03     161.516E-03
            3303            3716     162.916E-03     164.667E-03
            3304            3699     159.306E-03     161.516E-03
            3304            3700     150.029E-03     152.647E-03
            3304            3716     162.916E-03     164.667E-03
            3304            3717     152.054E-03     155.044E-03
            3305            3700     150.029E-03     152.647E-03
            3305            3701     139.373E-03     142.600E-03
            3305            3717     152.054E-03     155.044E-03
            3305            3718     140.456E-03     143.611E-03
            3306            3701     139.373E-03     142.600E-03
            3306            3702     128.102E-03     131.333E-03
            3306            3718     140.456E-03     143.611E-03
            3306            3719     128.189E-03     131.428E-03
            3307            3702     128.102E-03     131.333E-03
            3307            3703     116.512E-03     119.535E-03
            3307            3719     128.189E-03     131.428E-03
            3307            3720     115.930E-03     119.200E-03
            3308            3703     116.512E-03     119.535E-03
            3308            3704     104.828E-03     107.705E-03
            3308            3720     115.930E-03     119.200E-03
            3308            3721     104.154E-03     107.222E-03
            3309            3704     104.828E-03     107.705E-03
            3309            3705     93.3862E-03     96.0139E-03
            3309            3721     104.154E-03     107.222E-03
            3309            3722     92.5556E-03     95.4584E-03
            3310            3705     93.3862E-03     96.0139E-03
            3310            3706     82.0219E-03     84.4814E-03
            3310            3722     92.5556E-03     95.4584E-03
            3310            3723     81.1943E-03     83.9311E-03
            3311            3706     82.0219E-03     84.4814E-03
            3311            3707     70.8197E-03     73.1378E-03
            3311            3723     81.1943E-03     83.9311E-03
            3311            3724     69.9549E-03     72.5697E-03
            3312            3707     70.8197E-03     73.1378E-03
            3312            3708     59.7336E-03     61.9637E-03
            3312            3724     69.9549E-03     72.5697E-03
            3312            3725     58.8295E-03     61.3622E-03
            3313            3708     59.7336E-03     61.9637E-03
            3313            3709     48.7920E-03     50.9834E-03
            3313            3725     58.8295E-03     61.3622E-03
            3313            3726     47.8189E-03     50.2952E-03
            3314            3709     48.7920E-03     50.9834E-03
            3314            3710     38.1015E-03     40.2742E-03
            3314            3726     47.8189E-03     50.2952E-03
            3314            3727     36.9283E-03     39.3761E-03
            3315            3710     38.1015E-03     40.2742E-03
            3315            3711     27.8671E-03     29.9977E-03
            3315            3727     36.9283E-03     39.3761E-03
            3315            3728     26.4122E-03     28.7422E-03
            3316            3711     27.8671E-03     29.9977E-03
            3316            3712     18.9781E-03     20.7071E-03
            3316            3728     26.4122E-03     28.7422E-03
            3316            3729     16.8886E-03     18.6798E-03
            3317            3712     18.9781E-03     20.7071E-03
            3317            3713     13.9501E-03     14.0424E-03
            3317            3729     16.8886E-03     18.6798E-03
            3317            3730     11.4284E-03     11.1707E-03
            3318            3713     13.9501E-03     14.0424E-03
            3318            3714     15.2623E-03     12.9894E-03
            3318            3730     11.4284E-03     11.1707E-03
            3318            3731     13.5650E-03     10.8169E-03
            3319            3714     15.2623E-03     12.9894E-03
            3319            3715     21.3055E-03     17.7551E-03
            3319            3731     13.5650E-03     10.8169E-03
            3319            3732     21.1488E-03     17.2341E-03
            3320             366     25.5704E-03     21.3482E-03
            3320             367     24.9063E-03     21.1881E-03
            3320            3715     21.3055E-03     17.7551E-03
            3320            3732     21.1488E-03     17.2341E-03
            3321             442     170.890E-03     173.757E-03
            3321             443     168.066E-03     168.827E-03
            3321            3716     162.916E-03     164.667E-03
            3321            3733     165.445E-03     168.072E-03
            3322            3716     162.916E-03     164.667E-03
            3322            3717     152.054E-03     155.044E-03
            3322            3733     165.445E-03     168.072E-03
            3322            3734     153.529E-03     155.999E-03
            3323            3717     152.054E-03     155.044E-03
            3323            3718     140.456E-03     143.611E-03
            3323            3734     153.529E-03     155.999E-03
            3323            3735     139.825E-03     142.725E-03
            3324            3718     140.456E-03     143.611E-03
            3324            3719     128.189E-03     131.428E-03
            3324            3735     139.825E-03     142.725E-03
            3324            3736     126.336E-03     129.609E-03
            3325            3719     128.189E-03     131.428E-03
            3325            3720     115.930E-03     119.200E-03
            3325            3736     126.336E-03     129.609E-03
            3325            3737     114.079E-03     117.316E-03
            3326            3720     115.930E-03     119.200E-03
            3326            3721     104.154E-03     107.222E-03
            3326            3737     114.079E-03     117.316E-03
            3326            3738     102.311E-03     105.438E-03
            3327            3721     104.154E-03     107.222E-03
            3327            3722     92.5556E-03     95.4584E-03
            3327            3738     102.311E-03     105.438E-03
            3327            3739     90.9136E-03     93.9348E-03
            3328            3722     92.5556E-03     95.4584E-03
            3328            3723     81.1943E-03     83.9311E-03
            3328            3739     90.9136E-03     93.9348E-03
            3328            3740     79.7263E-03     82.6450E-03
            3329            3723     81.1943E-03     83.9311E-03
            3329            3724     69.9549E-03     72.5697E-03
            3329            3740     79.7263E-03     82.6450E-03
            3329            3741     68.6676E-03     71.5144E-03
            3330            3724     69.9549E-03     72.5697E-03
            3330            3725     58.8295E-03     61.3622E-03
            3330            3741     68.6676E-03     71.5144E-03
            3330            3742     57.6943E-03     60.4825E-03
            3331            3725     58.8295E-03     61.3622E-03
            3331            3726     47.8189E-03     50.2952E-03
            3331            3742     57.6943E-03     60.4825E-03
            3331            3743     46.7699E-03     49.5134E-03
            3332            3726     47.8189E-03     50.2952E-03
            3332            3727     36.9283E-03     39.3761E-03
            3332            3743     46.7699E-03     49.5134E-03
            3332            3744     35.9207E-03     38.6047E-03
            3333            3727     36.9283E-03     39.3761E-03
            3333            3728     26.4122E-03     28.7422E-03
            3333            3744     35.9207E-03     38.6047E-03
            3333            3745     25.1612E-03     27.7347E-03
            3334            3728     26.4122E-03     28.7422E-03
            3334            3729     16.8886E-03     18.6798E-03
            3334            3745     25.1612E-03     27.7347E-03
            3334            3746     15.1251E-03     17.1634E-03
            3335            3729     16.8886E-03     18.6798E-03
            3335            3730     11.4284E-03     11.1707E-03
            3335            3746     15.1251E-03     17.1634E-03
            3335            3747     9.64679E-03     9.04548E-03
            3336            3730     11.4284E-03     11.1707E-03
            3336            3731     13.5650E-03     10.8169E-03
            3336            3747     9.64679E-03     9.04548E-03
            3336            3748     13.0973E-03     9.66909E-03
            3337            3731     13.5650E-03     10.8169E-03
            3337            3732     21.1488E-03     17.2341E-03
            3337            3748     13.0973E-03     9.66909E-03
            3337            3749     21.8602E-03     18.0551E-03
            3338             365     26.3683E-03     22.8427E-03
            3338             366     25.5704E-03     21.3482E-03
            3338            3732     21.1488E-03     17.2341E-03
            3338            3749     21.8602E-03     18.0551E-03
            3339             441     175.191E-03     174.881E-03
            3339             442     170.890E-03     173.757E-03
            3339            3733     165.445E-03     168.072E-03
            3339            3750     168.338E-03     168.860E-03
            3340            3733     165.445E-03     168.072E-03
            3340            3734     153.529E-03     155.999E-03
            3340            3750     168.338E-03     168.860E-03
            3340            3751     152.403E-03     154.396E-03
            3341            3734     153.529E-03     155.999E-03
            3341            3735     139.825E-03     142.725E-03
            3341            3751     152.403E-03     154.396E-03
            3341            3752     136.212E-03     139.101E-03
            3342            3735     139.825E-03     142.725E-03
            3342            3736     126.336E-03     129.609E-03
            3342            3752     136.212E-03     139.101E-03
            3342            3753     123.001E-03     126.037E-03
            3343            3736     126.336E-03     129.609E-03
            3343            3737     114.079E-03     117.316E-03
            3343            3753     123.001E-03     126.037E-03
            3343            3754     111.015E-03     114.009E-03
            3344            3737     114.079E-03     117.316E-03
            3344            3738     102.311E-03     105.438E-03
            3344            3754     111.015E-03     114.009E-03
            3344            3755     99.6171E-03     102.654E-03
            3345            3738     102.311E-03     105.438E-03
            3345            3739     90.9136E-03     93.9348E-03
            3345            3755     99.6171E-03     102.654E-03
            3345            3756     88.6301E-03     91.6548E-03
            3346            3739     90.9136E-03     93.9348E-03
            3346            3740     79.7263E-03     82.6450E-03
            3346            3756     88.6301E-03     91.6548E-03
            3346            3757     77.8026E-03     80.8467E-03
            3347            3740     79.7263E-03     82.6450E-03
            3347            3741     68.6676E-03     71.5144E-03
            3347            3757     77.8026E-03     80.8467E-03
            3347            3758     67.0956E-03     70.1418E-03
            3348            3741     68.6676E-03     71.5144E-03
            3348            3742     57.6943E-03     60.4825E-03
            3348            3758     67.0956E-03     70.1418E-03
            3348            3759     56.4297E-03     59.4699E-03
            3349            3742     57.6943E-03     60.4825E-03
            3349            3743     46.7699E-03     49.5134E-03
            3349            3759     56.4297E-03     59.4699E-03
            3349            3760     45.7801E-03     48.7972E-03
            3350            3743     46.7699E-03     49.5134E-03
            3350            3744     35.9207E-03     38.6047E-03
            3350            3760     45.7801E-03     48.7972E-03
            3350            3761     35.1277E-03     38.0796E-03
            3351            3744     35.9207E-03     38.6047E-03
            3351            3745     25.1612E-03     27.7347E-03
            3351            3761     35.1277E-03     38.0796E-03
            3351            3762     24.4552E-03     27.2847E-03
            3352            3745     25.1612E-03     27.7347E-03
            3352            3746     15.1251E-03     17.1634E-03
            3352            3762     24.4552E-03     27.2847E-03
            3352            3763     13.8910E-03     16.4089E-03
            3353            3746     15.1251E-03     17.1634E-03
            3353            3747     9.64679E-03     9.04548E-03
            3353            3763     13.8910E-03     16.4089E-03
            3353            3764     7.56516E-03     7.57240E-03
            3354            3747     9.64679E-03     9.04548E-03
            3354            3748     13.0973E-03     9.66909E-03
            3354            3764     7.56516E-03     7.57240E-03
            3354            3765     12.5139E-03     9.57318E-03
            3355            3748     13.0973E-03     9.66909E-03
            3355            3749     21.8602E-03     18.0551E-03
            3355            3765     12.5139E-03     9.57318E-03
            3355            3766     24.1834E-03     20.0675E-03
            3356             364     29.7869E-03     25.1664E-03
            3356             365     26.3683E-03     22.8427E-03
            3356            3749     21.8602E-03     18.0551E-03
            3356            3766     24.1834E-03     20.0675E-03
            3357             440     177.856E-03     178.270E-03
            3357             441     175.191E-03     174.881E-03
            3357            3750     168.338E-03     168.860E-03
            3357            3767     166.436E-03     167.833E-03
            3358            3750     168.338E-03     168.860E-03
            3358            3751     152.403E-03     154.396E-03
            3358            3767     166.436E-03     167.833E-03
            3358            3768     146.060E-03     148.450E-03
            3359            3751     152.403E-03     154.396E-03
            3359            3752     136.212E-03     139.101E-03
            3359            3768     146.060E-03     148.450E-03
            3359            3769     130.929E-03     133.241E-03
            3360            3752     136.212E-03     139.101E-03
            3360            3753     123.001E-03     126.037E-03
            3360            3769     130.929E-03     133.241E-03
            3360            3770     118.672E-03     121.035E-03
            3361            3753     123.001E-03     126.037E-03
            3361            3754     111.015E-03     114.009E-03
            3361            3770     118.672E-03     121.035E-03
            3361            3771     107.225E-03     109.826E-03
            3362            3754     111.015E-03     114.009E-03
            3362            3755     99.6171E-03     102.654E-03
            3362            3771     107.225E-03     109.826E-03
            3362            3772     96.5074E-03     99.3162E-03
            3363            3755     99.6171E-03     102.654E-03
            3363            3756     88.6301E-03     91.6548E-03
            3363            3772     96.5074E-03     99.3162E-03
            3363            3773     86.0124E-03     89.0269E-03
            3364            3756     88.6301E-03     91.6548E-03
            3364            3757     77.8026E-03     80.8467E-03
            3364            3773     86.0124E-03     89.0269E-03
            3364            3774     75.7186E-03     78.8883E-03
            3365            3757     77.8026E-03     80.8467E-03
            3365            3758     67.0956E-03     70.1418E-03
            3365            3774     75.7186E-03     78.8883E-03
            3365            3775     65.4774E-03     68.7528E-03
            3366            3758     67.0956E-03     70.1418E-03
            3366            3759     56.4297E-03     59.4699E-03
            3366            3775     65.4774E-03     68.7528E-03
            3366            3776     55.2712E-03     58.6067E-03
            3367            3759     56.4297E-03     59.4699E-03
            3367            3760     45.7801E-03     48.7972E-03
            3367            3776     55.2712E-03     58.6067E-03
            3367            3777     45.0719E-03     48.4038E-03
            3368            3760     45.7801E-03     48.7972E-03
            3368            3761     35.1277E-03     38.0796E-03
            3368            3777     45.0719E-03     48.4038E-03
            3368            3778     34.8374E-03     38.1090E-03
            3369            3761     35.1277E-03     38.0796E-03
            3369            3762     24.4552E-03     27.2847E-03
            3369            3778     34.8374E-03     38.1090E-03
            3369            3779     24.6309E-03     27.7230E-03
            3370            3762     24.4552E-03     27.2847E-03
            3370            3763     13.8910E-03     16.4089E-03
            3370            3779     24.6309E-03     27.7230E-03
            3370            3780     14.4090E-03     17.1780E-03
            3371            3763     13.8910E-03     16.4089E-03
            3371            3764     7.56516E-03     7.57240E-03
            3371            3780     14.4090E-03     17.1780E-03
            3371            3781     7.27746E-03     8.28912E-03
            3372            3764     7.56516E-03     7.57240E-03
            3372            3765     12.5139E-03     9.57318E-03
            3372            3781     7.27746E-03     8.28912E-03
            3372            3782     10.7395E-03     9.95668E-03
            3373            3765     12.5139E-03     9.57318E-03
            3373            3766     24.1834E-03     20.0675E-03
            3373            3782     10.7395E-03     9.95668E-03
            3373            3783     24.2041E-03     23.1890E-03
            3374             363     32.2421E-03     31.2221E-03
            3374             364     29.7869E-03     25.1664E-03
            3374            3766     24.1834E-03     20.0675E-03
            3374            3783     24.2041E-03     23.1890E-03
            3375              21     178.320E-03     183.685E-03
            3375             440     177.856E-03     178.270E-03
            3375             531     168.951E-03     173.007E-03
            3375            3767     166.436E-03     167.833E-03
            3376             531     168.951E-03     173.007E-03
            3376             532     153.937E-03     156.153E-03
            3376            3767     166.436E-03     167.833E-03
            3376            3768     146.060E-03     148.450E-03
            3377             532     153.937E-03     156.153E-03
            3377             533     142.573E-03     144.516E-03
            3377            3768     146.060E-03     148.450E-03
            3377            3769     130.929E-03     133.241E-03
            3378             533     142.573E-03     144.516E-03
            3378             534     131.950E-03     134.037E-03
            3378            3769     130.929E-03     133.241E-03
            3378            3770     118.672E-03     121.035E-03
            3379             534     131.950E-03     134.037E-03
            3379             535     122.075E-03     124.272E-03
            3379            3770     118.672E-03     121.035E-03
            3379            3771     107.225E-03     109.826E-03
            3380             535     122.075E-03     124.272E-03
            3380             536     112.497E-03     114.897E-03
            3380            3771     107.225E-03     109.826E-03
            3380            3772     96.5074E-03     99.3162E-03
            3381             536     112.497E-03     114.897E-03
            3381             537     103.284E-03     105.784E-03
            3381            3772     96.5074E-03     99.3162E-03
            3381            3773     86.0124E-03     89.0269E-03
            3382             537     103.284E-03     105.784E-03
            3382             538     94.3010E-03     96.9030E-03
            3382            3773     86.0124E-03     89.0269E-03
            3382            3774     75.7186E-03     78.8883E-03
            3383             538     94.3010E-03     96.9030E-03
            3383             539     85.6238E-03     88.2487E-03
            3383            3774     75.7186E-03     78.8883E-03
            3383            3775     65.4774E-03     68.7528E-03
            3384             539     85.6238E-03     88.2487E-03
            3384             540     77.2437E-03     79.8633E-03
            3384            3775     65.4774E-03     68.7528E-03
            3384            3776     55.2712E-03     58.6067E-03
            3385             540     77.2437E-03     79.8633E-03
            3385             541     69.2418E-03     71.7931E-03
            3385            3776     55.2712E-03     58.6067E-03
            3385            3777     45.0719E-03     48.4038E-03
            3386             541     69.2418E-03     71.7931E-03
            3386             542     61.6816E-03     64.1068E-03
            3386            3777     45.0719E-03     48.4038E-03
            3386            3778     34.8374E-03     38.1090E-03
            3387             542     61.6816E-03     64.1068E-03
            3387             543     54.6630E-03     56.8793E-03
            3387            3778     34.8374E-03     38.1090E-03
            3387            3779     24.6309E-03     27.7230E-03
            3388             543     54.6630E-03     56.8793E-03
            3388             544     48.3340E-03     50.2121E-03
            3388            3779     24.6309E-03     27.7230E-03
            3388            3780     14.4090E-03     17.1780E-03
            3389             544     48.3340E-03     50.2121E-03
            3389             545     44.1738E-03     45.1502E-03
            3389            3780     14.4090E-03     17.1780E-03
            3389            3781     7.27746E-03     8.28912E-03
            3390             545     44.1738E-03     45.1502E-03
            3390             546     44.7811E-03     45.0891E-03
            3390            3781     7.27746E-03     8.28912E-03
            3390            3782     10.7395E-03     9.95668E-03
            3391             546     44.7811E-03     45.0891E-03
            3391             547     51.5993E-03     52.9957E-03
            3391            3782     10.7395E-03     9.95668E-03
            3391            3783     24.2041E-03     23.1890E-03
            3392              20     56.5962E-03     59.0829E-03
            3392             363     32.2421E-03     31.2221E-03
            3392             547     51.5993E-03     52.9957E-03
            3392            3783     24.2041E-03     23.1890E-03
            4347              25     147.590E-03     148.620E-03
            4347             636     149.618E-03     155.441E-03
            4347             675     144.558E-03     145.242E-03
            4347            4562     141.225E-03     145.717E-03
            4348             675     144.558E-03     145.242E-03
            4348             676     138.648E-03     138.838E-03
            4348            4562     141.225E-03     145.717E-03
            4348            4563     128.435E-03     131.011E-03
            4349             676     138.648E-03     138.838E-03
            4349             677     132.114E-03     132.546E-03
            4349            4563     128.435E-03     131.011E-03
            4349            4564     119.528E-03     121.765E-03
            4350             677     132.114E-03     132.546E-03
            4350             678     124.962E-03     125.733E-03
            4350            4564     119.528E-03     121.765E-03
            4350            4565     111.348E-03     113.702E-03
            4351             678     124.962E-03     125.733E-03
            4351             679     117.678E-03     118.615E-03
            4351            4565     111.348E-03     113.702E-03
            4351            4566     103.909E-03     106.354E-03
            4352             679     117.678E-03     118.615E-03
            4352             680     110.179E-03     111.280E-03
            4352            4566     103.909E-03     106.354E-03
            4352            4567     96.6994E-03     99.3563E-03
            4353             680     110.179E-03     111.280E-03
            4353             681     102.646E-03     103.825E-03
            4353            4567     96.6994E-03     99.3563E-03
            4353            4568     89.7461E-03     92.5238E-03
            4354             681     102.646E-03     103.825E-03
            4354             682     95.0376E-03     96.3127E-03
            4354            4568     89.7461E-03     92.5238E-03
            4354            4569     82.8698E-03     85.7877E-03
            4355             682     95.0376E-03     96.3127E-03
            4355             683     87.3956E-03     88.7226E-03
            4355            4569     82.8698E-03     85.7877E-03
            4355            4570     76.0918E-03     79.0803E-03
            4356             683     87.3956E-03     88.7226E-03
            4356             684     79.7057E-03     81.1169E-03
            4356            4570     76.0918E-03     79.0803E-03
            4356            4571     69.3447E-03     72.3917E-03
            4357             684     79.7057E-03     81.1169E-03
            4357             685     71.9868E-03     73.4636E-03
            4357            4571     69.3447E-03     72.3917E-03
            4357            4572     62.6540E-03     65.7080E-03
            4358             685     71.9868E-03     73.4636E-03
            4358             686     64.2301E-03     65.7973E-03
            4358            4572     62.6540E-03     65.7080E-03
            4358            4573     56.0091E-03     59.0394E-03
            4359             686     64.2301E-03     65.7973E-03
            4359             687     56.4496E-03     58.1002E-03
            4359            4573     56.0091E-03     59.0394E-03
            4359            4574     49.4542E-03     52.4070E-03
            4360             687     56.4496E-03     58.1002E-03
            4360             688     48.6033E-03     50.3103E-03
            4360            4574     49.4542E-03     52.4070E-03
            4360            4575     43.0364E-03     45.8499E-03
            4361             688     48.6033E-03     50.3103E-03
            4361             689     40.7197E-03     42.3977E-03
            4361            4575     43.0364E-03     45.8499E-03
            4361            4576     36.8559E-03     39.4463E-03
            4362             689     40.7197E-03     42.3977E-03
            4362             690     32.7814E-03     34.2475E-03
            4362            4576     36.8559E-03     39.4463E-03
            4362            4577     31.1288E-03     33.3743E-03
            4363             690     32.7814E-03     34.2475E-03
            4363             691     24.9768E-03     25.9995E-03
            4363            4577     31.1288E-03     33.3743E-03
            4363            4578     26.5223E-03     28.1893E-03
            4364              24     21.1647E-03     21.9298E-03
            4364             691     24.9768E-03     25.9995E-03
            4364             692     24.6114E-03     25.9156E-03
            4364            4578     26.5223E-03     28.1893E-03
            4365             636     149.618E-03     155.441E-03
            4365             637     156.927E-03     158.107E-03
            4365            4562     141.225E-03     145.717E-03
            4365            4579     146.184E-03     148.319E-03
            4366            4562     141.225E-03     145.717E-03
            4366            4563     128.435E-03     131.011E-03
            4366            4579     146.184E-03     148.319E-03
            4366            4580     127.979E-03     130.936E-03
            4367            4563     128.435E-03     131.011E-03
            4367            4564     119.528E-03     121.765E-03
            4367            4580     127.979E-03     130.936E-03
            4367            4581     115.835E-03     118.553E-03
            4368            4564     119.528E-03     121.765E-03
            4368            4565     111.348E-03     113.702E-03
            4368            4581     115.835E-03     118.553E-03
            4368            4582     106.738E-03     109.477E-03
            4369            4565     111.348E-03     113.702E-03
            4369            4566     103.909E-03     106.354E-03
            4369            4582     106.738E-03     109.477E-03
            4369            4583     98.6960E-03     101.626E-03
            4370            4566     103.909E-03     106.354E-03
            4370            4567     96.6994E-03     99.3563E-03
            4370            4583     98.6960E-03     101.626E-03
            4370            4584     91.5084E-03     94.6415E-03
            4371            4567     96.6994E-03     99.3563E-03
            4371            4568     89.7461E-03     92.5238E-03
            4371            4584     91.5084E-03     94.6415E-03
            4371            4585     84.6705E-03     88.0121E-03
            4372            4568     89.7461E-03     92.5238E-03
            4372            4569     82.8698E-03     85.7877E-03
            4372            4585     84.6705E-03     88.0121E-03
            4372            4586     78.1228E-03     81.6238E-03
            4373            4569     82.8698E-03     85.7877E-03
            4373            4570     76.0918E-03     79.0803E-03
            4373            4586     78.1228E-03     81.6238E-03
            4373            4587     71.6925E-03     75.3165E-03
            4374            4570     76.0918E-03     79.0803E-03
            4374            4571     69.3447E-03     72.3917E-03
            4374            4587     71.6925E-03     75.3165E-03
            4374            4588     65.3827E-03     69.0703E-03
            4375            4571     69.3447E-03     72.3917E-03
            4375            4572     62.6540E-03     65.7080E-03
            4375            4588     65.3827E-03     69.0703E-03
            4375            4589     59.1342E-03     62.8394E-03
            4376            4572     62.6540E-03     65.7080E-03
            4376            4573     56.0091E-03     59.0394E-03
            4376            4589     59.1342E-03     62.8394E-03
            4376            4590     53.0104E-03     56.6621E-03
            4377            4573     56.0091E-03     59.0394E-03
            4377            4574     49.4542E-03     52.4070E-03
            4377            4590     53.0104E-03     56.6621E-03
            4377            4591     47.0038E-03     50.5380E-03
            4378            4574     49.4542E-03     52.4070E-03
            4378            4575     43.0364E-03     45.8499E-03
            4378            4591     47.0038E-03     50.5380E-03
            4378            4592     41.3034E-03     44.6190E-03
            4379            4575     43.0364E-03     45.8499E-03
            4379            4576     36.8559E-03     39.4463E-03
            4379            4592     41.3034E-03     44.6190E-03
            4379            4593     35.9145E-03     38.9284E-03
            4380            4576     36.8559E-03     39.4463E-03
            4380            4577     31.1288E-03     33.3743E-03
            4380            4593     35.9145E-03     38.9284E-03
            4380            4594     31.5194E-03     34.1453E-03
            4381            4577     31.1288E-03     33.3743E-03
            4381            4578     26.5223E-03     28.1893E-03
            4381            4594     31.5194E-03     34.1453E-03
            4381            4595     27.6190E-03     30.4385E-03
            4382             692     24.6114E-03     25.9156E-03
            4382             693     25.4440E-03     28.6863E-03
            4382            4578     26.5223E-03     28.1893E-03
            4382            4595     27.6190E-03     30.4385E-03
            4383             637     156.927E-03     158.107E-03
            4383             638     153.243E-03     153.285E-03
            4383            4579     146.184E-03     148.319E-03
            4383            4596     147.125E-03     147.878E-03
            4384            4579     146.184E-03     148.319E-03
            4384            4580     127.979E-03     130.936E-03
            4384            4596     147.125E-03     147.878E-03
            4384            4597     133.166E-03     135.352E-03
            4385            4580     127.979E-03     130.936E-03
            4385            4581     115.835E-03     118.553E-03
            4385            4597     133.166E-03     135.352E-03
            4385            4598     119.879E-03     122.966E-03
            4386            4581     115.835E-03     118.553E-03
            4386            4582     106.738E-03     109.477E-03
            4386            4598     119.879E-03     122.966E-03
            4386            4599     110.062E-03     113.235E-03
            4387            4582     106.738E-03     109.477E-03
            4387            4583     98.6960E-03     101.626E-03
            4387            4599     110.062E-03     113.235E-03
            4387            4600     101.650E-03     104.833E-03
            4388            4583     98.6960E-03     101.626E-03
            4388            4584     91.5084E-03     94.6415E-03
            4388            4600     101.650E-03     104.833E-03
            4388            4601     94.0278E-03     97.2670E-03
            4389            4584     91.5084E-03     94.6415E-03
            4389            4585     84.6705E-03     88.0121E-03
            4389            4601     94.0278E-03     97.2670E-03
            4389            4602     86.9190E-03     90.1740E-03
            4390            4585     84.6705E-03     88.0121E-03
            4390            4586     78.1228E-03     81.6238E-03
            4390            4602     86.9190E-03     90.1740E-03
            4390            4603     80.0471E-03     83.3484E-03
            4391            4586     78.1228E-03     81.6238E-03
            4391            4587     71.6925E-03     75.3165E-03
            4391            4603     80.0471E-03     83.3484E-03
            4391            4604     73.3608E-03     76.6765E-03
            4392            4587     71.6925E-03     75.3165E-03
            4392            4588     65.3827E-03     69.0703E-03
            4392            4604     73.3608E-03     76.6765E-03
            4392            4605     66.7544E-03     70.0869E-03
            4393            4588     65.3827E-03     69.0703E-03
            4393            4589     59.1342E-03     62.8394E-03
            4393            4605     66.7544E-03     70.0869E-03
            4393            4606     60.2440E-03     63.5610E-03
            4394            4589     59.1342E-03     62.8394E-03
            4394            4590     53.0104E-03     56.6621E-03
            4394            4606     60.2440E-03     63.5610E-03
            4394            4607     53.8035E-03     57.0920E-03
            4395            4590     53.0104E-03     56.6621E-03
            4395            4591     47.0038E-03     50.5380E-03
            4395            4607     53.8035E-03     57.0920E-03
            4395            4608     47.5017E-03     50.7229E-03
            4396            4591     47.0038E-03     50.5380E-03
            4396            4592     41.3034E-03     44.6190E-03
            4396            4608     47.5017E-03     50.7229E-03
            4396            4609     41.3697E-03     44.5207E-03
            4397            4592     41.3034E-03     44.6190E-03
            4397            4593     35.9145E-03     38.9284E-03
            4397            4609     41.3697E-03     44.5207E-03
            4397            4610     35.5399E-03     38.6208E-03
            4398            4593     35.9145E-03     38.9284E-03
            4398            4594     31.5194E-03     34.1453E-03
            4398            4610     35.5399E-03     38.6208E-03
            4398            4611     30.1568E-03     33.4866E-03
            4399            4594     31.5194E-03     34.1453E-03
            4399            4595     27.6190E-03     30.4385E-03
            4399            4611     30.1568E-03     33.4866E-03
            4399            4612     23.9144E-03     27.9506E-03
            4400             693     25.4440E-03     28.6863E-03
            4400             694     20.2507E-03     24.7021E-03
            4400            4595     27.6190E-03     30.4385E-03
            4400            4612     23.9144E-03     27.9506E-03
            4401             638     153.243E-03     153.285E-03
            4401             639     148.170E-03     150.994E-03
            4401            4596     147.125E-03     147.878E-03
            4401            4613     143.565E-03     146.178E-03
            4402            4596     147.125E-03     147.878E-03
            4402            4597     133.166E-03     135.352E-03
            4402            4613     143.565E-03     146.178E-03
            4402            4614     133.718E-03     136.154E-03
            4403            4597     133.166E-03     135.352E-03
            4403            4598     119.879E-03     122.966E-03
            4403            4614     133.718E-03     136.154E-03
            4403            4615     122.840E-03     125.696E-03
            4404            4598     119.879E-03     122.966E-03
            4404            4599     110.062E-03     113.235E-03
            4404            4615     122.840E-03     125.696E-03
            4404            4616     112.744E-03     116.042E-03
            4405            4599     110.062E-03     113.235E-03
            4405            4600     101.650E-03     104.833E-03
            4405            4616     112.744E-03     116.042E-03
            4405            4617     104.232E-03     107.519E-03
            4406            4600     101.650E-03     104.833E-03
            4406            4601     94.0278E-03     97.2670E-03
            4406            4617     104.232E-03     107.519E-03
            4406            4618     96.3803E-03     99.6159E-03
            4407            4601     94.0278E-03     97.2670E-03
            4407            4602     86.9190E-03     90.1740E-03
            4407            4618     96.3803E-03     99.6159E-03
            4407            4619     89.0094E-03     92.1868E-03
            4408            4602     86.9190E-03     90.1740E-03
            4408            4603     80.0471E-03     83.3484E-03
            4408            4619     89.0094E-03     92.1868E-03
            4408            4620     81.9179E-03     85.0194E-03
            4409            4603     80.0471E-03     83.3484E-03
            4409            4604     73.3608E-03     76.6765E-03
            4409            4620     81.9179E-03     85.0194E-03
            4409            4621     74.9789E-03     78.0397E-03
            4410            4604     73.3608E-03     76.6765E-03
            4410            4605     66.7544E-03     70.0869E-03
            4410            4621     74.9789E-03     78.0397E-03
            4410            4622     68.1557E-03     71.1728E-03
            4411            4605     66.7544E-03     70.0869E-03
            4411            4606     60.2440E-03     63.5610E-03
            4411            4622     68.1557E-03     71.1728E-03
            4411            4623     61.4004E-03     64.3996E-03
            4412            4606     60.2440E-03     63.5610E-03
            4412            4607     53.8035E-03     57.0920E-03
            4412            4623     61.4004E-03     64.3996E-03
            4412            4624     54.7225E-03     57.7030E-03
            4413            4607     53.8035E-03     57.0920E-03
            4413            4608     47.5017E-03     50.7229E-03
            4413            4624     54.7225E-03     57.7030E-03
            4413            4625     48.1333E-03     51.1289E-03
            4414            4608     47.5017E-03     50.7229E-03
            4414            4609     41.3697E-03     44.5207E-03
            4414            4625     48.1333E-03     51.1289E-03
            4414            4626     41.6485E-03     44.6678E-03
            4415            4609     41.3697E-03     44.5207E-03
            4415            4610     35.5399E-03     38.6208E-03
            4415            4626     41.6485E-03     44.6678E-03
            4415            4627     35.3556E-03     38.5394E-03
            4416            4610     35.5399E-03     38.6208E-03
            4416            4611     30.1568E-03     33.4866E-03
            4416            4627     35.3556E-03     38.5394E-03
            4416            4628     28.9336E-03     32.4339E-03
            4417            4611     30.1568E-03     33.4866E-03
            4417            4612     23.9144E-03     27.9506E-03
            4417            4628     28.9336E-03     32.4339E-03
            4417            4629     22.1232E-03     25.6058E-03
            4418             694     20.2507E-03     24.7021E-03
            4418             695     18.6671E-03     21.9732E-03
            4418            4612     23.9144E-03     27.9506E-03
            4418            4629     22.1232E-03     25.6058E-03
            4419             639     148.170E-03     150.994E-03
            4419             640     144.394E-03     145.502E-03
            4419            4613     143.565E-03     146.178E-03
            4419            4630     140.359E-03     142.179E-03
            4420            4613     143.565E-03     146.178E-03
            4420            4614     133.718E-03     136.154E-03
            4420            4630     140.359E-03     142.179E-03
            4420            4631     131.931E-03     134.714E-03
            4421            4614     133.718E-03     136.154E-03
            4421            4615     122.840E-03     125.696E-03
            4421            4631     131.931E-03     134.714E-03
            4421            4632     123.204E-03     126.220E-03
            4422            4615     122.840E-03     125.696E-03
            4422            4616     112.744E-03     116.042E-03
            4422            4632     123.204E-03     126.220E-03
            4422            4633     114.398E-03     117.544E-03
            4423            4616     112.744E-03     116.042E-03
            4423            4617     104.232E-03     107.519E-03
            4423            4633     114.398E-03     117.544E-03
            4423            4634     105.969E-03     109.224E-03
            4424            4617     104.232E-03     107.519E-03
            4424            4618     96.3803E-03     99.6159E-03
            4424            4634     105.969E-03     109.224E-03
            4424            4635     98.1956E-03     101.327E-03
            4425            4618     96.3803E-03     99.6159E-03
            4425            4619     89.0094E-03     92.1868E-03
            4425            4635     98.1956E-03     101.327E-03
            4425            4636     90.7108E-03     93.7133E-03
            4426            4619     89.0094E-03     92.1868E-03
            4426            4620     81.9179E-03     85.0194E-03
            4426            4636     90.7108E-03     93.7133E-03
            4426            4637     83.4761E-03     86.3571E-03
            4427            4620     81.9179E-03     85.0194E-03
            4427            4621     74.9789E-03     78.0397E-03
            4427            4637     83.4761E-03     86.3571E-03
            4427            4638     76.3848E-03     79.1615E-03
            4428            4621     74.9789E-03     78.0397E-03
            4428            4622     68.1557E-03     71.1728E-03
            4428            4638     76.3848E-03     79.1615E-03
            4428            4639     69.3919E-03     72.1085E-03
            4429            4622     68.1557E-03     71.1728E-03
            4429            4623     61.4004E-03     64.3996E-03
            4429            4639     69.3919E-03     72.1085E-03
            4429            4640     62.4687E-03     65.1552E-03
            4430            4623     61.4004E-03     64.3996E-03
            4430            4624     54.7225E-03     57.7030E-03
            4430            4640     62.4687E-03     65.1552E-03
            4430            4641     55.6074E-03     58.3157E-03
            4431            4624     54.7225E-03     57.7030E-03
            4431            4625     48.1333E-03     51.1289E-03
            4431            4641     55.6074E-03     58.3157E-03
            4431            4642     48.7900E-03     51.5525E-03
            4432            4625     48.1333E-03     51.1289E-03
            4432            4626     41.6485E-03     44.6678E-03
            4432            4642     48.7900E-03     51.5525E-03
            4432            4643     42.0443E-03     44.9502E-03
            4433            4626     41.6485E-03     44.6678E-03
            4433            4627     35.3556E-03     38.5394E-03
            4433            4643     42.0443E-03     44.9502E-03
            4433            4644     35.2920E-03     38.3889E-03
            4434            4627     35.3556E-03     38.5394E-03
            4434            4628     28.9336E-03     32.4339E-03
            4434            4644     35.2920E-03     38.3889E-03
            4434            4645     28.4419E-03     31.6615E-03
            4435            4628     28.9336E-03     32.4339E-03
            4435            4629     22.1232E-03     25.6058E-03
            4435            4645     28.4419E-03     31.6615E-03
            4435            4646     21.4781E-03     24.8158E-03
            4436             695     18.6671E-03     21.9732E-03
            4436             696     17.9447E-03     21.3616E-03
            4436            4629     22.1232E-03     25.6058E-03
            4436            4646     21.4781E-03     24.8158E-03
            4437             640     144.394E-03     145.502E-03
            4437             641     139.677E-03     141.456E-03
            4437            4630     140.359E-03     142.179E-03
            4437            4647     136.425E-03     138.397E-03
            4438            4630     140.359E-03     142.179E-03
            4438            4631     131.931E-03     134.714E-03
            4438            4647     136.425E-03     138.397E-03
            4438            4648     129.586E-03     132.073E-03
            4439            4631     131.931E-03     134.714E-03
            4439            4632     123.204E-03     126.220E-03
            4439            4648     129.586E-03     132.073E-03
            4439            4649     122.138E-03     125.132E-03
            4440            4632     123.204E-03     126.220E-03
            4440            4633     114.398E-03     117.544E-03
            4440            4649     122.138E-03     125.132E-03
            4440            4650     114.481E-03     117.596E-03
            4441            4633     114.398E-03     117.544E-03
            4441            4634     105.969E-03     109.224E-03
            4441            4650     114.481E-03     117.596E-03
            4441            4651     106.785E-03     109.818E-03
            4442            4634     105.969E-03     109.224E-03
            4442            4635     98.1956E-03     101.327E-03
            4442            4651     106.785E-03     109.818E-03
            4442            4652     99.1812E-03     102.098E-03
            4443            4635     98.1956E-03     101.327E-03
            4443            4636     90.7108E-03     93.7133E-03
            4443            4652     99.1812E-03     102.098E-03
            4443            4653     91.8034E-03     94.5320E-03
            4444            4636     90.7108E-03     93.7133E-03
            4444            4637     83.4761E-03     86.3571E-03
            4444            4653     91.8034E-03     94.5320E-03
            4444            4654     84.5372E-03     87.1089E-03
            4445            4637     83.4761E-03     86.3571E-03
            4445            4638     76.3848E-03     79.1615E-03
            4445            4654     84.5372E-03     87.1089E-03
            4445            4655     77.3937E-03     79.8418E-03
            4446            4638     76.3848E-03     79.1615E-03
            4446            4639     69.3919E-03     72.1085E-03
            4446            4655     77.3937E-03     79.8418E-03
            4446            4656     70.3219E-03     72.6943E-03
            4447            4639     69.3919E-03     72.1085E-03
            4447            4640     62.4687E-03     65.1552E-03
            4447            4656     70.3219E-03     72.6943E-03
            4447            4657     63.3163E-03     65.6681E-03
            4448            4640     62.4687E-03     65.1552E-03
            4448            4641     55.6074E-03     58.3157E-03
            4448            4657     63.3163E-03     65.6681E-03
            4448            4658     56.3427E-03     58.7393E-03
            4449            4641     55.6074E-03     58.3157E-03
            4449            4642     48.7900E-03     51.5525E-03
            4449            4658     56.3427E-03     58.7393E-03
            4449            4659     49.4055E-03     51.9239E-03
            4450            4642     48.7900E-03     51.5525E-03
            4450            4643     42.0443E-03     44.9502E-03
            4450            4659     49.4055E-03     51.9239E-03
            4450            4660     42.4632E-03     45.1550E-03
            4451            4643     42.0443E-03     44.9502E-03
            4451            4644     35.2920E-03     38.3889E-03
            4451            4660     42.4632E-03     45.1550E-03
            4451            4661     35.4862E-03     38.3873E-03
            4452            4644     35.2920E-03     38.3889E-03
            4452            4645     28.4419E-03     31.6615E-03
            4452            4661     35.4862E-03     38.3873E-03
            4452            4662     28.5184E-03     31.5500E-03
            4453            4645     28.4419E-03     31.6615E-03
            4453            4646     21.4781E-03     24.8158E-03
            4453            4662     28.5184E-03     31.5500E-03
            4453            4663     21.6663E-03     24.7081E-03
            4454             696     17.9447E-03     21.3616E-03
            4454             697     18.2990E-03     21.3334E-03
            4454            4646     21.4781E-03     24.8158E-03
            4454            4663     21.6663E-03     24.7081E-03
            4455             641     139.677E-03     141.456E-03
            4455             642     135.390E-03     136.604E-03
            4455            4647     136.425E-03     138.397E-03
            4455            4664     132.436E-03     134.168E-03
            4456            4647     136.425E-03     138.397E-03
            4456            4648     129.586E-03     132.073E-03
            4456            4664     132.436E-03     134.168E-03
            4456            4665     126.492E-03     128.972E-03
            4457            4648     129.586E-03     132.073E-03
            4457            4649     122.138E-03     125.132E-03
            4457            4665     126.492E-03     128.972E-03
            4457            4666     120.236E-03     123.051E-03
            4458            4649     122.138E-03     125.132E-03
            4458            4650     114.481E-03     117.596E-03
            4458            4666     120.236E-03     123.051E-03
            4458            4667     113.486E-03     116.387E-03
            4459            4650     114.481E-03     117.596E-03
            4459            4651     106.785E-03     109.818E-03
            4459            4667     113.486E-03     116.387E-03
            4459            4668     106.472E-03     109.216E-03
            4460            4651     106.785E-03     109.818E-03
            4460            4652     99.1812E-03     102.098E-03
            4460            4668     106.472E-03     109.216E-03
            4460            4669     99.3058E-03     101.839E-03
            4461            4652     99.1812E-03     102.098E-03
            4461            4653     91.8034E-03     94.5320E-03
            4461            4669     99.3058E-03     101.839E-03
            4461            4670     92.1096E-03     94.4508E-03
            4462            4653     91.8034E-03     94.5320E-03
            4462            4654     84.5372E-03     87.1089E-03
            4462            4670     92.1096E-03     94.4508E-03
            4462            4671     84.9731E-03     87.1355E-03
            4463            4654     84.5372E-03     87.1089E-03
            4463            4655     77.3937E-03     79.8418E-03
            4463            4671     84.9731E-03     87.1355E-03
            4463            4672     77.8734E-03     79.9167E-03
            4464            4655     77.3937E-03     79.8418E-03
            4464            4656     70.3219E-03     72.6943E-03
            4464            4672     77.8734E-03     79.9167E-03
            4464            4673     70.8401E-03     72.8078E-03
            4465            4656     70.3219E-03     72.6943E-03
            4465            4657     63.3163E-03     65.6681E-03
            4465            4673     70.8401E-03     72.8078E-03
            4465            4674     63.8417E-03     65.8020E-03
            4466            4657     63.3163E-03     65.6681E-03
            4466            4658     56.3427E-03     58.7393E-03
            4466            4674     63.8417E-03     65.8020E-03
            4466            4675     56.8809E-03     58.8985E-03
            4467            4658     56.3427E-03     58.7393E-03
            4467            4659     49.4055E-03     51.9239E-03
            4467            4675     56.8809E-03     58.8985E-03
            4467            4676     49.9151E-03     52.1013E-03
            4468            4659     49.4055E-03     51.9239E-03
            4468            4660     42.4632E-03     45.1550E-03
            4468            4676     49.9151E-03     52.1013E-03
            4468            4677     42.9348E-03     45.3650E-03
            4469            4660     42.4632E-03     45.1550E-03
            4469            4661     35.4862E-03     38.3873E-03
            4469            4677     42.9348E-03     45.3650E-03
            4469            4678     35.9453E-03     38.5993E-03
            4470            4661     35.4862E-03     38.3873E-03
            4470            4662     28.5184E-03     31.5500E-03
            4470            4678     35.9453E-03     38.5993E-03
            4470            4679     28.9986E-03     31.8815E-03
            4471            4662     28.5184E-03     31.5500E-03
            4471            4663     21.6663E-03     24.7081E-03
            4471            4679     28.9986E-03     31.8815E-03
            4471            4680     22.5381E-03     25.2247E-03
            4472             697     18.2990E-03     21.3334E-03
            4472             698     19.5224E-03     21.8859E-03
            4472            4663     21.6663E-03     24.7081E-03
            4472            4680     22.5381E-03     25.2247E-03
            4473             642     135.390E-03     136.604E-03
            4473             643     130.478E-03     131.489E-03
            4473            4664     132.436E-03     134.168E-03
            4473            4681     128.042E-03     129.565E-03
            4474            4664     132.436E-03     134.168E-03
            4474            4665     126.492E-03     128.972E-03
            4474            4681     128.042E-03     129.565E-03
            4474            4682     122.954E-03     125.308E-03
            4475            4665     126.492E-03     128.972E-03
            4475            4666     120.236E-03     123.051E-03
            4475            4682     122.954E-03     125.308E-03
            4475            4683     117.526E-03     120.136E-03
            4476            4666     120.236E-03     123.051E-03
            4476            4667     113.486E-03     116.387E-03
            4476            4683     117.526E-03     120.136E-03
            4476            4684     111.634E-03     114.073E-03
            4477            4667     113.486E-03     116.387E-03
            4477            4668     106.472E-03     109.216E-03
            4477            4684     111.634E-03     114.073E-03
            4477            4685     105.187E-03     107.433E-03
            4478            4668     106.472E-03     109.216E-03
            4478            4669     99.3058E-03     101.839E-03
            4478            4685     105.187E-03     107.433E-03
            4478            4686     98.4798E-03     100.484E-03
            4479            4669     99.3058E-03     101.839E-03
            4479            4670     92.1096E-03     94.4508E-03
            4479            4686     98.4798E-03     100.484E-03
            4479            4687     91.6144E-03     93.4155E-03
            4480            4670     92.1096E-03     94.4508E-03
            4480            4671     84.9731E-03     87.1355E-03
            4480            4687     91.6144E-03     93.4155E-03
            4480            4688     84.6857E-03     86.3500E-03
            4481            4671     84.9731E-03     87.1355E-03
            4481            4672     77.8734E-03     79.9167E-03
            4481            4688     84.6857E-03     86.3500E-03
            4481            4689     77.7744E-03     79.3302E-03
            4482            4672     77.8734E-03     79.9167E-03
            4482            4673     70.8401E-03     72.8078E-03
            4482            4689     77.7744E-03     79.3302E-03
            4482            4690     70.8761E-03     72.3837E-03
            4483            4673     70.8401E-03     72.8078E-03
            4483            4674     63.8417E-03     65.8020E-03
            4483            4690     70.8761E-03     72.3837E-03
            4483            4691     64.0193E-03     65.5187E-03
            4484            4674     63.8417E-03     65.8020E-03
            4484            4675     56.8809E-03     58.8985E-03
            4484            4691     64.0193E-03     65.5187E-03
            4484            4692     57.1810E-03     58.7535E-03
            4485            4675     56.8809E-03     58.8985E-03
            4485            4676     49.9151E-03     52.1013E-03
            4485            4692     57.1810E-03     58.7535E-03
            4485            4693     50.3515E-03     52.0738E-03
            4486            4676     49.9151E-03     52.1013E-03
            4486            4677     42.9348E-03     45.3650E-03
            4486            4693     50.3515E-03     52.0738E-03
            4486            4694     43.4935E-03     45.5559E-03
            4487            4677     42.9348E-03     45.3650E-03
            4487            4678     35.9453E-03     38.5993E-03
            4487            4694     43.4935E-03     45.5559E-03
            4487            4695     36.6376E-03     39.1105E-03
            4488            4678     35.9453E-03     38.5993E-03
            4488            4679     28.9986E-03     31.8815E-03
            4488            4695     36.6376E-03     39.1105E-03
            4488            4696     29.9646E-03     32.5539E-03
            4489            4679     28.9986E-03     31.8815E-03
            4489            4680     22.5381E-03     25.2247E-03
            4489            4696     29.9646E-03     32.5539E-03
            4489            4697     23.8171E-03     26.4854E-03
            4490             698     19.5224E-03     21.8859E-03
            4490             699     20.9242E-03     23.7209E-03
            4490            4680     22.5381E-03     25.2247E-03
            4490            4697     23.8171E-03     26.4854E-03
            4491             643     130.478E-03     131.489E-03
            4491             644     125.306E-03     126.396E-03
            4491            4681     128.042E-03     129.565E-03
            4491            4698     123.067E-03     124.645E-03
            4492            4681     128.042E-03     129.565E-03
            4492            4682     122.954E-03     125.308E-03
            4492            4698     123.067E-03     124.645E-03
            4492            4699     118.808E-03     120.832E-03
            4493            4682     122.954E-03     125.308E-03
            4493            4683     117.526E-03     120.136E-03
            4493            4699     118.808E-03     120.832E-03
            4493            4700     114.238E-03     116.155E-03
            4494            4683     117.526E-03     120.136E-03
            4494            4684     111.634E-03     114.073E-03
            4494            4700     114.238E-03     116.155E-03
            4494            4701     108.868E-03     110.607E-03
            4495            4684     111.634E-03     114.073E-03
            4495            4685     105.187E-03     107.433E-03
            4495            4701     108.868E-03     110.607E-03
            4495            4702     103.028E-03     104.488E-03
            4496            4685     105.187E-03     107.433E-03
            4496            4686     98.4798E-03     100.484E-03
            4496            4702     103.028E-03     104.488E-03
            4496            4703     96.7718E-03     98.0449E-03
            4497            4686     98.4798E-03     100.484E-03
            4497            4687     91.6144E-03     93.4155E-03
            4497            4703     96.7718E-03     98.0449E-03
            4497            4704     90.2937E-03     91.4505E-03
            4498            4687     91.6144E-03     93.4155E-03
            4498            4688     84.6857E-03     86.3500E-03
            4498            4704     90.2937E-03     91.4505E-03
            4498            4705     83.7141E-03     84.7808E-03
            4499            4688     84.6857E-03     86.3500E-03
            4499            4689     77.7744E-03     79.3302E-03
            4499            4705     83.7141E-03     84.7808E-03
            4499            4706     77.0795E-03     78.1098E-03
            4500            4689     77.7744E-03     79.3302E-03
            4500            4690     70.8761E-03     72.3837E-03
            4500            4706     77.0795E-03     78.1098E-03
            4500            4707     70.4591E-03     71.4623E-03
            4501            4690     70.8761E-03     72.3837E-03
            4501            4691     64.0193E-03     65.5187E-03
            4501            4707     70.4591E-03     71.4623E-03
            4501            4708     63.8528E-03     64.8669E-03
            4502            4691     64.0193E-03     65.5187E-03
            4502            4692     57.1810E-03     58.7535E-03
            4502            4708     63.8528E-03     64.8669E-03
            4502            4709     57.2825E-03     58.3399E-03
            4503            4692     57.1810E-03     58.7535E-03
            4503            4693     50.3515E-03     52.0738E-03
            4503            4709     57.2825E-03     58.3399E-03
            4503            4710     50.7423E-03     51.9330E-03
            4504            4693     50.3515E-03     52.0738E-03
            4504            4694     43.4935E-03     45.5559E-03
            4504            4710     50.7423E-03     51.9330E-03
            4504            4711     44.2158E-03     45.6713E-03
            4505            4694     43.4935E-03     45.5559E-03
            4505            4695     36.6376E-03     39.1105E-03
            4505            4711     44.2158E-03     45.6713E-03
            4505            4712     37.6888E-03     39.7968E-03
            4506            4695     36.6376E-03     39.1105E-03
            4506            4696     29.9646E-03     32.5539E-03
            4506            4712     37.6888E-03     39.7968E-03
            4506            4713     31.3445E-03     34.0684E-03
            4507            4696     29.9646E-03     32.5539E-03
            4507            4697     23.8171E-03     26.4854E-03
            4507            4713     31.3445E-03     34.0684E-03
            4507            4714     25.8142E-03     28.0878E-03
            4508             699     20.9242E-03     23.7209E-03
            4508             700     23.3741E-03     25.0575E-03
            4508            4697     23.8171E-03     26.4854E-03
            4508            4714     25.8142E-03     28.0878E-03
            4509             644     125.306E-03     126.396E-03
            4509             645     119.181E-03     119.256E-03
            4509            4698     123.067E-03     124.645E-03
            4509            4715     117.599E-03     118.097E-03
            4510            4698     123.067E-03     124.645E-03
            4510            4699     118.808E-03     120.832E-03
            4510            4715     117.599E-03     118.097E-03
            4510            4716     114.172E-03     115.050E-03
            4511            4699     118.808E-03     120.832E-03
            4511            4700     114.238E-03     116.155E-03
            4511            4716     114.172E-03     115.050E-03
            4511            4717     110.093E-03     110.837E-03
            4512            4700     114.238E-03     116.155E-03
            4512            4701     108.868E-03     110.607E-03
            4512            4717     110.093E-03     110.837E-03
            4512            4718     105.352E-03     105.861E-03
            4513            4701     108.868E-03     110.607E-03
            4513            4702     103.028E-03     104.488E-03
            4513            4718     105.352E-03     105.861E-03
            4513            4719     100.009E-03     100.412E-03
            4514            4702     103.028E-03     104.488E-03
            4514            4703     96.7718E-03     98.0449E-03
            4514            4719     100.009E-03     100.412E-03
            4514            4720     94.2618E-03     94.6546E-03
            4515            4703     96.7718E-03     98.0449E-03
            4515            4704     90.2937E-03     91.4505E-03
            4515            4720     94.2618E-03     94.6546E-03
            4515            4721     88.2730E-03     88.6794E-03
            4516            4704     90.2937E-03     91.4505E-03
            4516            4705     83.7141E-03     84.7808E-03
            4516            4721     88.2730E-03     88.6794E-03
            4516            4722     82.1221E-03     82.5785E-03
            4517            4705     83.7141E-03     84.7808E-03
            4517            4706     77.0795E-03     78.1098E-03
            4517            4722     82.1221E-03     82.5785E-03
            4517            4723     75.9107E-03     76.3984E-03
            4518            4706     77.0795E-03     78.1098E-03
            4518            4707     70.4591E-03     71.4623E-03
            4518            4723     75.9107E-03     76.3984E-03
            4518            4724     69.6637E-03     70.1892E-03
            4519            4707     70.4591E-03     71.4623E-03
            4519            4708     63.8528E-03     64.8669E-03
            4519            4724     69.6637E-03     70.1892E-03
            4519            4725     63.4419E-03     63.9851E-03
            4520            4708     63.8528E-03     64.8669E-03
            4520            4709     57.2825E-03     58.3399E-03
            4520            4725     63.4419E-03     63.9851E-03
            4520            4726     57.2587E-03     57.8223E-03
            4521            4709     57.2825E-03     58.3399E-03
            4521            4710     50.7423E-03     51.9330E-03
            4521            4726     57.2587E-03     57.8223E-03
            4521            4727     51.1541E-03     51.7629E-03
            4522            4710     50.7423E-03     51.9330E-03
            4522            4711     44.2158E-03     45.6713E-03
            4522            4727     51.1541E-03     51.7629E-03
            4522            4728     45.1523E-03     45.8957E-03
            4523            4711     44.2158E-03     45.6713E-03
            4523            4712     37.6888E-03     39.7968E-03
            4523            4728     45.1523E-03     45.8957E-03
            4523            4729     39.2600E-03     40.4399E-03
            4524            4712     37.6888E-03     39.7968E-03
            4524            4713     31.3445E-03     34.0684E-03
            4524            4729     39.2600E-03     40.4399E-03
            4524            4730     33.4566E-03     35.9272E-03
            4525            4713     31.3445E-03     34.0684E-03
            4525            4714     25.8142E-03     28.0878E-03
            4525            4730     33.4566E-03     35.9272E-03
            4525            4731     28.3220E-03     31.5746E-03
            4526             700     23.3741E-03     25.0575E-03
            4526             701     26.0661E-03     29.1580E-03
            4526            4714     25.8142E-03     28.0878E-03
            4526            4731     28.3220E-03     31.5746E-03
            4527             645     119.181E-03     119.256E-03
            4527             646     112.242E-03     109.937E-03
            4527            4715     117.599E-03     118.097E-03
            4527            4732     111.370E-03     109.529E-03
            4528            4715     117.599E-03     118.097E-03
            4528            4716     114.172E-03     115.050E-03
            4528            4732     111.370E-03     109.529E-03
            4528            4733     108.853E-03     107.437E-03
            4529            4716     114.172E-03     115.050E-03
            4529            4717     110.093E-03     110.837E-03
            4529            4733     108.853E-03     107.437E-03
            4529            4734     105.309E-03     103.932E-03
            4530            4717     110.093E-03     110.837E-03
            4530            4718     105.352E-03     105.861E-03
            4530            4734     105.309E-03     103.932E-03
            4530            4735     101.079E-03     99.9460E-03
            4531            4718     105.352E-03     105.861E-03
            4531            4719     100.009E-03     100.412E-03
            4531            4735     101.079E-03     99.9460E-03
            4531            4736     96.2860E-03     95.4401E-03
            4532            4719     100.009E-03     100.412E-03
            4532            4720     94.2618E-03     94.6546E-03
            4532            4736     96.2860E-03     95.4401E-03
            4532            4737     91.1443E-03     90.5815E-03
            4533            4720     94.2618E-03     94.6546E-03
            4533            4721     88.2730E-03     88.6794E-03
            4533            4737     91.1443E-03     90.5815E-03
            4533            4738     85.7297E-03     85.4129E-03
            4534            4721     88.2730E-03     88.6794E-03
            4534            4722     82.1221E-03     82.5785E-03
            4534            4738     85.7297E-03     85.4129E-03
            4534            4739     80.1484E-03     80.0223E-03
            4535            4722     82.1221E-03     82.5785E-03
            4535            4723     75.9107E-03     76.3984E-03
            4535            4739     80.1484E-03     80.0223E-03
            4535            4740     74.4453E-03     74.4711E-03
            4536            4723     75.9107E-03     76.3984E-03
            4536            4724     69.6637E-03     70.1892E-03
            4536            4740     74.4453E-03     74.4711E-03
            4536            4741     68.6999E-03     68.8167E-03
            4537            4724     69.6637E-03     70.1892E-03
            4537            4725     63.4419E-03     63.9851E-03
            4537            4741     68.6999E-03     68.8167E-03
            4537            4742     62.9406E-03     63.1124E-03
            4538            4725     63.4419E-03     63.9851E-03
            4538            4726     57.2587E-03     57.8223E-03
            4538            4742     62.9406E-03     63.1124E-03
            4538            4743     57.2531E-03     57.4186E-03
            4539            4726     57.2587E-03     57.8223E-03
            4539            4727     51.1541E-03     51.7629E-03
            4539            4743     57.2531E-03     57.4186E-03
            4539            4744     51.6709E-03     51.7928E-03
            4540            4727     51.1541E-03     51.7629E-03
            4540            4728     45.1523E-03     45.8957E-03
            4540            4744     51.6709E-03     51.7928E-03
            4540            4745     46.3386E-03     46.3802E-03
            4541            4728     45.1523E-03     45.8957E-03
            4541            4729     39.2600E-03     40.4399E-03
            4541            4745     46.3386E-03     46.3802E-03
            4541            4746     41.2768E-03     41.3043E-03
            4542            4729     39.2600E-03     40.4399E-03
            4542            4730     33.4566E-03     35.9272E-03
            4542            4746     41.2768E-03     41.3043E-03
            4542            4747     36.7167E-03     37.2754E-03
            4543            4730     33.4566E-03     35.9272E-03
            4543            4731     28.3220E-03     31.5746E-03
            4543            4747     36.7167E-03     37.2754E-03
            4543            4748     32.2426E-03     34.8545E-03
            4544             701     26.0661E-03     29.1580E-03
            4544             702     29.8339E-03     34.0053E-03
            4544            4731     28.3220E-03     31.5746E-03
            4544            4748     32.2426E-03     34.8545E-03
            4545             646     112.242E-03     109.937E-03
            4545             647     112.911E-03     116.342E-03
            4545            4732     111.370E-03     109.529E-03
            4545            4749     106.762E-03     108.768E-03
            4546            4732     111.370E-03     109.529E-03
            4546            4733     108.853E-03     107.437E-03
            4546            4749     106.762E-03     108.768E-03
            4546            4750     97.7174E-03     97.7744E-03
            4547            4733     108.853E-03     107.437E-03
            4547            4734     105.309E-03     103.932E-03
            4547            4750     97.7174E-03     97.7744E-03
            4547            4751     91.5694E-03     91.4857E-03
            4548            4734     105.309E-03     103.932E-03
            4548            4735     101.079E-03     99.9460E-03
            4548            4751     91.5694E-03     91.4857E-03
            4548            4752     85.8089E-03     86.0475E-03
            4549            4735     101.079E-03     99.9460E-03
            4549            4736     96.2860E-03     95.4401E-03
            4549            4752     85.8089E-03     86.0475E-03
            4549            4753     80.5707E-03     81.0762E-03
            4550            4736     96.2860E-03     95.4401E-03
            4550            4737     91.1443E-03     90.5815E-03
            4550            4753     80.5707E-03     81.0762E-03
            4550            4754     75.4176E-03     76.2932E-03
            4551            4737     91.1443E-03     90.5815E-03
            4551            4738     85.7297E-03     85.4129E-03
            4551            4754     75.4176E-03     76.2932E-03
            4551            4755     70.4185E-03     71.5350E-03
            4552            4738     85.7297E-03     85.4129E-03
            4552            4739     80.1484E-03     80.0223E-03
            4552            4755     70.4185E-03     71.5350E-03
            4552            4756     65.4286E-03     66.7890E-03
            4553            4739     80.1484E-03     80.0223E-03
            4553            4740     74.4453E-03     74.4711E-03
            4553            4756     65.4286E-03     66.7890E-03
            4553            4757     60.4953E-03     62.0002E-03
            4554            4740     74.4453E-03     74.4711E-03
            4554            4741     68.6999E-03     68.8167E-03
            4554            4757     60.4953E-03     62.0002E-03
            4554            4758     55.5752E-03     57.1956E-03
            4555            4741     68.6999E-03     68.8167E-03
            4555            4742     62.9406E-03     63.1124E-03
            4555            4758     55.5752E-03     57.1956E-03
            4555            4759     50.7148E-03     52.3755E-03
            4556            4742     62.9406E-03     63.1124E-03
            4556            4743     57.2531E-03     57.4186E-03
            4556            4759     50.7148E-03     52.3755E-03
            4556            4760     45.9313E-03     47.5813E-03
            4557            4743     57.2531E-03     57.4186E-03
            4557            4744     51.6709E-03     51.7928E-03
            4557            4760     45.9313E-03     47.5813E-03
            4557            4761     41.2938E-03     42.8523E-03
            4558            4744     51.6709E-03     51.7928E-03
            4558            4745     46.3386E-03     46.3802E-03
            4558            4761     41.2938E-03     42.8523E-03
            4558            4762     36.8973E-03     38.2879E-03
            4559            4745     46.3386E-03     46.3802E-03
            4559            4746     41.2768E-03     41.3043E-03
            4559            4762     36.8973E-03     38.2879E-03
            4559            4763     32.8833E-03     33.9900E-03
            4560            4746     41.2768E-03     41.3043E-03
            4560            4747     36.7167E-03     37.2754E-03
            4560            4763     32.8833E-03     33.9900E-03
            4560            4764     29.5398E-03     30.3901E-03
            4561            4747     36.7167E-03     37.2754E-03
            4561            4748     32.2426E-03     34.8545E-03
            4561            4764     29.5398E-03     30.3901E-03
            4561            4765     27.2684E-03     28.3950E-03
            4562             702     29.8339E-03     34.0053E-03
            4562             703     26.4097E-03     27.8964E-03
            4562            4748     32.2426E-03     34.8545E-03
            4562            4765     27.2684E-03     28.3950E-03
            4563             647     112.911E-03     116.342E-03
            4563             648     118.098E-03     119.607E-03
            4563            4749     106.762E-03     108.768E-03
            4563            4766     108.268E-03     110.541E-03
            4564            4749     106.762E-03     108.768E-03
            4564            4750     97.7174E-03     97.7744E-03
            4564            4766     108.268E-03     110.541E-03
            4564            4767     91.9695E-03     94.8630E-03
            4565            4750     97.7174E-03     97.7744E-03
            4565            4751     91.5694E-03     91.4857E-03
            4565            4767     91.9695E-03     94.8630E-03
            4565            4768     81.5667E-03     84.1838E-03
            4566            4751     91.5694E-03     91.4857E-03
            4566            4752     85.8089E-03     86.0475E-03
            4566            4768     81.5667E-03     84.1838E-03
            4566            4769     74.0712E-03     76.6100E-03
            4567            4752     85.8089E-03     86.0475E-03
            4567            4753     80.5707E-03     81.0762E-03
            4567            4769     74.0712E-03     76.6100E-03
            4567            4770     67.6966E-03     70.3186E-03
            4568            4753     80.5707E-03     81.0762E-03
            4568            4754     75.4176E-03     76.2932E-03
            4568            4770     67.6966E-03     70.3186E-03
            4568            4771     62.2107E-03     64.9391E-03
            4569            4754     75.4176E-03     76.2932E-03
            4569            4755     70.4185E-03     71.5350E-03
            4569            4771     62.2107E-03     64.9391E-03
            4569            4772     57.1443E-03     60.0043E-03
            4570            4755     70.4185E-03     71.5350E-03
            4570            4756     65.4286E-03     66.7890E-03
            4570            4772     57.1443E-03     60.0043E-03
            4570            4773     52.4169E-03     55.3849E-03
            4571            4756     65.4286E-03     66.7890E-03
            4571            4757     60.4953E-03     62.0002E-03
            4571            4773     52.4169E-03     55.3849E-03
            4571            4774     47.8593E-03     50.9143E-03
            4572            4757     60.4953E-03     62.0002E-03
            4572            4758     55.5752E-03     57.1956E-03
            4572            4774     47.8593E-03     50.9143E-03
            4572            4775     43.4518E-03     46.5586E-03
            4573            4758     55.5752E-03     57.1956E-03
            4573            4759     50.7148E-03     52.3755E-03
            4573            4775     43.4518E-03     46.5586E-03
            4573            4776     39.1331E-03     42.2559E-03
            4574            4759     50.7148E-03     52.3755E-03
            4574            4760     45.9313E-03     47.5813E-03
            4574            4776     39.1331E-03     42.2559E-03
            4574            4777     34.9327E-03     38.0284E-03
            4575            4760     45.9313E-03     47.5813E-03
            4575            4761     41.2938E-03     42.8523E-03
            4575            4777     34.9327E-03     38.0284E-03
            4575            4778     30.8407E-03     33.8627E-03
            4576            4761     41.2938E-03     42.8523E-03
            4576            4762     36.8973E-03     38.2879E-03
            4576            4778     30.8407E-03     33.8627E-03
            4576            4779     26.9767E-03     29.8615E-03
            4577            4762     36.8973E-03     38.2879E-03
            4577            4763     32.8833E-03     33.9900E-03
            4577            4779     26.9767E-03     29.8615E-03
            4577            4780     23.3558E-03     26.0491E-03
            4578            4763     32.8833E-03     33.9900E-03
            4578            4764     29.5398E-03     30.3901E-03
            4578            4780     23.3558E-03     26.0491E-03
            4578            4781     20.4927E-03     22.8822E-03
            4579            4764     29.5398E-03     30.3901E-03
            4579            4765     27.2684E-03     28.3950E-03
            4579            4781     20.4927E-03     22.8822E-03
            4579            4782     18.4254E-03     20.6732E-03
            4580             703     26.4097E-03     27.8964E-03
            4580             704     17.4378E-03     19.7430E-03
            4580            4765     27.2684E-03     28.3950E-03
            4580            4782     18.4254E-03     20.6732E-03
            4581             648     118.098E-03     119.607E-03
            4581             649     113.748E-03     113.661E-03
            4581            4766     108.268E-03     110.541E-03
            4581            4783     108.085E-03     108.580E-03
            4582            4766     108.268E-03     110.541E-03
            4582            4767     91.9695E-03     94.8630E-03
            4582            4783     108.085E-03     108.580E-03
            4582            4784     95.5949E-03     97.3009E-03
            4583            4767     91.9695E-03     94.8630E-03
            4583            4768     81.5667E-03     84.1838E-03
            4583            4784     95.5949E-03     97.3009E-03
            4583            4785     84.2254E-03     86.7256E-03
            4584            4768     81.5667E-03     84.1838E-03
            4584            4769     74.0712E-03     76.6100E-03
            4584            4785     84.2254E-03     86.7256E-03
            4584            4786     76.1839E-03     78.7933E-03
            4585            4769     74.0712E-03     76.6100E-03
            4585            4770     67.6966E-03     70.3186E-03
            4585            4786     76.1839E-03     78.7933E-03
            4585            4787     69.5838E-03     72.2139E-03
            4586            4770     67.6966E-03     70.3186E-03
            4586            4771     62.2107E-03     64.9391E-03
            4586            4787     69.5838E-03     72.2139E-03
            4586            4788     63.8259E-03     66.5141E-03
            4587            4771     62.2107E-03     64.9391E-03
            4587            4772     57.1443E-03     60.0043E-03
            4587            4788     63.8259E-03     66.5141E-03
            4587            4789     58.6323E-03     61.3400E-03
            4588            4772     57.1443E-03     60.0043E-03
            4588            4773     52.4169E-03     55.3849E-03
            4588            4789     58.6323E-03     61.3400E-03
            4588            4790     53.7328E-03     56.4800E-03
            4589            4773     52.4169E-03     55.3849E-03
            4589            4774     47.8593E-03     50.9143E-03
            4589            4790     53.7328E-03     56.4800E-03
            4589            4791     49.0537E-03     51.8172E-03
            4590            4774     47.8593E-03     50.9143E-03
            4590            4775     43.4518E-03     46.5586E-03
            4590            4791     49.0537E-03     51.8172E-03
            4590            4792     44.4903E-03     47.2661E-03
            4591            4775     43.4518E-03     46.5586E-03
            4591            4776     39.1331E-03     42.2559E-03
            4591            4792     44.4903E-03     47.2661E-03
            4591            4793     40.0362E-03     42.8029E-03
            4592            4776     39.1331E-03     42.2559E-03
            4592            4777     34.9327E-03     38.0284E-03
            4592            4793     40.0362E-03     42.8029E-03
            4592            4794     35.6666E-03     38.4048E-03
            4593            4777     34.9327E-03     38.0284E-03
            4593            4778     30.8407E-03     33.8627E-03
            4593            4794     35.6666E-03     38.4048E-03
            4593            4795     31.4224E-03     34.1049E-03
            4594            4778     30.8407E-03     33.8627E-03
            4594            4779     26.9767E-03     29.8615E-03
            4594            4795     31.4224E-03     34.1049E-03
            4594            4796     27.3436E-03     29.9439E-03
            4595            4779     26.9767E-03     29.8615E-03
            4595            4780     23.3558E-03     26.0491E-03
            4595            4796     27.3436E-03     29.9439E-03
            4595            4797     23.5274E-03     26.0131E-03
            4596            4780     23.3558E-03     26.0491E-03
            4596            4781     20.4927E-03     22.8822E-03
            4596            4797     23.5274E-03     26.0131E-03
            4596            4798     20.2366E-03     22.6699E-03
            4597            4781     20.4927E-03     22.8822E-03
            4597            4782     18.4254E-03     20.6732E-03
            4597            4798     20.2366E-03     22.6699E-03
            4597            4799     16.6117E-03     19.1699E-03
            4598             704     17.4378E-03     19.7430E-03
            4598             705     14.4583E-03     17.1275E-03
            4598            4782     18.4254E-03     20.6732E-03
            4598            4799     16.6117E-03     19.1699E-03
            4599             649     113.748E-03     113.661E-03
            4599             650     108.199E-03     110.451E-03
            4599            4783     108.085E-03     108.580E-03
            4599            4800     104.003E-03     105.945E-03
            4600            4783     108.085E-03     108.580E-03
            4600            4784     95.5949E-03     97.3009E-03
            4600            4800     104.003E-03     105.945E-03
            4600            4801     95.2625E-03     96.9323E-03
            4601            4784     95.5949E-03     97.3009E-03
            4601            4785     84.2254E-03     86.7256E-03
            4601            4801     95.2625E-03     96.9323E-03
            4601            4802     86.0562E-03     88.1111E-03
            4602            4785     84.2254E-03     86.7256E-03
            4602            4786     76.1839E-03     78.7933E-03
            4602            4802     86.0562E-03     88.1111E-03
            4602            4803     77.8829E-03     80.3612E-03
            4603            4786     76.1839E-03     78.7933E-03
            4603            4787     69.5838E-03     72.2139E-03
            4603            4803     77.8829E-03     80.3612E-03
            4603            4804     71.2929E-03     73.8383E-03
            4604            4787     69.5838E-03     72.2139E-03
            4604            4788     63.8259E-03     66.5141E-03
            4604            4804     71.2929E-03     73.8383E-03
            4604            4805     65.4413E-03     68.0010E-03
            4605            4788     63.8259E-03     66.5141E-03
            4605            4789     58.6323E-03     61.3400E-03
            4605            4805     65.4413E-03     68.0010E-03
            4605            4806     60.1185E-03     62.6721E-03
            4606            4789     58.6323E-03     61.3400E-03
            4606            4790     53.7328E-03     56.4800E-03
            4606            4806     60.1185E-03     62.6721E-03
            4606            4807     55.1139E-03     57.6361E-03
            4607            4790     53.7328E-03     56.4800E-03
            4607            4791     49.0537E-03     51.8172E-03
            4607            4807     55.1139E-03     57.6361E-03
            4607            4808     50.2985E-03     52.8013E-03
            4608            4791     49.0537E-03     51.8172E-03
            4608            4792     44.4903E-03     47.2661E-03
            4608            4808     50.2985E-03     52.8013E-03
            4608            4809     45.6171E-03     48.0929E-03
            4609            4792     44.4903E-03     47.2661E-03
            4609            4793     40.0362E-03     42.8029E-03
            4609            4809     45.6171E-03     48.0929E-03
            4609            4810     41.0246E-03     43.4785E-03
            4610            4793     40.0362E-03     42.8029E-03
            4610            4794     35.6666E-03     38.4048E-03
            4610            4810     41.0246E-03     43.4785E-03
            4610            4811     36.5201E-03     38.9472E-03
            4611            4794     35.6666E-03     38.4048E-03
            4611            4795     31.4224E-03     34.1049E-03
            4611            4811     36.5201E-03     38.9472E-03
            4611            4812     32.1245E-03     34.5181E-03
            4612            4795     31.4224E-03     34.1049E-03
            4612            4796     27.3436E-03     29.9439E-03
            4612            4812     32.1245E-03     34.5181E-03
            4612            4813     27.8499E-03     30.2056E-03
            4613            4796     27.3436E-03     29.9439E-03
            4613            4797     23.5274E-03     26.0131E-03
            4613            4813     27.8499E-03     30.2056E-03
            4613            4814     23.8348E-03     26.1583E-03
            4614            4797     23.5274E-03     26.0131E-03
            4614            4798     20.2366E-03     22.6699E-03
            4614            4814     23.8348E-03     26.1583E-03
            4614            4815     19.8756E-03     22.2170E-03
            4615            4798     20.2366E-03     22.6699E-03
            4615            4799     16.6117E-03     19.1699E-03
            4615            4815     19.8756E-03     22.2170E-03
            4615            4816     15.8053E-03     18.0184E-03
            4616             705     14.4583E-03     17.1275E-03
            4616             706     13.7920E-03     15.8441E-03
            4616            4799     16.6117E-03     19.1699E-03
            4616            4816     15.8053E-03     18.0184E-03
            4617             650     108.199E-03     110.451E-03
            4617             651     104.009E-03     104.730E-03
            4617            4800     104.003E-03     105.945E-03
            4617            4817     100.332E-03     101.578E-03
            4618            4800     104.003E-03     105.945E-03
            4618            4801     95.2625E-03     96.9323E-03
            4618            4817     100.332E-03     101.578E-03
            4618            4818     92.9517E-03     94.8615E-03
            4619            4801     95.2625E-03     96.9323E-03
            4619            4802     86.0562E-03     88.1111E-03
            4619            4818     92.9517E-03     94.8615E-03
            4619            4819     85.7736E-03     87.8204E-03
            4620            4802     86.0562E-03     88.1111E-03
            4620            4803     77.8829E-03     80.3612E-03
            4620            4819     85.7736E-03     87.8204E-03
            4620            4820     78.8235E-03     81.0503E-03
            4621            4803     77.8829E-03     80.3612E-03
            4621            4804     71.2929E-03     73.8383E-03
            4621            4820     78.8235E-03     81.0503E-03
            4621            4821     72.4348E-03     74.8364E-03
            4622            4804     71.2929E-03     73.8383E-03
            4622            4805     65.4413E-03     68.0010E-03
            4622            4821     72.4348E-03     74.8364E-03
            4622            4822     66.7600E-03     69.1420E-03
            4623            4805     65.4413E-03     68.0010E-03
            4623            4806     60.1185E-03     62.6721E-03
            4623            4822     66.7600E-03     69.1420E-03
            4623            4823     61.4266E-03     63.7712E-03
            4624            4806     60.1185E-03     62.6721E-03
            4624            4807     55.1139E-03     57.6361E-03
            4624            4823     61.4266E-03     63.7712E-03
            4624            4824     56.3758E-03     58.6609E-03
            4625            4807     55.1139E-03     57.6361E-03
            4625            4808     50.2985E-03     52.8013E-03
            4625            4824     56.3758E-03     58.6609E-03
            4625            4825     51.4819E-03     53.7099E-03
            4626            4808     50.2985E-03     52.8013E-03
            4626            4809     45.6171E-03     48.0929E-03
            4626            4825     51.4819E-03     53.7099E-03
            4626            4826     46.7031E-03     48.8900E-03
            4627            4809     45.6171E-03     48.0929E-03
            4627            4810     41.0246E-03     43.4785E-03
            4627            4826     46.7031E-03     48.8900E-03
            4627            4827     42.0051E-03     44.1620E-03
            4628            4810     41.0246E-03     43.4785E-03
            4628            4811     36.5201E-03     38.9472E-03
            4628            4827     42.0051E-03     44.1620E-03
            4628            4828     37.3877E-03     39.5286E-03
            4629            4811     36.5201E-03     38.9472E-03
            4629            4812     32.1245E-03     34.5181E-03
            4629            4828     37.3877E-03     39.5286E-03
            4629            4829     32.8437E-03     34.9815E-03
            4630            4812     32.1245E-03     34.5181E-03
            4630            4813     27.8499E-03     30.2056E-03
            4630            4829     32.8437E-03     34.9815E-03
            4630            4830     28.4332E-03     30.5647E-03
            4631            4813     27.8499E-03     30.2056E-03
            4631            4814     23.8348E-03     26.1583E-03
            4631            4830     28.4332E-03     30.5647E-03
            4631            4831     24.1121E-03     26.2592E-03
            4632            4814     23.8348E-03     26.1583E-03
            4632            4815     19.8756E-03     22.2170E-03
            4632            4831     24.1121E-03     26.2592E-03
            4632            4832     19.8822E-03     21.9597E-03
            4633            4815     19.8756E-03     22.2170E-03
            4633            4816     15.8053E-03     18.0184E-03
            4633            4832     19.8822E-03     21.9597E-03
            4633            4833     15.7958E-03     17.7308E-03
            4634             706     13.7920E-03     15.8441E-03
            4634             707     13.7672E-03     15.6532E-03
            4634            4816     15.8053E-03     18.0184E-03
            4634            4833     15.7958E-03     17.7308E-03
            4635             651     104.009E-03     104.730E-03
            4635             652     98.9977E-03     100.378E-03
            4635            4817     100.332E-03     101.578E-03
            4635            4834     96.1316E-03     97.4958E-03
            4636            4817     100.332E-03     101.578E-03
            4636            4818     92.9517E-03     94.8615E-03
            4636            4834     96.1316E-03     97.4958E-03
            4636            4835     90.3187E-03     91.8997E-03
            4637            4818     92.9517E-03     94.8615E-03
            4637            4819     85.7736E-03     87.8204E-03
            4637            4835     90.3187E-03     91.8997E-03
            4637            4836     84.3603E-03     86.3581E-03
            4638            4819     85.7736E-03     87.8204E-03
            4638            4820     78.8235E-03     81.0503E-03
            4638            4836     84.3603E-03     86.3581E-03
            4638            4837     78.5734E-03     80.7160E-03
            4639            4820     78.8235E-03     81.0503E-03
            4639            4821     72.4348E-03     74.8364E-03
            4639            4837     78.5734E-03     80.7160E-03
            4639            4838     72.9613E-03     75.1313E-03
            4640            4821     72.4348E-03     74.8364E-03
            4640            4822     66.7600E-03     69.1420E-03
            4640            4838     72.9613E-03     75.1313E-03
            4640            4839     67.5423E-03     69.7165E-03
            4641            4822     66.7600E-03     69.1420E-03
            4641            4823     61.4266E-03     63.7712E-03
            4641            4839     67.5423E-03     69.7165E-03
            4641            4840     62.3958E-03     64.4768E-03
            4642            4823     61.4266E-03     63.7712E-03
            4642            4824     56.3758E-03     58.6609E-03
            4642            4840     62.3958E-03     64.4768E-03
            4642            4841     57.3662E-03     59.3696E-03
            4643            4824     56.3758E-03     58.6609E-03
            4643            4825     51.4819E-03     53.7099E-03
            4643            4841     57.3662E-03     59.3696E-03
            4643            4842     52.4667E-03     54.3938E-03
            4644            4825     51.4819E-03     53.7099E-03
            4644            4826     46.7031E-03     48.8900E-03
            4644            4842     52.4667E-03     54.3938E-03
            4644            4843     47.6358E-03     49.5117E-03
            4645            4826     46.7031E-03     48.8900E-03
            4645            4827     42.0051E-03     44.1620E-03
            4645            4843     47.6358E-03     49.5117E-03
            4645            4844     42.8765E-03     44.7296E-03
            4646            4827     42.0051E-03     44.1620E-03
            4646            4828     37.3877E-03     39.5286E-03
            4646            4844     42.8765E-03     44.7296E-03
            4646            4845     38.1685E-03     40.0265E-03
            4647            4828     37.3877E-03     39.5286E-03
            4647            4829     32.8437E-03     34.9815E-03
            4647            4845     38.1685E-03     40.0265E-03
            4647            4846     33.5340E-03     35.4139E-03
            4648            4829     32.8437E-03     34.9815E-03
            4648            4830     28.4332E-03     30.5647E-03
            4648            4846     33.5340E-03     35.4139E-03
            4648            4847     28.9643E-03     30.8926E-03
            4649            4830     28.4332E-03     30.5647E-03
            4649            4831     24.1121E-03     26.2592E-03
            4649            4847     28.9643E-03     30.8926E-03
            4649            4848     24.4966E-03     26.4149E-03
            4650            4831     24.1121E-03     26.2592E-03
            4650            4832     19.8822E-03     21.9597E-03
            4650            4848     24.4966E-03     26.4149E-03
            4650            4849     20.1811E-03     22.0570E-03
            4651            4832     19.8822E-03     21.9597E-03
            4651            4833     15.7958E-03     17.7308E-03
            4651            4849     20.1811E-03     22.0570E-03
            4651            4850     16.2439E-03     17.8869E-03
            4652             707     13.7672E-03     15.6532E-03
            4652             708     14.4348E-03     15.8447E-03
            4652            4833     15.7958E-03     17.7308E-03
            4652            4850     16.2439E-03     17.8869E-03
            4653             652     98.9977E-03     100.378E-03
            4653             653     94.6496E-03     95.3176E-03
            4653            4834     96.1316E-03     97.4958E-03
            4653            4851     92.0655E-03     93.1236E-03
            4654            4834     96.1316E-03     97.4958E-03
            4654            4835     90.3187E-03     91.8997E-03
            4654            4851     92.0655E-03     93.1236E-03
            4654            4852     87.1100E-03     88.7061E-03
            4655            4835     90.3187E-03     91.8997E-03
            4655            4836     84.3603E-03     86.3581E-03
            4655            4852     87.1100E-03     88.7061E-03
            4655            4853     82.4026E-03     84.2231E-03
            4656            4836     84.3603E-03     86.3581E-03
            4656            4837     78.5734E-03     80.7160E-03
            4656            4853     82.4026E-03     84.2231E-03
            4656            4854     77.5797E-03     79.5659E-03
            4657            4837     78.5734E-03     80.7160E-03
            4657            4838     72.9613E-03     75.1313E-03
            4657            4854     77.5797E-03     79.5659E-03
            4657            4855     72.7039E-03     74.6810E-03
            4658            4838     72.9613E-03     75.1313E-03
            4658            4839     67.5423E-03     69.7165E-03
            4658            4855     72.7039E-03     74.6810E-03
            4658            4856     67.8007E-03     69.6683E-03
            4659            4839     67.5423E-03     69.7165E-03
            4659            4840     62.3958E-03     64.4768E-03
            4659            4856     67.8007E-03     69.6683E-03
            4659            4857     62.8649E-03     64.6397E-03
            4660            4840     62.3958E-03     64.4768E-03
            4660            4841     57.3662E-03     59.3696E-03
            4660            4857     62.8649E-03     64.6397E-03
            4660            4858     57.9898E-03     59.6474E-03
            4661            4841     57.3662E-03     59.3696E-03
            4661            4842     52.4667E-03     54.3938E-03
            4661            4858     57.9898E-03     59.6474E-03
            4661            4859     53.1289E-03     54.7093E-03
            4662            4842     52.4667E-03     54.3938E-03
            4662            4843     47.6358E-03     49.5117E-03
            4662            4859     53.1289E-03     54.7093E-03
            4662            4860     48.3234E-03     49.8512E-03
            4663            4843     47.6358E-03     49.5117E-03
            4663            4844     42.8765E-03     44.7296E-03
            4663            4860     48.3234E-03     49.8512E-03
            4663            4861     43.5463E-03     45.0617E-03
            4664            4844     42.8765E-03     44.7296E-03
            4664            4845     38.1685E-03     40.0265E-03
            4664            4861     43.5463E-03     45.0617E-03
            4664            4862     38.8132E-03     40.3601E-03
            4665            4845     38.1685E-03     40.0265E-03
            4665            4846     33.5340E-03     35.4139E-03
            4665            4862     38.8132E-03     40.3601E-03
            4665            4863     34.1177E-03     35.7365E-03
            4666            4846     33.5340E-03     35.4139E-03
            4666            4847     28.9643E-03     30.8926E-03
            4666            4863     34.1177E-03     35.7365E-03
            4666            4864     29.4815E-03     31.1669E-03
            4667            4847     28.9643E-03     30.8926E-03
            4667            4848     24.4966E-03     26.4149E-03
            4667            4864     29.4815E-03     31.1669E-03
            4667            4865     24.9502E-03     26.7058E-03
            4668            4848     24.4966E-03     26.4149E-03
            4668            4849     20.1811E-03     22.0570E-03
            4668            4865     24.9502E-03     26.7058E-03
            4668            4866     20.6856E-03     22.3394E-03
            4669            4849     20.1811E-03     22.0570E-03
            4669            4850     16.2439E-03     17.8869E-03
            4669            4866     20.6856E-03     22.3394E-03
            4669            4867     16.9495E-03     18.3631E-03
            4670             708     14.4348E-03     15.8447E-03
            4670             709     15.2414E-03     16.5592E-03
            4670            4850     16.2439E-03     17.8869E-03
            4670            4867     16.9495E-03     18.3631E-03
            4671             653     94.6496E-03     95.3176E-03
            4671             654     89.6357E-03     90.4803E-03
            4671            4851     92.0655E-03     93.1236E-03
            4671            4868     87.6173E-03     88.6229E-03
            4672            4851     92.0655E-03     93.1236E-03
            4672            4852     87.1100E-03     88.7061E-03
            4672            4868     87.6173E-03     88.6229E-03
            4672            4869     83.7159E-03     85.1258E-03
            4673            4852     87.1100E-03     88.7061E-03
            4673            4853     82.4026E-03     84.2231E-03
            4673            4869     83.7159E-03     85.1258E-03
            4673            4870     79.9221E-03     81.6704E-03
            4674            4853     82.4026E-03     84.2231E-03
            4674            4854     77.5797E-03     79.5659E-03
            4674            4870     79.9221E-03     81.6704E-03
            4674            4871     76.0469E-03     77.8087E-03
            4675            4854     77.5797E-03     79.5659E-03
            4675            4855     72.7039E-03     74.6810E-03
            4675            4871     76.0469E-03     77.8087E-03
            4675            4872     71.8764E-03     73.5334E-03
            4676            4855     72.7039E-03     74.6810E-03
            4676            4856     67.8007E-03     69.6683E-03
            4676            4872     71.8764E-03     73.5334E-03
            4676            4873     67.4360E-03     68.9543E-03
            4677            4856     67.8007E-03     69.6683E-03
            4677            4857     62.8649E-03     64.6397E-03
            4677            4873     67.4360E-03     68.9543E-03
            4677            4874     62.8373E-03     64.2008E-03
            4678            4857     62.8649E-03     64.6397E-03
            4678            4858     57.9898E-03     59.6474E-03
            4678            4874     62.8373E-03     64.2008E-03
            4678            4875     58.1308E-03     59.3899E-03
            4679            4858     57.9898E-03     59.6474E-03
            4679            4859     53.1289E-03     54.7093E-03
            4679            4875     58.1308E-03     59.3899E-03
            4679            4876     53.4125E-03     54.5839E-03
            4680            4859     53.1289E-03     54.7093E-03
            4680            4860     48.3234E-03     49.8512E-03
            4680            4876     53.4125E-03     54.5839E-03
            4680            4877     48.6791E-03     49.8107E-03
            4681            4860     48.3234E-03     49.8512E-03
            4681            4861     43.5463E-03     45.0617E-03
            4681            4877     48.6791E-03     49.8107E-03
            4681            4878     43.9709E-03     45.1027E-03
            4682            4861     43.5463E-03     45.0617E-03
            4682            4862     38.8132E-03     40.3601E-03
            4682            4878     43.9709E-03     45.1027E-03
            4682            4879     39.2756E-03     40.4595E-03
            4683            4862     38.8132E-03     40.3601E-03
            4683            4863     34.1177E-03     35.7365E-03
            4683            4879     39.2756E-03     40.4595E-03
            4683            4880     34.6019E-03     35.9063E-03
            4684            4863     34.1177E-03     35.7365E-03
            4684            4864     29.4815E-03     31.1669E-03
            4684            4880     34.6019E-03     35.9063E-03
            4684            4881     29.9791E-03     31.4429E-03
            4685            4864     29.4815E-03     31.1669E-03
            4685            4865     24.9502E-03     26.7058E-03
            4685            4881     29.9791E-03     31.4429E-03
            4685            4882     25.4881E-03     27.0324E-03
            4686            4865     24.9502E-03     26.7058E-03
            4686            4866     20.6856E-03     22.3394E-03
            4686            4882     25.4881E-03     27.0324E-03
            4686            4883     21.3121E-03     22.8752E-03
            4687            4866     20.6856E-03     22.3394E-03
            4687            4867     16.9495E-03     18.3631E-03
            4687            4883     21.3121E-03     22.8752E-03
            4687            4884     17.9165E-03     19.1113E-03
            4688             709     15.2414E-03     16.5592E-03
            4688             710     16.4996E-03     17.3140E-03
            4688            4867     16.9495E-03     18.3631E-03
            4688            4884     17.9165E-03     19.1113E-03
            4689             654     89.6357E-03     90.4803E-03
            4689             655     84.7474E-03     85.0737E-03
            4689            4868     87.6173E-03     88.6229E-03
            4689            4885     83.0220E-03     83.7995E-03
            4690            4868     87.6173E-03     88.6229E-03
            4690            4869     83.7159E-03     85.1258E-03
            4690            4885     83.0220E-03     83.7995E-03
            4690            4886     79.9115E-03     81.3023E-03
            4691            4869     83.7159E-03     85.1258E-03
            4691            4870     79.9221E-03     81.6704E-03
            4691            4886     79.9115E-03     81.3023E-03
            4691            4887     77.1364E-03     78.6541E-03
            4692            4870     79.9221E-03     81.6704E-03
            4692            4871     76.0469E-03     77.8087E-03
            4692            4887     77.1364E-03     78.6541E-03
            4692            4888     74.0782E-03     75.4885E-03
            4693            4871     76.0469E-03     77.8087E-03
            4693            4872     71.8764E-03     73.5334E-03
            4693            4888     74.0782E-03     75.4885E-03
            4693            4889     70.5263E-03     71.7332E-03
            4694            4872     71.8764E-03     73.5334E-03
            4694            4873     67.4360E-03     68.9543E-03
            4694            4889     70.5263E-03     71.7332E-03
            4694            4890     66.5285E-03     67.5487E-03
            4695            4873     67.4360E-03     68.9543E-03
            4695            4874     62.8373E-03     64.2008E-03
            4695            4890     66.5285E-03     67.5487E-03
            4695            4891     62.2376E-03     63.1213E-03
            4696            4874     62.8373E-03     64.2008E-03
            4696            4875     58.1308E-03     59.3899E-03
            4696            4891     62.2376E-03     63.1213E-03
            4696            4892     57.7899E-03     58.5660E-03
            4697            4875     58.1308E-03     59.3899E-03
            4697            4876     53.4125E-03     54.5839E-03
            4697            4892     57.7899E-03     58.5660E-03
            4697            4893     53.2482E-03     53.9663E-03
            4698            4876     53.4125E-03     54.5839E-03
            4698            4877     48.6791E-03     49.8107E-03
            4698            4893     53.2482E-03     53.9663E-03
            4698            4894     48.6878E-03     49.3737E-03
            4699            4877     48.6791E-03     49.8107E-03
            4699            4878     43.9709E-03     45.1027E-03
            4699            4894     48.6878E-03     49.3737E-03
            4699            4895     44.1150E-03     44.8151E-03
            4700            4878     43.9709E-03     45.1027E-03
            4700            4879     39.2756E-03     40.4595E-03
            4700            4895     44.1150E-03     44.8151E-03
            4700            4896     39.5591E-03     40.3251E-03
            4701            4879     39.2756E-03     40.4595E-03
            4701            4880     34.6019E-03     35.9063E-03
            4701            4896     39.5591E-03     40.3251E-03
            4701            4897     35.0145E-03     35.9182E-03
            4702            4880     34.6019E-03     35.9063E-03
            4702            4881     29.9791E-03     31.4429E-03
            4702            4897     35.0145E-03     35.9182E-03
            4702            4898     30.4934E-03     31.6646E-03
            4703            4881     29.9791E-03     31.4429E-03
            4703            4882     25.4881E-03     27.0324E-03
            4703            4898     30.4934E-03     31.6646E-03
            4703            4899     26.1199E-03     27.5543E-03
            4704            4882     25.4881E-03     27.0324E-03
            4704            4883     21.3121E-03     22.8752E-03
            4704            4899     26.1199E-03     27.5543E-03
            4704            4900     22.1467E-03     23.5458E-03
            4705            4883     21.3121E-03     22.8752E-03
            4705            4884     17.9165E-03     19.1113E-03
            4705            4900     22.1467E-03     23.5458E-03
            4705            4901     18.9994E-03     20.2389E-03
            4706             710     16.4996E-03     17.3140E-03
            4706             711     17.7011E-03     18.8984E-03
            4706            4884     17.9165E-03     19.1113E-03
            4706            4901     18.9994E-03     20.2389E-03
            4707             655     84.7474E-03     85.0737E-03
            4707             656     79.4065E-03     79.7680E-03
            4707            4885     83.0220E-03     83.7995E-03
            4707            4902     78.0137E-03     78.7466E-03
            4708            4885     83.0220E-03     83.7995E-03
            4708            4886     79.9115E-03     81.3023E-03
            4708            4902     78.0137E-03     78.7466E-03
            4708            4903     75.8343E-03     76.9811E-03
            4709            4886     79.9115E-03     81.3023E-03
            4709            4887     77.1364E-03     78.6541E-03
            4709            4903     75.8343E-03     76.9811E-03
            4709            4904     74.1027E-03     75.1474E-03
            4710            4887     77.1364E-03     78.6541E-03
            4710            4888     74.0782E-03     75.4885E-03
            4710            4904     74.1027E-03     75.1474E-03
            4710            4905     71.7686E-03     72.5358E-03
            4711            4888     74.0782E-03     75.4885E-03
            4711            4889     70.5263E-03     71.7332E-03
            4711            4905     71.7686E-03     72.5358E-03
            4711            4906     68.6724E-03     69.2218E-03
            4712            4889     70.5263E-03     71.7332E-03
            4712            4890     66.5285E-03     67.5487E-03
            4712            4906     68.6724E-03     69.2218E-03
            4712            4907     65.0624E-03     65.4558E-03
            4713            4890     66.5285E-03     67.5487E-03
            4713            4891     62.2376E-03     63.1213E-03
            4713            4907     65.0624E-03     65.4558E-03
            4713            4908     61.1028E-03     61.4034E-03
            4714            4891     62.2376E-03     63.1213E-03
            4714            4892     57.7899E-03     58.5660E-03
            4714            4908     61.1028E-03     61.4034E-03
            4714            4909     56.9370E-03     57.1878E-03
            4715            4892     57.7899E-03     58.5660E-03
            4715            4893     53.2482E-03     53.9663E-03
            4715            4909     56.9370E-03     57.1878E-03
            4715            4910     52.6659E-03     52.8881E-03
            4716            4893     53.2482E-03     53.9663E-03
            4716            4894     48.6878E-03     49.3737E-03
            4716            4910     52.6659E-03     52.8881E-03
            4716            4911     48.3393E-03     48.5625E-03
            4717            4894     48.6878E-03     49.3737E-03
            4717            4895     44.1150E-03     44.8151E-03
            4717            4911     48.3393E-03     48.5625E-03
            4717            4912     44.0099E-03     44.2496E-03
            4718            4895     44.1150E-03     44.8151E-03
            4718            4896     39.5591E-03     40.3251E-03
            4718            4912     44.0099E-03     44.2496E-03
            4718            4913     39.6850E-03     39.9878E-03
            4719            4896     39.5591E-03     40.3251E-03
            4719            4897     35.0145E-03     35.9182E-03
            4719            4913     39.6850E-03     39.9878E-03
            4719            4914     35.3925E-03     35.8261E-03
            4720            4897     35.0145E-03     35.9182E-03
            4720            4898     30.4934E-03     31.6646E-03
            4720            4914     35.3925E-03     35.8261E-03
            4720            4915     31.1294E-03     31.8254E-03
            4721            4898     30.4934E-03     31.6646E-03
            4721            4899     26.1199E-03     27.5543E-03
            4721            4915     31.1294E-03     31.8254E-03
            4721            4916     26.9362E-03     28.1806E-03
            4722            4899     26.1199E-03     27.5543E-03
            4722            4900     22.1467E-03     23.5458E-03
            4722            4916     26.9362E-03     28.1806E-03
            4722            4917     23.1814E-03     24.7656E-03
            4723            4900     22.1467E-03     23.5458E-03
            4723            4901     18.9994E-03     20.2389E-03
            4723            4917     23.1814E-03     24.7656E-03
            4723            4918     20.4282E-03     21.4944E-03
            4724             711     17.7011E-03     18.8984E-03
            4724             712     19.3669E-03     19.9442E-03
            4724            4901     18.9994E-03     20.2389E-03
            4724            4918     20.4282E-03     21.4944E-03
            4725             656     79.4065E-03     79.7680E-03
            4725             657     73.2775E-03     73.0758E-03
            4725            4902     78.0137E-03     78.7466E-03
            4725            4919     72.5201E-03     72.6820E-03
            4726            4902     78.0137E-03     78.7466E-03
            4726            4903     75.8343E-03     76.9811E-03
            4726            4919     72.5201E-03     72.6820E-03
            4726            4920     71.7492E-03     72.0562E-03
            4727            4903     75.8343E-03     76.9811E-03
            4727            4904     74.1027E-03     75.1474E-03
            4727            4920     71.7492E-03     72.0562E-03
            4727            4921     70.9734E-03     70.9521E-03
            4728            4904     74.1027E-03     75.1474E-03
            4728            4905     71.7686E-03     72.5358E-03
            4728            4921     70.9734E-03     70.9521E-03
            4728            4922     69.0273E-03     68.8009E-03
            4729            4905     71.7686E-03     72.5358E-03
            4729            4906     68.6724E-03     69.2218E-03
            4729            4922     69.0273E-03     68.8009E-03
            4729            4923     66.3149E-03     65.9754E-03
            4730            4906     68.6724E-03     69.2218E-03
            4730            4907     65.0624E-03     65.4558E-03
            4730            4923     66.3149E-03     65.9754E-03
            4730            4924     63.0542E-03     62.7037E-03
            4731            4907     65.0624E-03     65.4558E-03
            4731            4908     61.1028E-03     61.4034E-03
            4731            4924     63.0542E-03     62.7037E-03
            4731            4925     59.4609E-03     59.1255E-03
            4732            4908     61.1028E-03     61.4034E-03
            4732            4909     56.9370E-03     57.1878E-03
            4732            4925     59.4609E-03     59.1255E-03
            4732            4926     55.6484E-03     55.3476E-03
            4733            4909     56.9370E-03     57.1878E-03
            4733            4910     52.6659E-03     52.8881E-03
            4733            4926     55.6484E-03     55.3476E-03
            4733            4927     51.7128E-03     51.4515E-03
            4734            4910     52.6659E-03     52.8881E-03
            4734            4911     48.3393E-03     48.5625E-03
            4734            4927     51.7128E-03     51.4515E-03
            4734            4928     47.7186E-03     47.4886E-03
            4735            4911     48.3393E-03     48.5625E-03
            4735            4912     44.0099E-03     44.2496E-03
            4735            4928     47.7186E-03     47.4886E-03
            4735            4929     43.7088E-03     43.5151E-03
            4736            4912     44.0099E-03     44.2496E-03
            4736            4913     39.6850E-03     39.9878E-03
            4736            4929     43.7088E-03     43.5151E-03
            4736            4930     39.7253E-03     39.5665E-03
            4737            4913     39.6850E-03     39.9878E-03
            4737            4914     35.3925E-03     35.8261E-03
            4737            4930     39.7253E-03     39.5665E-03
            4737            4931     35.7911E-03     35.7173E-03
            4738            4914     35.3925E-03     35.8261E-03
            4738            4915     31.1294E-03     31.8254E-03
            4738            4931     35.7911E-03     35.7173E-03
            4738            4932     31.9446E-03     32.0444E-03
            4739            4915     31.1294E-03     31.8254E-03
            4739            4916     26.9362E-03     28.1806E-03
            4739            4932     31.9446E-03     32.0444E-03
            4739            4933     28.1782E-03     28.7574E-03
            4740            4916     26.9362E-03     28.1806E-03
            4740            4917     23.1814E-03     24.7656E-03
            4740            4933     28.1782E-03     28.7574E-03
            4740            4934     24.5782E-03     26.2571E-03
            4741            4917     23.1814E-03     24.7656E-03
            4741            4918     20.4282E-03     21.4944E-03
            4741            4934     24.5782E-03     26.2571E-03
            4741            4935     22.0949E-03     24.0601E-03
            4742             712     19.3669E-03     19.9442E-03
            4742             713     21.3411E-03     22.8667E-03
            4742            4918     20.4282E-03     21.4944E-03
            4742            4935     22.0949E-03     24.0601E-03
            4743             657     73.2775E-03     73.0758E-03
            4743             658     66.3909E-03     64.2724E-03
            4743            4919     72.5201E-03     72.6820E-03
            4743            4936     67.2196E-03     65.2781E-03
            4744            4919     72.5201E-03     72.6820E-03
            4744            4920     71.7492E-03     72.0562E-03
            4744            4936     67.2196E-03     65.2781E-03
            4744            4937     68.1156E-03     66.3328E-03
            4745            4920     71.7492E-03     72.0562E-03
            4745            4921     70.9734E-03     70.9521E-03
            4745            4937     68.1156E-03     66.3328E-03
            4745            4938     67.5451E-03     65.8047E-03
            4746            4921     70.9734E-03     70.9521E-03
            4746            4922     69.0273E-03     68.8009E-03
            4746            4938     67.5451E-03     65.8047E-03
            4746            4939     65.8348E-03     64.2673E-03
            4747            4922     69.0273E-03     68.8009E-03
            4747            4923     66.3149E-03     65.9754E-03
            4747            4939     65.8348E-03     64.2673E-03
            4747            4940     63.4430E-03     62.0975E-03
            4748            4923     66.3149E-03     65.9754E-03
            4748            4924     63.0542E-03     62.7037E-03
            4748            4940     63.4430E-03     62.0975E-03
            4748            4941     60.6026E-03     59.4602E-03
            4749            4924     63.0542E-03     62.7037E-03
            4749            4925     59.4609E-03     59.1255E-03
            4749            4941     60.6026E-03     59.4602E-03
            4749            4942     57.4375E-03     56.4790E-03
            4750            4925     59.4609E-03     59.1255E-03
            4750            4926     55.6484E-03     55.3476E-03
            4750            4942     57.4375E-03     56.4790E-03
            4750            4943     54.0646E-03     53.2559E-03
            4751            4926     55.6484E-03     55.3476E-03
            4751            4927     51.7128E-03     51.4515E-03
            4751            4943     54.0646E-03     53.2559E-03
            4751            4944     50.5489E-03     49.8559E-03
            4752            4927     51.7128E-03     51.4515E-03
            4752            4928     47.7186E-03     47.4886E-03
            4752            4944     50.5489E-03     49.8559E-03
            4752            4945     46.9616E-03     46.3537E-03
            4753            4928     47.7186E-03     47.4886E-03
            4753            4929     43.7088E-03     43.5151E-03
            4753            4945     46.9616E-03     46.3537E-03
            4753            4946     43.3491E-03     42.7937E-03
            4754            4929     43.7088E-03     43.5151E-03
            4754            4930     39.7253E-03     39.5665E-03
            4754            4946     43.3491E-03     42.7937E-03
            4754            4947     39.7770E-03     39.2448E-03
            4755            4930     39.7253E-03     39.5665E-03
            4755            4931     35.7911E-03     35.7173E-03
            4755            4947     39.7770E-03     39.2448E-03
            4755            4948     36.2846E-03     35.7593E-03
            4756            4931     35.7911E-03     35.7173E-03
            4756            4932     31.9446E-03     32.0444E-03
            4756            4948     36.2846E-03     35.7593E-03
            4756            4949     32.9681E-03     32.4594E-03
            4757            4932     31.9446E-03     32.0444E-03
            4757            4933     28.1782E-03     28.7574E-03
            4757            4949     32.9681E-03     32.4594E-03
            4757            4950     29.8437E-03     29.4676E-03
            4758            4933     28.1782E-03     28.7574E-03
            4758            4934     24.5782E-03     26.2571E-03
            4758            4950     29.8437E-03     29.4676E-03
            4758            4951     26.9757E-03     27.3186E-03
            4759            4934     24.5782E-03     26.2571E-03
            4759            4935     22.0949E-03     24.0601E-03
            4759            4951     26.9757E-03     27.3186E-03
            4759            4952     24.3738E-03     26.5717E-03
            4760             713     21.3411E-03     22.8667E-03
            4760             714     23.0996E-03     26.5570E-03
            4760            4935     22.0949E-03     24.0601E-03
            4760            4952     24.3738E-03     26.5717E-03
            4761             658     66.3909E-03     64.2724E-03
            4761             659     67.6169E-03     69.9552E-03
            4761            4936     67.2196E-03     65.2781E-03
            4761            4953     63.4604E-03     64.9056E-03
            4762            4936     67.2196E-03     65.2781E-03
            4762            4937     68.1156E-03     66.3328E-03
            4762            4953     63.4604E-03     64.9056E-03
            4762            4954     57.6131E-03     57.7653E-03
            4763            4937     68.1156E-03     66.3328E-03
            4763            4938     67.5451E-03     65.8047E-03
            4763            4954     57.6131E-03     57.7653E-03
            4763            4955     53.9821E-03     53.9784E-03
            4764            4938     67.5451E-03     65.8047E-03
            4764            4939     65.8348E-03     64.2673E-03
            4764            4955     53.9821E-03     53.9784E-03
            4764            4956     50.6159E-03     50.8131E-03
            4765            4939     65.8348E-03     64.2673E-03
            4765            4940     63.4430E-03     62.0975E-03
            4765            4956     50.6159E-03     50.8131E-03
            4765            4957     47.6491E-03     48.0030E-03
            4766            4940     63.4430E-03     62.0975E-03
            4766            4941     60.6026E-03     59.4602E-03
            4766            4957     47.6491E-03     48.0030E-03
            4766            4958     44.7320E-03     45.3217E-03
            4767            4941     60.6026E-03     59.4602E-03
            4767            4942     57.4375E-03     56.4790E-03
            4767            4958     44.7320E-03     45.3217E-03
            4767            4959     41.9261E-03     42.6707E-03
            4768            4942     57.4375E-03     56.4790E-03
            4768            4943     54.0646E-03     53.2559E-03
            4768            4959     41.9261E-03     42.6707E-03
            4768            4960     39.1054E-03     40.0060E-03
            4769            4943     54.0646E-03     53.2559E-03
            4769            4944     50.5489E-03     49.8559E-03
            4769            4960     39.1054E-03     40.0060E-03
            4769            4961     36.3148E-03     37.3136E-03
            4770            4944     50.5489E-03     49.8559E-03
            4770            4945     46.9616E-03     46.3537E-03
            4770            4961     36.3148E-03     37.3136E-03
            4770            4962     33.5147E-03     34.5932E-03
            4771            4945     46.9616E-03     46.3537E-03
            4771            4946     43.3491E-03     42.7937E-03
            4771            4962     33.5147E-03     34.5932E-03
            4771            4963     30.7501E-03     31.8644E-03
            4772            4946     43.3491E-03     42.7937E-03
            4772            4947     39.7770E-03     39.2448E-03
            4772            4963     30.7501E-03     31.8644E-03
            4772            4964     28.0266E-03     29.1541E-03
            4773            4947     39.7770E-03     39.2448E-03
            4773            4948     36.2846E-03     35.7593E-03
            4773            4964     28.0266E-03     29.1541E-03
            4773            4965     25.4085E-03     26.5022E-03
            4774            4948     36.2846E-03     35.7593E-03
            4774            4949     32.9681E-03     32.4594E-03
            4774            4965     25.4085E-03     26.5022E-03
            4774            4966     22.9337E-03     23.9915E-03
            4775            4949     32.9681E-03     32.4594E-03
            4775            4950     29.8437E-03     29.4676E-03
            4775            4966     22.9337E-03     23.9915E-03
            4775            4967     20.7237E-03     21.7086E-03
            4776            4950     29.8437E-03     29.4676E-03
            4776            4951     26.9757E-03     27.3186E-03
            4776            4967     20.7237E-03     21.7086E-03
            4776            4968     18.8372E-03     19.9774E-03
            4777            4951     26.9757E-03     27.3186E-03
            4777            4952     24.3738E-03     26.5717E-03
            4777            4968     18.8372E-03     19.9774E-03
            4777            4969     17.5471E-03     19.8454E-03
            4778             714     23.0996E-03     26.5570E-03
            4778             715     17.1497E-03     20.3845E-03
            4778            4952     24.3738E-03     26.5717E-03
            4778            4969     17.5471E-03     19.8454E-03
            4779             659     67.6169E-03     69.9552E-03
            4779             660     71.8541E-03     73.6408E-03
            4779            4953     63.4604E-03     64.9056E-03
            4779            4970     63.4818E-03     65.8573E-03
            4780            4953     63.4604E-03     64.9056E-03
            4780            4954     57.6131E-03     57.7653E-03
            4780            4970     63.4818E-03     65.8573E-03
            4780            4971     50.2281E-03     53.0513E-03
            4781            4954     57.6131E-03     57.7653E-03
            4781            4955     53.9821E-03     53.9784E-03
            4781            4971     50.2281E-03     53.0513E-03
            4781            4972     42.6268E-03     45.1989E-03
            4782            4955     53.9821E-03     53.9784E-03
            4782            4956     50.6159E-03     50.8131E-03
            4782            4972     42.6268E-03     45.1989E-03
            4782            4973     37.6250E-03     40.0963E-03
            4783            4956     50.6159E-03     50.8131E-03
            4783            4957     47.6491E-03     48.0030E-03
            4783            4973     37.6250E-03     40.0963E-03
            4783            4974     33.7000E-03     36.1874E-03
            4784            4957     47.6491E-03     48.0030E-03
            4784            4958     44.7320E-03     45.3217E-03
            4784            4974     33.7000E-03     36.1874E-03
            4784            4975     30.5698E-03     33.0951E-03
            4785            4958     44.7320E-03     45.3217E-03
            4785            4959     41.9261E-03     42.6707E-03
            4785            4975     30.5698E-03     33.0951E-03
            4785            4976     27.8241E-03     30.4069E-03
            4786            4959     41.9261E-03     42.6707E-03
            4786            4960     39.1054E-03     40.0060E-03
            4786            4976     27.8241E-03     30.4069E-03
            4786            4977     25.3618E-03     27.9917E-03
            4787            4960     39.1054E-03     40.0060E-03
            4787            4961     36.3148E-03     37.3136E-03
            4787            4977     25.3618E-03     27.9917E-03
            4787            4978     23.0365E-03     25.7036E-03
            4788            4961     36.3148E-03     37.3136E-03
            4788            4962     33.5147E-03     34.5932E-03
            4788            4978     23.0365E-03     25.7036E-03
            4788            4979     20.8178E-03     23.5066E-03
            4789            4962     33.5147E-03     34.5932E-03
            4789            4963     30.7501E-03     31.8644E-03
            4789            4979     20.8178E-03     23.5066E-03
            4789            4980     18.6573E-03     21.3530E-03
            4790            4963     30.7501E-03     31.8644E-03
            4790            4964     28.0266E-03     29.1541E-03
            4790            4980     18.6573E-03     21.3530E-03
            4790            4981     16.5711E-03     19.2548E-03
            4791            4964     28.0266E-03     29.1541E-03
            4791            4965     25.4085E-03     26.5022E-03
            4791            4981     16.5711E-03     19.2548E-03
            4791            4982     14.5529E-03     17.2125E-03
            4792            4965     25.4085E-03     26.5022E-03
            4792            4966     22.9337E-03     23.9915E-03
            4792            4982     14.5529E-03     17.2125E-03
            4792            4983     12.6776E-03     15.2960E-03
            4793            4966     22.9337E-03     23.9915E-03
            4793            4967     20.7237E-03     21.7086E-03
            4793            4983     12.6776E-03     15.2960E-03
            4793            4984     10.9811E-03     13.5557E-03
            4794            4967     20.7237E-03     21.7086E-03
            4794            4968     18.8372E-03     19.9774E-03
            4794            4984     10.9811E-03     13.5557E-03
            4794            4985     9.73881E-03     12.2951E-03
            4795            4968     18.8372E-03     19.9774E-03
            4795            4969     17.5471E-03     19.8454E-03
            4795            4985     9.73881E-03     12.2951E-03
            4795            4986     9.88478E-03     12.1204E-03
            4796             715     17.1497E-03     20.3845E-03
            4796             716     10.4563E-03     12.3769E-03
            4796            4969     17.5471E-03     19.8454E-03
            4796            4986     9.88478E-03     12.1204E-03
            4797             660     71.8541E-03     73.6408E-03
            4797             661     66.8277E-03     66.5628E-03
            4797            4970     63.4818E-03     65.8573E-03
            4797            4987     61.9571E-03     62.1600E-03
            4798            4970     63.4818E-03     65.8573E-03
            4798            4971     50.2281E-03     53.0513E-03
            4798            4987     61.9571E-03     62.1600E-03
            4798            4988     51.9121E-03     53.1594E-03
            4799            4971     50.2281E-03     53.0513E-03
            4799            4972     42.6268E-03     45.1989E-03
            4799            4988     51.9121E-03     53.1594E-03
            4799            4989     43.6557E-03     45.6333E-03
            4800            4972     42.6268E-03     45.1989E-03
            4800            4973     37.6250E-03     40.0963E-03
            4800            4989     43.6557E-03     45.6333E-03
            4800            4990     38.4303E-03     40.5510E-03
            4801            4973     37.6250E-03     40.0963E-03
            4801            4974     33.7000E-03     36.1874E-03
            4801            4990     38.4303E-03     40.5510E-03
            4801            4991     34.5123E-03     36.6751E-03
            4802            4974     33.7000E-03     36.1874E-03
            4802            4975     30.5698E-03     33.0951E-03
            4802            4991     34.5123E-03     36.6751E-03
            4802            4992     31.3317E-03     33.5375E-03
            4803            4975     30.5698E-03     33.0951E-03
            4803            4976     27.8241E-03     30.4069E-03
            4803            4992     31.3317E-03     33.5375E-03
            4803            4993     28.6190E-03     30.8320E-03
            4804            4976     27.8241E-03     30.4069E-03
            4804            4977     25.3618E-03     27.9917E-03
            4804            4993     28.6190E-03     30.8320E-03
            4804            4994     26.1370E-03     28.3646E-03
            4805            4977     25.3618E-03     27.9917E-03
            4805            4978     23.0365E-03     25.7036E-03
            4805            4994     26.1370E-03     28.3646E-03
            4805            4995     23.8133E-03     26.0414E-03
            4806            4978     23.0365E-03     25.7036E-03
            4806            4979     20.8178E-03     23.5066E-03
            4806            4995     23.8133E-03     26.0414E-03
            4806            4996     21.5656E-03     23.7930E-03
            4807            4979     20.8178E-03     23.5066E-03
            4807            4980     18.6573E-03     21.3530E-03
            4807            4996     21.5656E-03     23.7930E-03
            4807            4997     19.3872E-03     21.6017E-03
            4808            4980     18.6573E-03     21.3530E-03
            4808            4981     16.5711E-03     19.2548E-03
            4808            4997     19.3872E-03     21.6017E-03
            4808            4998     17.2669E-03     19.4594E-03
            4809            4981     16.5711E-03     19.2548E-03
            4809            4982     14.5529E-03     17.2125E-03
            4809            4998     17.2669E-03     19.4594E-03
            4809            4999     15.2411E-03     17.3895E-03
            4810            4982     14.5529E-03     17.2125E-03
            4810            4983     12.6776E-03     15.2960E-03
            4810            4999     15.2411E-03     17.3895E-03
            4810            5000     13.3673E-03     15.4417E-03
            4811            4983     12.6776E-03     15.2960E-03
            4811            4984     10.9811E-03     13.5557E-03
            4811            5000     13.3673E-03     15.4417E-03
            4811            5001     11.7332E-03     13.6933E-03
            4812            4984     10.9811E-03     13.5557E-03
            4812            4985     9.73881E-03     12.2951E-03
            4812            5001     11.7332E-03     13.6933E-03
            4812            5002     10.8107E-03     12.4232E-03
            4813            4985     9.73881E-03     12.2951E-03
            4813            4986     9.88478E-03     12.1204E-03
            4813            5002     10.8107E-03     12.4232E-03
            4813            5003     10.6235E-03     11.4930E-03
            4814             716     10.4563E-03     12.3769E-03
            4814             717     10.6139E-03     11.0161E-03
            4814            4986     9.88478E-03     12.1204E-03
            4814            5003     10.6235E-03     11.4930E-03
            4815             661     66.8277E-03     66.5628E-03
            4815             662     60.8433E-03     62.2521E-03
            4815            4987     61.9571E-03     62.1600E-03
            4815            5004     57.3430E-03     58.4620E-03
            4816            4987     61.9571E-03     62.1600E-03
            4816            4988     51.9121E-03     53.1594E-03
            4816            5004     57.3430E-03     58.4620E-03
            4816            5005     50.5219E-03     51.4417E-03
            4817            4988     51.9121E-03     53.1594E-03
            4817            4989     43.6557E-03     45.6333E-03
            4817            5005     50.5219E-03     51.4417E-03
            4817            5006     44.1323E-03     45.4503E-03
            4818            4989     43.6557E-03     45.6333E-03
            4818            4990     38.4303E-03     40.5510E-03
            4818            5006     44.1323E-03     45.4503E-03
            4818            5007     39.0004E-03     40.7201E-03
            4819            4990     38.4303E-03     40.5510E-03
            4819            4991     34.5123E-03     36.6751E-03
            4819            5007     39.0004E-03     40.7201E-03
            4819            5008     35.2757E-03     37.0926E-03
            4820            4991     34.5123E-03     36.6751E-03
            4820            4992     31.3317E-03     33.5375E-03
            4820            5008     35.2757E-03     37.0926E-03
            4820            5009     32.1793E-03     34.0230E-03
            4821            4992     31.3317E-03     33.5375E-03
            4821            4993     28.6190E-03     30.8320E-03
            4821            5009     32.1793E-03     34.0230E-03
            4821            5010     29.4821E-03     31.3275E-03
            4822            4993     28.6190E-03     30.8320E-03
            4822            4994     26.1370E-03     28.3646E-03
            4822            5010     29.4821E-03     31.3275E-03
            4822            5011     27.0109E-03     28.8325E-03
            4823            4994     26.1370E-03     28.3646E-03
            4823            4995     23.8133E-03     26.0414E-03
            4823            5011     27.0109E-03     28.8325E-03
            4823            5012     24.6586E-03     26.4630E-03
            4824            4995     23.8133E-03     26.0414E-03
            4824            4996     21.5656E-03     23.7930E-03
            4824            5012     24.6586E-03     26.4630E-03
            4824            5013     22.3881E-03     24.1693E-03
            4825            4996     21.5656E-03     23.7930E-03
            4825            4997     19.3872E-03     21.6017E-03
            4825            5013     22.3881E-03     24.1693E-03
            4825            5014     20.1756E-03     21.9342E-03
            4826            4997     19.3872E-03     21.6017E-03
            4826            4998     17.2669E-03     19.4594E-03
            4826            5014     20.1756E-03     21.9342E-03
            4826            5015     18.0304E-03     19.7549E-03
            4827            4998     17.2669E-03     19.4594E-03
            4827            4999     15.2411E-03     17.3895E-03
            4827            5015     18.0304E-03     19.7549E-03
            4827            5016     15.9956E-03     17.6627E-03
            4828            4999     15.2411E-03     17.3895E-03
            4828            5000     13.3673E-03     15.4417E-03
            4828            5016     15.9956E-03     17.6627E-03
            4828            5017     14.1164E-03     15.6831E-03
            4829            5000     13.3673E-03     15.4417E-03
            4829            5001     11.7332E-03     13.6933E-03
            4829            5017     14.1164E-03     15.6831E-03
            4829            5018     12.6009E-03     13.9520E-03
            4830            5001     11.7332E-03     13.6933E-03
            4830            5002     10.8107E-03     12.4232E-03
            4830            5018     12.6009E-03     13.9520E-03
            4830            5019     11.5728E-03     12.5067E-03
            4831            5002     10.8107E-03     12.4232E-03
            4831            5003     10.6235E-03     11.4930E-03
            4831            5019     11.5728E-03     12.5067E-03
            4831            5020     10.8942E-03     11.4372E-03
            4832             717     10.6139E-03     11.0161E-03
            4832             718     10.6323E-03     11.0488E-03
            4832            5003     10.6235E-03     11.4930E-03
            4832            5020     10.8942E-03     11.4372E-03
            4833             662     60.8433E-03     62.2521E-03
            4833             663     56.2281E-03     56.4645E-03
            4833            5004     57.3430E-03     58.4620E-03
            4833            5021     53.1733E-03     53.7487E-03
            4834            5004     57.3430E-03     58.4620E-03
            4834            5005     50.5219E-03     51.4417E-03
            4834            5021     53.1733E-03     53.7487E-03
            4834            5022     47.5945E-03     48.6142E-03
            4835            5005     50.5219E-03     51.4417E-03
            4835            5006     44.1323E-03     45.4503E-03
            4835            5022     47.5945E-03     48.6142E-03
            4835            5023     43.0191E-03     44.1802E-03
            4836            5006     44.1323E-03     45.4503E-03
            4836            5007     39.0004E-03     40.7201E-03
            4836            5023     43.0191E-03     44.1802E-03
            4836            5024     39.0685E-03     40.4053E-03
            4837            5007     39.0004E-03     40.7201E-03
            4837            5008     35.2757E-03     37.0926E-03
            4837            5024     39.0685E-03     40.4053E-03
            4837            5025     35.7057E-03     37.1901E-03
            4838            5008     35.2757E-03     37.0926E-03
            4838            5009     32.1793E-03     34.0230E-03
            4838            5025     35.7057E-03     37.1901E-03
            4838            5026     32.8906E-03     34.3699E-03
            4839            5009     32.1793E-03     34.0230E-03
            4839            5010     29.4821E-03     31.3275E-03
            4839            5026     32.8906E-03     34.3699E-03
            4839            5027     30.2943E-03     31.7474E-03
            4840            5010     29.4821E-03     31.3275E-03
            4840            5011     27.0109E-03     28.8325E-03
            4840            5027     30.2943E-03     31.7474E-03
            4840            5028     27.8580E-03     29.2720E-03
            4841            5011     27.0109E-03     28.8325E-03
            4841            5012     24.6586E-03     26.4630E-03
            4841            5028     27.8580E-03     29.2720E-03
            4841            5029     25.5026E-03     26.8781E-03
            4842            5012     24.6586E-03     26.4630E-03
            4842            5013     22.3881E-03     24.1693E-03
            4842            5029     25.5026E-03     26.8781E-03
            4842            5030     23.2106E-03     24.5557E-03
            4843            5013     22.3881E-03     24.1693E-03
            4843            5014     20.1756E-03     21.9342E-03
            4843            5030     23.2106E-03     24.5557E-03
            4843            5031     20.9697E-03     22.2879E-03
            4844            5014     20.1756E-03     21.9342E-03
            4844            5015     18.0304E-03     19.7549E-03
            4844            5031     20.9697E-03     22.2879E-03
            4844            5032     18.8057E-03     20.0909E-03
            4845            5015     18.0304E-03     19.7549E-03
            4845            5016     15.9956E-03     17.6627E-03
            4845            5032     18.8057E-03     20.0909E-03
            4845            5033     16.7391E-03     17.9711E-03
            4846            5016     15.9956E-03     17.6627E-03
            4846            5017     14.1164E-03     15.6831E-03
            4846            5033     16.7391E-03     17.9711E-03
            4846            5034     14.8759E-03     16.0004E-03
            4847            5017     14.1164E-03     15.6831E-03
            4847            5018     12.6009E-03     13.9520E-03
            4847            5034     14.8759E-03     16.0004E-03
            4847            5035     13.3155E-03     14.2128E-03
            4848            5018     12.6009E-03     13.9520E-03
            4848            5019     11.5728E-03     12.5067E-03
            4848            5035     13.3155E-03     14.2128E-03
            4848            5036     12.1112E-03     12.7329E-03
            4849            5019     11.5728E-03     12.5067E-03
            4849            5020     10.8942E-03     11.4372E-03
            4849            5036     12.1112E-03     12.7329E-03
            4849            5037     11.4908E-03     11.6894E-03
            4850             718     10.6323E-03     11.0488E-03
            4850             719     11.3621E-03     11.2643E-03
            4850            5020     10.8942E-03     11.4372E-03
            4850            5037     11.4908E-03     11.6894E-03
            4851             663     56.2281E-03     56.4645E-03
            4851             664     51.0619E-03     51.7046E-03
            4851            5021     53.1733E-03     53.7487E-03
            4851            5038     48.7003E-03     49.2988E-03
            4852            5021     53.1733E-03     53.7487E-03
            4852            5022     47.5945E-03     48.6142E-03
            4852            5038     48.7003E-03     49.2988E-03
            4852            5039     44.4896E-03     45.2300E-03
            4853            5022     47.5945E-03     48.6142E-03
            4853            5023     43.0191E-03     44.1802E-03
            4853            5039     44.4896E-03     45.2300E-03
            4853            5040     41.1122E-03     42.1629E-03
            4854            5023     43.0191E-03     44.1802E-03
            4854            5024     39.0685E-03     40.4053E-03
            4854            5040     41.1122E-03     42.1629E-03
            4854            5041     38.3332E-03     39.4725E-03
            4855            5024     39.0685E-03     40.4053E-03
            4855            5025     35.7057E-03     37.1901E-03
            4855            5041     38.3332E-03     39.4725E-03
            4855            5042     35.7785E-03     36.9093E-03
            4856            5025     35.7057E-03     37.1901E-03
            4856            5026     32.8906E-03     34.3699E-03
            4856            5042     35.7785E-03     36.9093E-03
            4856            5043     33.3052E-03     34.4164E-03
            4857            5026     32.8906E-03     34.3699E-03
            4857            5027     30.2943E-03     31.7474E-03
            4857            5043     33.3052E-03     34.4164E-03
            4857            5044     30.9325E-03     31.9712E-03
            4858            5027     30.2943E-03     31.7474E-03
            4858            5028     27.8580E-03     29.2720E-03
            4858            5044     30.9325E-03     31.9712E-03
            4858            5045     28.5666E-03     29.5526E-03
            4859            5028     27.8580E-03     29.2720E-03
            4859            5029     25.5026E-03     26.8781E-03
            4859            5045     28.5666E-03     29.5526E-03
            4859            5046     26.2470E-03     27.1855E-03
            4860            5029     25.5026E-03     26.8781E-03
            4860            5030     23.2106E-03     24.5557E-03
            4860            5046     26.2470E-03     27.1855E-03
            4860            5047     23.9522E-03     24.8594E-03
            4861            5030     23.2106E-03     24.5557E-03
            4861            5031     20.9697E-03     22.2879E-03
            4861            5047     23.9522E-03     24.8594E-03
            4861            5048     21.7093E-03     22.5938E-03
            4862            5031     20.9697E-03     22.2879E-03
            4862            5032     18.8057E-03     20.0909E-03
            4862            5048     21.7093E-03     22.5938E-03
            4862            5049     19.5198E-03     20.3926E-03
            4863            5032     18.8057E-03     20.0909E-03
            4863            5033     16.7391E-03     17.9711E-03
            4863            5049     19.5198E-03     20.3926E-03
            4863            5050     17.4443E-03     18.2897E-03
            4864            5033     16.7391E-03     17.9711E-03
            4864            5034     14.8759E-03     16.0004E-03
            4864            5050     17.4443E-03     18.2897E-03
            4864            5051     15.5376E-03     16.3048E-03
            4865            5034     14.8759E-03     16.0004E-03
            4865            5035     13.3155E-03     14.2128E-03
            4865            5051     15.5376E-03     16.3048E-03
            4865            5052     13.8956E-03     14.5324E-03
            4866            5035     13.3155E-03     14.2128E-03
            4866            5036     12.1112E-03     12.7329E-03
            4866            5052     13.8956E-03     14.5324E-03
            4866            5053     12.7194E-03     13.0540E-03
            4867            5036     12.1112E-03     12.7329E-03
            4867            5037     11.4908E-03     11.6894E-03
            4867            5053     12.7194E-03     13.0540E-03
            4867            5054     12.1048E-03     12.0963E-03
            4868             719     11.3621E-03     11.2643E-03
            4868             720     11.9402E-03     11.8108E-03
            4868            5037     11.4908E-03     11.6894E-03
            4868            5054     12.1048E-03     12.0963E-03
            4869             664     51.0619E-03     51.7046E-03
            4869             665     46.4971E-03     46.5208E-03
            4869            5038     48.7003E-03     49.2988E-03
            4869            5055     44.3505E-03     44.6769E-03
            4870            5038     48.7003E-03     49.2988E-03
            4870            5039     44.4896E-03     45.2300E-03
            4870            5055     44.3505E-03     44.6769E-03
            4870            5056     40.9865E-03     41.7095E-03
            4871            5039     44.4896E-03     45.2300E-03
            4871            5040     41.1122E-03     42.1629E-03
            4871            5056     40.9865E-03     41.7095E-03
            4871            5057     38.9192E-03     39.7668E-03
            4872            5040     41.1122E-03     42.1629E-03
            4872            5041     38.3332E-03     39.4725E-03
            4872            5057     38.9192E-03     39.7668E-03
            4872            5058     37.1804E-03     38.0733E-03
            4873            5041     38.3332E-03     39.4725E-03
            4873            5042     35.7785E-03     36.9093E-03
            4873            5058     37.1804E-03     38.0733E-03
            4873            5059     35.4070E-03     36.2091E-03
            4874            5042     35.7785E-03     36.9093E-03
            4874            5043     33.3052E-03     34.4164E-03
            4874            5059     35.4070E-03     36.2091E-03
            4874            5060     33.4343E-03     34.1107E-03
            4875            5043     33.3052E-03     34.4164E-03
            4875            5044     30.9325E-03     31.9712E-03
            4875            5060     33.4343E-03     34.1107E-03
            4875            5061     31.2717E-03     31.8735E-03
            4876            5044     30.9325E-03     31.9712E-03
            4876            5045     28.5666E-03     29.5526E-03
            4876            5061     31.2717E-03     31.8735E-03
            4876            5062     29.0566E-03     29.5838E-03
            4877            5045     28.5666E-03     29.5526E-03
            4877            5046     26.2470E-03     27.1855E-03
            4877            5062     29.0566E-03     29.5838E-03
            4877            5063     26.7933E-03     27.2795E-03
            4878            5046     26.2470E-03     27.1855E-03
            4878            5047     23.9522E-03     24.8594E-03
            4878            5063     26.7933E-03     27.2795E-03
            4878            5064     24.5479E-03     25.0059E-03
            4879            5047     23.9522E-03     24.8594E-03
            4879            5048     21.7093E-03     22.5938E-03
            4879            5064     24.5479E-03     25.0059E-03
            4879            5065     22.3220E-03     22.7756E-03
            4880            5048     21.7093E-03     22.5938E-03
            4880            5049     19.5198E-03     20.3926E-03
            4880            5065     22.3220E-03     22.7756E-03
            4880            5066     20.1534E-03     20.6162E-03
            4881            5049     19.5198E-03     20.3926E-03
            4881            5050     17.4443E-03     18.2897E-03
            4881            5066     20.1534E-03     20.6162E-03
            4881            5067     18.0582E-03     18.5535E-03
            4882            5050     17.4443E-03     18.2897E-03
            4882            5051     15.5376E-03     16.3048E-03
            4882            5067     18.0582E-03     18.5535E-03
            4882            5068     16.1160E-03     16.6236E-03
            4883            5051     15.5376E-03     16.3048E-03
            4883            5052     13.8956E-03     14.5324E-03
            4883            5068     16.1160E-03     16.6236E-03
            4883            5069     14.4556E-03     14.8708E-03
            4884            5052     13.8956E-03     14.5324E-03
            4884            5053     12.7194E-03     13.0540E-03
            4884            5069     14.4556E-03     14.8708E-03
            4884            5070     13.2566E-03     13.4927E-03
            4885            5053     12.7194E-03     13.0540E-03
            4885            5054     12.1048E-03     12.0963E-03
            4885            5070     13.2566E-03     13.4927E-03
            4885            5071     12.7882E-03     12.6322E-03
            4886             720     11.9402E-03     11.8108E-03
            4886             721     12.7707E-03     12.3233E-03
            4886            5054     12.1048E-03     12.0963E-03
            4886            5071     12.7882E-03     12.6322E-03
            4887             665     46.4971E-03     46.5208E-03
            4887             666     41.4356E-03     41.5198E-03
            4887            5055     44.3505E-03     44.6769E-03
            4887            5072     39.7473E-03     39.9585E-03
            4888            5055     44.3505E-03     44.6769E-03
            4888            5056     40.9865E-03     41.7095E-03
            4888            5072     39.7473E-03     39.9585E-03
            4888            5073     37.4036E-03     37.9274E-03
            4889            5056     40.9865E-03     41.7095E-03
            4889            5057     38.9192E-03     39.7668E-03
            4889            5073     37.4036E-03     37.9274E-03
            4889            5074     36.4761E-03     37.1697E-03
            4890            5057     38.9192E-03     39.7668E-03
            4890            5058     37.1804E-03     38.0733E-03
            4890            5074     36.4761E-03     37.1697E-03
            4890            5075     35.8577E-03     36.3886E-03
            4891            5058     37.1804E-03     38.0733E-03
            4891            5059     35.4070E-03     36.2091E-03
            4891            5075     35.8577E-03     36.3886E-03
            4891            5076     34.7725E-03     35.1090E-03
            4892            5059     35.4070E-03     36.2091E-03
            4892            5060     33.4343E-03     34.1107E-03
            4892            5076     34.7725E-03     35.1090E-03
            4892            5077     33.1819E-03     33.3850E-03
            4893            5060     33.4343E-03     34.1107E-03
            4893            5061     31.2717E-03     31.8735E-03
            4893            5077     33.1819E-03     33.3850E-03
            4893            5078     31.3007E-03     31.3991E-03
            4894            5061     31.2717E-03     31.8735E-03
            4894            5062     29.0566E-03     29.5838E-03
            4894            5078     31.3007E-03     31.3991E-03
            4894            5079     29.2270E-03     29.2741E-03
            4895            5062     29.0566E-03     29.5838E-03
            4895            5063     26.7933E-03     27.2795E-03
            4895            5079     29.2270E-03     29.2741E-03
            4895            5080     27.0930E-03     27.1033E-03
            4896            5063     26.7933E-03     27.2795E-03
            4896            5064     24.5479E-03     25.0059E-03
            4896            5080     27.0930E-03     27.1033E-03
            4896            5081     24.9286E-03     24.9296E-03
            4897            5064     24.5479E-03     25.0059E-03
            4897            5065     22.3220E-03     22.7756E-03
            4897            5081     24.9286E-03     24.9296E-03
            4897            5082     22.7842E-03     22.7944E-03
            4898            5065     22.3220E-03     22.7756E-03
            4898            5066     20.1534E-03     20.6162E-03
            4898            5082     22.7842E-03     22.7944E-03
            4898            5083     20.6714E-03     20.7231E-03
            4899            5066     20.1534E-03     20.6162E-03
            4899            5067     18.0582E-03     18.5535E-03
            4899            5083     20.6714E-03     20.7231E-03
            4899            5084     18.6161E-03     18.7470E-03
            4900            5067     18.0582E-03     18.5535E-03
            4900            5068     16.1160E-03     16.6236E-03
            4900            5084     18.6161E-03     18.7470E-03
            4900            5085     16.6597E-03     16.9324E-03
            4901            5068     16.1160E-03     16.6236E-03
            4901            5069     14.4556E-03     14.8708E-03
            4901            5085     16.6597E-03     16.9324E-03
            4901            5086     14.9782E-03     15.3140E-03
            4902            5069     14.4556E-03     14.8708E-03
            4902            5070     13.2566E-03     13.4927E-03
            4902            5086     14.9782E-03     15.3140E-03
            4902            5087     13.8152E-03     13.9800E-03
            4903            5070     13.2566E-03     13.4927E-03
            4903            5071     12.7882E-03     12.6322E-03
            4903            5087     13.8152E-03     13.9800E-03
            4903            5088     13.4395E-03     13.3637E-03
            4904             721     12.7707E-03     12.3233E-03
            4904             722     13.4893E-03     13.3169E-03
            4904            5071     12.7882E-03     12.6322E-03
            4904            5088     13.4395E-03     13.3637E-03
            4905             666     41.4356E-03     41.5198E-03
            4905             667     36.5795E-03     36.0477E-03
            4905            5072     39.7473E-03     39.9585E-03
            4905            5089     34.9855E-03     34.9174E-03
            4906            5072     39.7473E-03     39.9585E-03
            4906            5073     37.4036E-03     37.9274E-03
            4906            5089     34.9855E-03     34.9174E-03
            4906            5090     33.5626E-03     33.9872E-03
            4907            5073     37.4036E-03     37.9274E-03
            4907            5074     36.4761E-03     37.1697E-03
            4907            5090     33.5626E-03     33.9872E-03
            4907            5091     34.1933E-03     34.4467E-03
            4908            5074     36.4761E-03     37.1697E-03
            4908            5075     35.8577E-03     36.3886E-03
            4908            5091     34.1933E-03     34.4467E-03
            4908            5092     34.4855E-03     34.4316E-03
            4909            5075     35.8577E-03     36.3886E-03
            4909            5076     34.7725E-03     35.1090E-03
            4909            5092     34.4855E-03     34.4316E-03
            4909            5093     33.8411E-03     33.5810E-03
            4910            5076     34.7725E-03     35.1090E-03
            4910            5077     33.1819E-03     33.3850E-03
            4910            5093     33.8411E-03     33.5810E-03
            4910            5094     32.5875E-03     32.2065E-03
            4911            5077     33.1819E-03     33.3850E-03
            4911            5078     31.3007E-03     31.3991E-03
            4911            5094     32.5875E-03     32.2065E-03
            4911            5095     30.9317E-03     30.4939E-03
            4912            5078     31.3007E-03     31.3991E-03
            4912            5079     29.2270E-03     29.2741E-03
            4912            5095     30.9317E-03     30.4939E-03
            4912            5096     29.0699E-03     28.6012E-03
            4913            5079     29.2270E-03     29.2741E-03
            4913            5080     27.0930E-03     27.1033E-03
            4913            5096     29.0699E-03     28.6012E-03
            4913            5097     27.0938E-03     26.6224E-03
            4914            5080     27.0930E-03     27.1033E-03
            4914            5081     24.9286E-03     24.9296E-03
            4914            5097     27.0938E-03     26.6224E-03
            4914            5098     25.0857E-03     24.6228E-03
            4915            5081     24.9286E-03     24.9296E-03
            4915            5082     22.7842E-03     22.7944E-03
            4915            5098     25.0857E-03     24.6228E-03
            4915            5099     23.0763E-03     22.6413E-03
            4916            5082     22.7842E-03     22.7944E-03
            4916            5083     20.6714E-03     20.7231E-03
            4916            5099     23.0763E-03     22.6413E-03
            4916            5100     21.0897E-03     20.7157E-03
            4917            5083     20.6714E-03     20.7231E-03
            4917            5084     18.6161E-03     18.7470E-03
            4917            5100     21.0897E-03     20.7157E-03
            4917            5101     19.1490E-03     18.8875E-03
            4918            5084     18.6161E-03     18.7470E-03
            4918            5085     16.6597E-03     16.9324E-03
            4918            5101     19.1490E-03     18.8875E-03
            4918            5102     17.2622E-03     17.2149E-03
            4919            5085     16.6597E-03     16.9324E-03
            4919            5086     14.9782E-03     15.3140E-03
            4919            5102     17.2622E-03     17.2149E-03
            4919            5103     15.5236E-03     15.8433E-03
            4920            5086     14.9782E-03     15.3140E-03
            4920            5087     13.8152E-03     13.9800E-03
            4920            5103     15.5236E-03     15.8433E-03
            4920            5104     14.3861E-03     14.7617E-03
            4921            5087     13.8152E-03     13.9800E-03
            4921            5088     13.4395E-03     13.3637E-03
            4921            5104     14.3861E-03     14.7617E-03
            4921            5105     14.1752E-03     14.0940E-03
            4922             722     13.4893E-03     13.3169E-03
            4922             723     14.3011E-03     13.9244E-03
            4922            5088     13.4395E-03     13.3637E-03
            4922            5105     14.1752E-03     14.0940E-03
            4923             667     36.5795E-03     36.0477E-03
            4923             668     30.9626E-03     30.4172E-03
            4923            5089     34.9855E-03     34.9174E-03
            4923            5106     29.8091E-03     29.5722E-03
            4924            5089     34.9855E-03     34.9174E-03
            4924            5090     33.5626E-03     33.9872E-03
            4924            5106     29.8091E-03     29.5722E-03
            4924            5107     30.1694E-03     29.9624E-03
            4925            5090     33.5626E-03     33.9872E-03
            4925            5091     34.1933E-03     34.4467E-03
            4925            5107     30.1694E-03     29.9624E-03
            4925            5108     32.3053E-03     31.6359E-03
            4926            5091     34.1933E-03     34.4467E-03
            4926            5092     34.4855E-03     34.4316E-03
            4926            5108     32.3053E-03     31.6359E-03
            4926            5109     32.9397E-03     32.0215E-03
            4927            5092     34.4855E-03     34.4316E-03
            4927            5093     33.8411E-03     33.5810E-03
            4927            5109     32.9397E-03     32.0215E-03
            4927            5110     32.5760E-03     31.5738E-03
            4928            5093     33.8411E-03     33.5810E-03
            4928            5094     32.5875E-03     32.2065E-03
            4928            5110     32.5760E-03     31.5738E-03
            4928            5111     31.5812E-03     30.5530E-03
            4929            5094     32.5875E-03     32.2065E-03
            4929            5095     30.9317E-03     30.4939E-03
            4929            5111     31.5812E-03     30.5530E-03
            4929            5112     30.1892E-03     29.1758E-03
            4930            5095     30.9317E-03     30.4939E-03
            4930            5096     29.0699E-03     28.6012E-03
            4930            5112     30.1892E-03     29.1758E-03
            4930            5113     28.5715E-03     27.5882E-03
            4931            5096     29.0699E-03     28.6012E-03
            4931            5097     27.0938E-03     26.6224E-03
            4931            5113     28.5715E-03     27.5882E-03
            4931            5114     26.8318E-03     25.8818E-03
            4932            5097     27.0938E-03     26.6224E-03
            4932            5098     25.0857E-03     24.6228E-03
            4932            5114     26.8318E-03     25.8818E-03
            4932            5115     25.0357E-03     24.1263E-03
            4933            5098     25.0857E-03     24.6228E-03
            4933            5099     23.0763E-03     22.6413E-03
            4933            5115     25.0357E-03     24.1263E-03
            4933            5116     23.2290E-03     22.3674E-03
            4934            5099     23.0763E-03     22.6413E-03
            4934            5100     21.0897E-03     20.7157E-03
            4934            5116     23.2290E-03     22.3674E-03
            4934            5117     21.4427E-03     20.6465E-03
            4935            5100     21.0897E-03     20.7157E-03
            4935            5101     19.1490E-03     18.8875E-03
            4935            5117     21.4427E-03     20.6465E-03
            4935            5118     19.6863E-03     19.0128E-03
            4936            5101     19.1490E-03     18.8875E-03
            4936            5102     17.2622E-03     17.2149E-03
            4936            5118     19.6863E-03     19.0128E-03
            4936            5119     17.9966E-03     17.5320E-03
            4937            5102     17.2622E-03     17.2149E-03
            4937            5103     15.5236E-03     15.8433E-03
            4937            5119     17.9966E-03     17.5320E-03
            4937            5120     16.3445E-03     16.3531E-03
            4938            5103     15.5236E-03     15.8433E-03
            4938            5104     14.3861E-03     14.7617E-03
            4938            5120     16.3445E-03     16.3531E-03
            4938            5121     14.9491E-03     15.7462E-03
            4939            5104     14.3861E-03     14.7617E-03
            4939            5105     14.1752E-03     14.0940E-03
            4939            5121     14.9491E-03     15.7462E-03
            4939            5122     14.9077E-03     15.5718E-03
            4940             723     14.3011E-03     13.9244E-03
            4940             724     15.4236E-03     15.5195E-03
            4940            5105     14.1752E-03     14.0940E-03
            4940            5122     14.9077E-03     15.5718E-03
            4941             668     30.9626E-03     30.4172E-03
            4941             669     24.6136E-03     23.6231E-03
            4941            5106     29.8091E-03     29.5722E-03
            4941            5123     25.5256E-03     24.1398E-03
            4942            5106     29.8091E-03     29.5722E-03
            4942            5107     30.1694E-03     29.9624E-03
            4942            5123     25.5256E-03     24.1398E-03
            4942            5124     28.1851E-03     26.2232E-03
            4943            5107     30.1694E-03     29.9624E-03
            4943            5108     32.3053E-03     31.6359E-03
            4943            5124     28.1851E-03     26.2232E-03
            4943            5125     30.4152E-03     28.3446E-03
            4944            5108     32.3053E-03     31.6359E-03
            4944            5109     32.9397E-03     32.0215E-03
            4944            5125     30.4152E-03     28.3446E-03
            4944            5126     31.0384E-03     29.0944E-03
            4945            5109     32.9397E-03     32.0215E-03
            4945            5110     32.5760E-03     31.5738E-03
            4945            5126     31.0384E-03     29.0944E-03
            4945            5127     30.9088E-03     29.0888E-03
            4946            5110     32.5760E-03     31.5738E-03
            4946            5111     31.5812E-03     30.5530E-03
            4946            5127     30.9088E-03     29.0888E-03
            4946            5128     30.1903E-03     28.5074E-03
            4947            5111     31.5812E-03     30.5530E-03
            4947            5112     30.1892E-03     29.1758E-03
            4947            5128     30.1903E-03     28.5074E-03
            4947            5129     29.1352E-03     27.5655E-03
            4948            5112     30.1892E-03     29.1758E-03
            4948            5113     28.5715E-03     27.5882E-03
            4948            5129     29.1352E-03     27.5655E-03
            4948            5130     27.8359E-03     26.3630E-03
            4949            5113     28.5715E-03     27.5882E-03
            4949            5114     26.8318E-03     25.8818E-03
            4949            5130     27.8359E-03     26.3630E-03
            4949            5131     26.3946E-03     25.0093E-03
            4950            5114     26.8318E-03     25.8818E-03
            4950            5115     25.0357E-03     24.1263E-03
            4950            5131     26.3946E-03     25.0093E-03
            4950            5132     24.8722E-03     23.5600E-03
            4951            5115     25.0357E-03     24.1263E-03
            4951            5116     23.2290E-03     22.3674E-03
            4951            5132     24.8722E-03     23.5600E-03
            4951            5133     23.3169E-03     22.0806E-03
            4952            5116     23.2290E-03     22.3674E-03
            4952            5117     21.4427E-03     20.6465E-03
            4952            5133     23.3169E-03     22.0806E-03
            4952            5134     21.7737E-03     20.6114E-03
            4953            5117     21.4427E-03     20.6465E-03
            4953            5118     19.6863E-03     19.0128E-03
            4953            5134     21.7737E-03     20.6114E-03
            4953            5135     20.2730E-03     19.2114E-03
            4954            5118     19.6863E-03     19.0128E-03
            4954            5119     17.9966E-03     17.5320E-03
            4954            5135     20.2730E-03     19.2114E-03
            4954            5136     18.8519E-03     17.9449E-03
            4955            5119     17.9966E-03     17.5320E-03
            4955            5120     16.3445E-03     16.3531E-03
            4955            5136     18.8519E-03     17.9449E-03
            4955            5137     17.5294E-03     16.9228E-03
            4956            5120     16.3445E-03     16.3531E-03
            4956            5121     14.9491E-03     15.7462E-03
            4956            5137     17.5294E-03     16.9228E-03
            4956            5138     16.2319E-03     16.4699E-03
            4957            5121     14.9491E-03     15.7462E-03
            4957            5122     14.9077E-03     15.5718E-03
            4957            5138     16.2319E-03     16.4699E-03
            4957            5139     15.4405E-03     17.1930E-03
            4958             724     15.4236E-03     15.5195E-03
            4958             725     15.3059E-03     17.9401E-03
            4958            5122     14.9077E-03     15.5718E-03
            4958            5139     15.4405E-03     17.1930E-03
            4959             669     24.6136E-03     23.6231E-03
            4959             670     23.5712E-03     25.8601E-03
            4959            5123     25.5256E-03     24.1398E-03
            4959            5140     21.2420E-03     22.7710E-03
            4960            5123     25.5256E-03     24.1398E-03
            4960            5124     28.1851E-03     26.2232E-03
            4960            5140     21.2420E-03     22.7710E-03
            4960            5141     18.9221E-03     19.4661E-03
            4961            5124     28.1851E-03     26.2232E-03
            4961            5125     30.4152E-03     28.3446E-03
            4961            5141     18.9221E-03     19.4661E-03
            4961            5142     19.0139E-03     19.4190E-03
            4962            5125     30.4152E-03     28.3446E-03
            4962            5126     31.0384E-03     29.0944E-03
            4962            5142     19.0139E-03     19.4190E-03
            4962            5143     19.0869E-03     19.5899E-03
            4963            5126     31.0384E-03     29.0944E-03
            4963            5127     30.9088E-03     29.0888E-03
            4963            5143     19.0869E-03     19.5899E-03
            4963            5144     18.9370E-03     19.5005E-03
            4964            5127     30.9088E-03     29.0888E-03
            4964            5128     30.1903E-03     28.5074E-03
            4964            5144     18.9370E-03     19.5005E-03
            4964            5145     18.5181E-03     19.1569E-03
            4965            5128     30.1903E-03     28.5074E-03
            4965            5129     29.1352E-03     27.5655E-03
            4965            5145     18.5181E-03     19.1569E-03
            4965            5146     17.9025E-03     18.5822E-03
            4966            5129     29.1352E-03     27.5655E-03
            4966            5130     27.8359E-03     26.3630E-03
            4966            5146     17.9025E-03     18.5822E-03
            4966            5147     17.1763E-03     17.8803E-03
            4967            5130     27.8359E-03     26.3630E-03
            4967            5131     26.3946E-03     25.0093E-03
            4967            5147     17.1763E-03     17.8803E-03
            4967            5148     16.3734E-03     17.0727E-03
            4968            5131     26.3946E-03     25.0093E-03
            4968            5132     24.8722E-03     23.5600E-03
            4968            5148     16.3734E-03     17.0727E-03
            4968            5149     15.5409E-03     16.2219E-03
            4969            5132     24.8722E-03     23.5600E-03
            4969            5133     23.3169E-03     22.0806E-03
            4969            5149     15.5409E-03     16.2219E-03
            4969            5150     14.6998E-03     15.3409E-03
            4970            5133     23.3169E-03     22.0806E-03
            4970            5134     21.7737E-03     20.6114E-03
            4970            5150     14.6998E-03     15.3409E-03
            4970            5151     13.8830E-03     14.4741E-03
            4971            5134     21.7737E-03     20.6114E-03
            4971            5135     20.2730E-03     19.2114E-03
            4971            5151     13.8830E-03     14.4741E-03
            4971            5152     13.1133E-03     13.6354E-03
            4972            5135     20.2730E-03     19.2114E-03
            4972            5136     18.8519E-03     17.9449E-03
            4972            5152     13.1133E-03     13.6354E-03
            4972            5153     12.4468E-03     12.9001E-03
            4973            5136     18.8519E-03     17.9449E-03
            4973            5137     17.5294E-03     16.9228E-03
            4973            5153     12.4468E-03     12.9001E-03
            4973            5154     11.9160E-03     12.2920E-03
            4974            5137     17.5294E-03     16.9228E-03
            4974            5138     16.2319E-03     16.4699E-03
            4974            5154     11.9160E-03     12.2920E-03
            4974            5155     11.4502E-03     12.1473E-03
            4975            5138     16.2319E-03     16.4699E-03
            4975            5139     15.4405E-03     17.1930E-03
            4975            5155     11.4502E-03     12.1473E-03
            4975            5156     10.8685E-03     13.3645E-03
            4976             725     15.3059E-03     17.9401E-03
            4976             726     10.5127E-03     14.4227E-03
            4976            5139     15.4405E-03     17.1930E-03
            4976            5156     10.8685E-03     13.3645E-03
            4977             670     23.5712E-03     25.8601E-03
            4977             671     23.8633E-03     25.9036E-03
            4977            5140     21.2420E-03     22.7710E-03
            4977            5157     18.2373E-03     20.7257E-03
            4978            5140     21.2420E-03     22.7710E-03
            4978            5141     18.9221E-03     19.4661E-03
            4978            5157     18.2373E-03     20.7257E-03
            4978            5158     10.9449E-03     13.8878E-03
            4979            5141     18.9221E-03     19.4661E-03
            4979            5142     19.0139E-03     19.4190E-03
            4979            5158     10.9449E-03     13.8878E-03
            4979            5159     9.17203E-03     12.0021E-03
            4980            5142     19.0139E-03     19.4190E-03
            4980            5143     19.0869E-03     19.5899E-03
            4980            5159     9.17203E-03     12.0021E-03
            4980            5160     8.85630E-03     11.4663E-03
            4981            5143     19.0869E-03     19.5899E-03
            4981            5144     18.9370E-03     19.5005E-03
            4981            5160     8.85630E-03     11.4663E-03
            4981            5161     8.46203E-03     10.9957E-03
            4982            5144     18.9370E-03     19.5005E-03
            4982            5145     18.5181E-03     19.1569E-03
            4982            5161     8.46203E-03     10.9957E-03
            4982            5162     8.10541E-03     10.5876E-03
            4983            5145     18.5181E-03     19.1569E-03
            4983            5146     17.9025E-03     18.5822E-03
            4983            5162     8.10541E-03     10.5876E-03
            4983            5163     7.72826E-03     10.1475E-03
            4984            5146     17.9025E-03     18.5822E-03
            4984            5147     17.1763E-03     17.8803E-03
            4984            5163     7.72826E-03     10.1475E-03
            4984            5164     7.36328E-03     9.71862E-03
            4985            5147     17.1763E-03     17.8803E-03
            4985            5148     16.3734E-03     17.0727E-03
            4985            5164     7.36328E-03     9.71862E-03
            4985            5165     7.02790E-03     9.28794E-03
            4986            5148     16.3734E-03     17.0727E-03
            4986            5149     15.5409E-03     16.2219E-03
            4986            5165     7.02790E-03     9.28794E-03
            4986            5166     6.71483E-03     8.87603E-03
            4987            5149     15.5409E-03     16.2219E-03
            4987            5150     14.6998E-03     15.3409E-03
            4987            5166     6.71483E-03     8.87603E-03
            4987            5167     6.43460E-03     8.46751E-03
            4988            5150     14.6998E-03     15.3409E-03
            4988            5151     13.8830E-03     14.4741E-03
            4988            5167     6.43460E-03     8.46751E-03
            4988            5168     6.18327E-03     8.07815E-03
            4989            5151     13.8830E-03     14.4741E-03
            4989            5152     13.1133E-03     13.6354E-03
            4989            5168     6.18327E-03     8.07815E-03
            4989            5169     5.97140E-03     7.69672E-03
            4990            5152     13.1133E-03     13.6354E-03
            4990            5153     12.4468E-03     12.9001E-03
            4990            5169     5.97140E-03     7.69672E-03
            4990            5170     5.82319E-03     7.36446E-03
            4991            5153     12.4468E-03     12.9001E-03
            4991            5154     11.9160E-03     12.2920E-03
            4991            5170     5.82319E-03     7.36446E-03
            4991            5171     5.83048E-03     7.14643E-03
            4992            5154     11.9160E-03     12.2920E-03
            4992            5155     11.4502E-03     12.1473E-03
            4992            5171     5.83048E-03     7.14643E-03
            4992            5172     5.94834E-03     7.24040E-03
            4993            5155     11.4502E-03     12.1473E-03
            4993            5156     10.8685E-03     13.3645E-03
            4993            5172     5.94834E-03     7.24040E-03
            4993            5173     7.04711E-03     8.61862E-03
            4994             726     10.5127E-03     14.4227E-03
            4994             727     8.07979E-03     9.83441E-03
            4994            5156     10.8685E-03     13.3645E-03
            4994            5173     7.04711E-03     8.61862E-03
            4995             671     23.8633E-03     25.9036E-03
            4995             672     18.5215E-03     17.1354E-03
            4995            5157     18.2373E-03     20.7257E-03
            4995            5174     15.1908E-03     14.8240E-03
            4996            5157     18.2373E-03     20.7257E-03
            4996            5158     10.9449E-03     13.8878E-03
            4996            5174     15.1908E-03     14.8240E-03
            4996            5175     11.2852E-03     12.1595E-03
            4997            5158     10.9449E-03     13.8878E-03
            4997            5159     9.17203E-03     12.0021E-03
            4997            5175     11.2852E-03     12.1595E-03
            4997            5176     10.5373E-03     11.5428E-03
            4998            5159     9.17203E-03     12.0021E-03
            4998            5160     8.85630E-03     11.4663E-03
            4998            5176     10.5373E-03     11.5428E-03
            4998            5177     10.0909E-03     11.0245E-03
            4999            5160     8.85630E-03     11.4663E-03
            4999            5161     8.46203E-03     10.9957E-03
            4999            5177     10.0909E-03     11.0245E-03
            4999            5178     9.56172E-03     10.4793E-03
            5000            5161     8.46203E-03     10.9957E-03
            5000            5162     8.10541E-03     10.5876E-03
            5000            5178     9.56172E-03     10.4793E-03
            5000            5179     9.07793E-03     9.97674E-03
            5001            5162     8.10541E-03     10.5876E-03
            5001            5163     7.72826E-03     10.1475E-03
            5001            5179     9.07793E-03     9.97674E-03
            5001            5180     8.64951E-03     9.53091E-03
            5002            5163     7.72826E-03     10.1475E-03
            5002            5164     7.36328E-03     9.71862E-03
            5002            5180     8.64951E-03     9.53091E-03
            5002            5181     8.25961E-03     9.10965E-03
            5003            5164     7.36328E-03     9.71862E-03
            5003            5165     7.02790E-03     9.28794E-03
            5003            5181     8.25961E-03     9.10965E-03
            5003            5182     7.89903E-03     8.72042E-03
            5004            5165     7.02790E-03     9.28794E-03
            5004            5166     6.71483E-03     8.87603E-03
            5004            5182     7.89903E-03     8.72042E-03
            5004            5183     7.56447E-03     8.34351E-03
            5005            5166     6.71483E-03     8.87603E-03
            5005            5167     6.43460E-03     8.46751E-03
            5005            5183     7.56447E-03     8.34351E-03
            5005            5184     7.25062E-03     7.98785E-03
            5006            5167     6.43460E-03     8.46751E-03
            5006            5168     6.18327E-03     8.07815E-03
            5006            5184     7.25062E-03     7.98785E-03
            5006            5185     6.95622E-03     7.63868E-03
            5007            5168     6.18327E-03     8.07815E-03
            5007            5169     5.97140E-03     7.69672E-03
            5007            5185     6.95622E-03     7.63868E-03
            5007            5186     6.68340E-03     7.30534E-03
            5008            5169     5.97140E-03     7.69672E-03
            5008            5170     5.82319E-03     7.36446E-03
            5008            5186     6.68340E-03     7.30534E-03
            5008            5187     6.43664E-03     7.00167E-03
            5009            5170     5.82319E-03     7.36446E-03
            5009            5171     5.83048E-03     7.14643E-03
            5009            5187     6.43664E-03     7.00167E-03
            5009            5188     6.26356E-03     6.81551E-03
            5010            5171     5.83048E-03     7.14643E-03
            5010            5172     5.94834E-03     7.24040E-03
            5010            5188     6.26356E-03     6.81551E-03
            5010            5189     6.74228E-03     6.95932E-03
            5011            5172     5.94834E-03     7.24040E-03
            5011            5173     7.04711E-03     8.61862E-03
            5011            5189     6.74228E-03     6.95932E-03
            5011            5190     8.58407E-03     7.67142E-03
            5012             727     8.07979E-03     9.83441E-03
            5012             728     9.89213E-03     8.19261E-03
            5012            5173     7.04711E-03     8.61862E-03
            5012            5190     8.58407E-03     7.67142E-03
            5013             672     18.5215E-03     17.1354E-03
            5013             673     13.0537E-03     12.3783E-03
            5013            5174     15.1908E-03     14.8240E-03
            5013            5191     10.6441E-03     10.2079E-03
            5014            5174     15.1908E-03     14.8240E-03
            5014            5175     11.2852E-03     12.1595E-03
            5014            5191     10.6441E-03     10.2079E-03
            5014            5192     10.0323E-03     9.49456E-03
            5015            5175     11.2852E-03     12.1595E-03
            5015            5176     10.5373E-03     11.5428E-03
            5015            5192     10.0323E-03     9.49456E-03
            5015            5193     11.5322E-03     10.7241E-03
            5016            5176     10.5373E-03     11.5428E-03
            5016            5177     10.0909E-03     11.0245E-03
            5016            5193     11.5322E-03     10.7241E-03
            5016            5194     11.0107E-03     10.3011E-03
            5017            5177     10.0909E-03     11.0245E-03
            5017            5178     9.56172E-03     10.4793E-03
            5017            5194     11.0107E-03     10.3011E-03
            5017            5195     10.5123E-03     9.83945E-03
            5018            5178     9.56172E-03     10.4793E-03
            5018            5179     9.07793E-03     9.97674E-03
            5018            5195     10.5123E-03     9.83945E-03
            5018            5196     9.99884E-03     9.34286E-03
            5019            5179     9.07793E-03     9.97674E-03
            5019            5180     8.64951E-03     9.53091E-03
            5019            5196     9.99884E-03     9.34286E-03
            5019            5197     9.56102E-03     8.92582E-03
            5020            5180     8.64951E-03     9.53091E-03
            5020            5181     8.25961E-03     9.10965E-03
            5020            5197     9.56102E-03     8.92582E-03
            5020            5198     9.16718E-03     8.56101E-03
            5021            5181     8.25961E-03     9.10965E-03
            5021            5182     7.89903E-03     8.72042E-03
            5021            5198     9.16718E-03     8.56101E-03
            5021            5199     8.80091E-03     8.22277E-03
            5022            5182     7.89903E-03     8.72042E-03
            5022            5183     7.56447E-03     8.34351E-03
            5022            5199     8.80091E-03     8.22277E-03
            5022            5200     8.45552E-03     7.91064E-03
            5023            5183     7.56447E-03     8.34351E-03
            5023            5184     7.25062E-03     7.98785E-03
            5023            5200     8.45552E-03     7.91064E-03
            5023            5201     8.12798E-03     7.61801E-03
            5024            5184     7.25062E-03     7.98785E-03
            5024            5185     6.95622E-03     7.63868E-03
            5024            5201     8.12798E-03     7.61801E-03
            5024            5202     7.81716E-03     7.34418E-03
            5025            5185     6.95622E-03     7.63868E-03
            5025            5186     6.68340E-03     7.30534E-03
            5025            5202     7.81716E-03     7.34418E-03
            5025            5203     7.52411E-03     7.09464E-03
            5026            5186     6.68340E-03     7.30534E-03
            5026            5187     6.43664E-03     7.00167E-03
            5026            5203     7.52411E-03     7.09464E-03
            5026            5204     7.25655E-03     6.88020E-03
            5027            5187     6.43664E-03     7.00167E-03
            5027            5188     6.26356E-03     6.81551E-03
            5027            5204     7.25655E-03     6.88020E-03
            5027            5205     7.06152E-03     6.79359E-03
            5028            5188     6.26356E-03     6.81551E-03
            5028            5189     6.74228E-03     6.95932E-03
            5028            5205     7.06152E-03     6.79359E-03
            5028            5206     7.36399E-03     7.03086E-03
            5029            5189     6.74228E-03     6.95932E-03
            5029            5190     8.58407E-03     7.67142E-03
            5029            5206     7.36399E-03     7.03086E-03
            5029            5207     8.89366E-03     7.89656E-03
            5030             728     9.89213E-03     8.19261E-03
            5030             729     10.0574E-03     8.53657E-03
            5030            5190     8.58407E-03     7.67142E-03
            5030            5207     8.89366E-03     7.89656E-03
            5031             673     13.0537E-03     12.3783E-03
            5031             674     10.1219E-03     12.0262E-03
            5031            5191     10.6441E-03     10.2079E-03
            5031            5208     8.58682E-03     8.46431E-03
            5032            5191     10.6441E-03     10.2079E-03
            5032            5192     10.0323E-03     9.49456E-03
            5032            5208     8.58682E-03     8.46431E-03
            5032            5209     8.85433E-03     6.49263E-03
            5033            5192     10.0323E-03     9.49456E-03
            5033            5193     11.5322E-03     10.7241E-03
            5033            5209     8.85433E-03     6.49263E-03
            5033            5210     11.1055E-03     8.57826E-03
            5034            5193     11.5322E-03     10.7241E-03
            5034            5194     11.0107E-03     10.3011E-03
            5034            5210     11.1055E-03     8.57826E-03
            5034            5211     11.4554E-03     9.05889E-03
            5035            5194     11.0107E-03     10.3011E-03
            5035            5195     10.5123E-03     9.83945E-03
            5035            5211     11.4554E-03     9.05889E-03
            5035            5212     11.1932E-03     8.92621E-03
            5036            5195     10.5123E-03     9.83945E-03
            5036            5196     9.99884E-03     9.34286E-03
            5036            5212     11.1932E-03     8.92621E-03
            5036            5213     10.8415E-03     8.65621E-03
            5037            5196     9.99884E-03     9.34286E-03
            5037            5197     9.56102E-03     8.92582E-03
            5037            5213     10.8415E-03     8.65621E-03
            5037            5214     10.4563E-03     8.37154E-03
            5038            5197     9.56102E-03     8.92582E-03
            5038            5198     9.16718E-03     8.56101E-03
            5038            5214     10.4563E-03     8.37154E-03
            5038            5215     10.0862E-03     8.09401E-03
            5039            5198     9.16718E-03     8.56101E-03
            5039            5199     8.80091E-03     8.22277E-03
            5039            5215     10.0862E-03     8.09401E-03
            5039            5216     9.72541E-03     7.83476E-03
            5040            5199     8.80091E-03     8.22277E-03
            5040            5200     8.45552E-03     7.91064E-03
            5040            5216     9.72541E-03     7.83476E-03
            5040            5217     9.37688E-03     7.59806E-03
            5041            5200     8.45552E-03     7.91064E-03
            5041            5201     8.12798E-03     7.61801E-03
            5041            5217     9.37688E-03     7.59806E-03
            5041            5218     9.04090E-03     7.38251E-03
            5042            5201     8.12798E-03     7.61801E-03
            5042            5202     7.81716E-03     7.34418E-03
            5042            5218     9.04090E-03     7.38251E-03
            5042            5219     8.72639E-03     7.20519E-03
            5043            5202     7.81716E-03     7.34418E-03
            5043            5203     7.52411E-03     7.09464E-03
            5043            5219     8.72639E-03     7.20519E-03
            5043            5220     8.43425E-03     7.06136E-03
            5044            5203     7.52411E-03     7.09464E-03
            5044            5204     7.25655E-03     6.88020E-03
            5044            5220     8.43425E-03     7.06136E-03
            5044            5221     8.18930E-03     6.99749E-03
            5045            5204     7.25655E-03     6.88020E-03
            5045            5205     7.06152E-03     6.79359E-03
            5045            5221     8.18930E-03     6.99749E-03
            5045            5222     8.05251E-03     7.05924E-03
            5046            5205     7.06152E-03     6.79359E-03
            5046            5206     7.36399E-03     7.03086E-03
            5046            5222     8.05251E-03     7.05924E-03
            5046            5223     7.87746E-03     7.43620E-03
            5047            5206     7.36399E-03     7.03086E-03
            5047            5207     8.89366E-03     7.89656E-03
            5047            5223     7.87746E-03     7.43620E-03
            5047            5224     8.34791E-03     8.99609E-03
            5048             729     10.0574E-03     8.53657E-03
            5048             730     8.94884E-03     10.2449E-03
            5048            5207     8.89366E-03     7.89656E-03
            5048            5224     8.34791E-03     8.99609E-03
            5049              13     4.99474E-03     7.46426E-03
            5049             674     10.1219E-03     12.0262E-03
            5049             747     4.49805E-03     4.85029E-03
            5049            5208     8.58682E-03     8.46431E-03
            5050             746     4.54090E-03     2.80542E-03
            5050             747     4.49805E-03     4.85029E-03
            5050            5208     8.58682E-03     8.46431E-03
            5050            5209     8.85433E-03     6.49263E-03
            5051             745     5.52236E-03     3.83779E-03
            5051             746     4.54090E-03     2.80542E-03
            5051            5209     8.85433E-03     6.49263E-03
            5051            5210     11.1055E-03     8.57826E-03
            5052             744     5.98614E-03     4.41223E-03
            5052             745     5.52236E-03     3.83779E-03
            5052            5210     11.1055E-03     8.57826E-03
            5052            5211     11.4554E-03     9.05889E-03
            5053             743     5.97225E-03     4.46686E-03
            5053             744     5.98614E-03     4.41223E-03
            5053            5211     11.4554E-03     9.05889E-03
            5053            5212     11.1932E-03     8.92621E-03
            5054             742     5.84058E-03     4.40310E-03
            5054             743     5.97225E-03     4.46686E-03
            5054            5212     11.1932E-03     8.92621E-03
            5054            5213     10.8415E-03     8.65621E-03
            5055             741     5.66660E-03     4.30687E-03
            5055             742     5.84058E-03     4.40310E-03
            5055            5213     10.8415E-03     8.65621E-03
            5055            5214     10.4563E-03     8.37154E-03
            5056             740     5.48599E-03     4.18012E-03
            5056             741     5.66660E-03     4.30687E-03
            5056            5214     10.4563E-03     8.37154E-03
            5056            5215     10.0862E-03     8.09401E-03
            5057             739     5.30026E-03     4.07169E-03
            5057             740     5.48599E-03     4.18012E-03
            5057            5215     10.0862E-03     8.09401E-03
            5057            5216     9.72541E-03     7.83476E-03
            5058             738     5.12346E-03     3.96239E-03
            5058             739     5.30026E-03     4.07169E-03
            5058            5216     9.72541E-03     7.83476E-03
            5058            5217     9.37688E-03     7.59806E-03
            5059             737     4.94767E-03     3.87250E-03
            5059             738     5.12346E-03     3.96239E-03
            5059            5217     9.37688E-03     7.59806E-03
            5059            5218     9.04090E-03     7.38251E-03
            5060             736     4.78789E-03     3.80114E-03
            5060             737     4.94767E-03     3.87250E-03
            5060            5218     9.04090E-03     7.38251E-03
            5060            5219     8.72639E-03     7.20519E-03
            5061             735     4.63776E-03     3.75250E-03
            5061             736     4.78789E-03     3.80114E-03
            5061            5219     8.72639E-03     7.20519E-03
            5061            5220     8.43425E-03     7.06136E-03
            5062             734     4.52808E-03     3.76362E-03
            5062             735     4.63776E-03     3.75250E-03
            5062            5220     8.43425E-03     7.06136E-03
            5062            5221     8.18930E-03     6.99749E-03
            5063             733     4.43380E-03     3.81660E-03
            5063             734     4.52808E-03     3.76362E-03
            5063            5221     8.18930E-03     6.99749E-03
            5063            5222     8.05251E-03     7.05924E-03
            5064             732     4.34792E-03     4.08644E-03
            5064             733     4.43380E-03     3.81660E-03
            5064            5222     8.05251E-03     7.05924E-03
            5064            5223     7.87746E-03     7.43620E-03
            5065             731     4.16456E-03     4.90457E-03
            5065             732     4.34792E-03     4.08644E-03
            5065            5223     7.87746E-03     7.43620E-03
            5065            5224     8.34791E-03     8.99609E-03
            5066              26     4.00991E-03     5.46616E-03
            5066             730     8.94884E-03     10.2449E-03
            5066             731     4.16456E-03     4.90457E-03
            5066            5224     8.34791E-03     8.99609E-03
            5175              22     194.990E-03     209.973E-03
            5175             569     186.780E-03     197.443E-03
            5175             629     173.055E-03     175.399E-03
            5175            5310     163.559E-03     167.071E-03
            5176             568     178.672E-03     182.999E-03
            5176             569     186.780E-03     197.443E-03
            5176            5310     163.559E-03     167.071E-03
            5176            5311     148.340E-03     152.940E-03
            5177             567     175.371E-03     178.741E-03
            5177             568     178.672E-03     182.999E-03
            5177            5311     148.340E-03     152.940E-03
            5177            5312     138.881E-03     143.332E-03
            5178             566     170.687E-03     174.132E-03
            5178             567     175.371E-03     178.741E-03
            5178            5312     138.881E-03     143.332E-03
            5178            5313     131.262E-03     135.666E-03
            5179             565     166.415E-03     169.090E-03
            5179             566     170.687E-03     174.132E-03
            5179            5313     131.262E-03     135.666E-03
            5179            5314     123.738E-03     128.184E-03
            5180             564     161.239E-03     163.610E-03
            5180             565     166.415E-03     169.090E-03
            5180            5314     123.738E-03     128.184E-03
            5180            5315     116.355E-03     120.764E-03
            5181             563     156.099E-03     157.877E-03
            5181             564     161.239E-03     163.610E-03
            5181            5315     116.355E-03     120.764E-03
            5181            5316     108.851E-03     113.176E-03
            5182             562     150.569E-03     151.944E-03
            5182             563     156.099E-03     157.877E-03
            5182            5316     108.851E-03     113.176E-03
            5182            5317     101.281E-03     105.506E-03
            5183             561     145.092E-03     146.043E-03
            5183             562     150.569E-03     151.944E-03
            5183            5317     101.281E-03     105.506E-03
            5183            5318     93.6281E-03     97.7303E-03
            5184             560     139.515E-03     140.184E-03
            5184             561     145.092E-03     146.043E-03
            5184            5318     93.6281E-03     97.7303E-03
            5184            5319     85.9442E-03     89.9262E-03
            5185             559     134.071E-03     134.517E-03
            5185             560     139.515E-03     140.184E-03
            5185            5319     85.9442E-03     89.9262E-03
            5185            5320     78.2343E-03     82.0897E-03
            5186             558     128.653E-03     129.010E-03
            5186             559     134.071E-03     134.517E-03
            5186            5320     78.2343E-03     82.0897E-03
            5186            5321     70.5822E-03     74.3078E-03
            5187             557     123.309E-03     123.658E-03
            5187             558     128.653E-03     129.010E-03
            5187            5321     70.5822E-03     74.3078E-03
            5187            5322     62.9803E-03     66.5654E-03
            5188             556     117.902E-03     118.337E-03
            5188             557     123.309E-03     123.658E-03
            5188            5322     62.9803E-03     66.5654E-03
            5188            5323     55.6763E-03     59.1140E-03
            5189             555     111.534E-03     111.830E-03
            5189             556     117.902E-03     118.337E-03
            5189            5323     55.6763E-03     59.1140E-03
            5189            5324     48.6619E-03     51.8942E-03
            5190             554     105.619E-03     106.135E-03
            5190             555     111.534E-03     111.830E-03
            5190            5324     48.6619E-03     51.8942E-03
            5190            5325     43.0452E-03     46.0319E-03
            5191             553     100.619E-03     99.7367E-03
            5191             554     105.619E-03     106.135E-03
            5191            5325     43.0452E-03     46.0319E-03
            5191            5326     38.2921E-03     41.7715E-03
            5192              23     97.8754E-03     95.1959E-03
            5192             553     100.619E-03     99.7367E-03
            5192             608     35.6248E-03     39.7173E-03
            5192            5326     38.2921E-03     41.7715E-03
            5193             628     171.009E-03     170.820E-03
            5193             629     173.055E-03     175.399E-03
            5193            5310     163.559E-03     167.071E-03
            5193            5327     165.949E-03     167.350E-03
            5194            5310     163.559E-03     167.071E-03
            5194            5311     148.340E-03     152.940E-03
            5194            5327     165.949E-03     167.350E-03
            5194            5328     154.017E-03     157.777E-03
            5195            5311     148.340E-03     152.940E-03
            5195            5312     138.881E-03     143.332E-03
            5195            5328     154.017E-03     157.777E-03
            5195            5329     142.839E-03     147.055E-03
            5196            5312     138.881E-03     143.332E-03
            5196            5313     131.262E-03     135.666E-03
            5196            5329     142.839E-03     147.055E-03
            5196            5330     134.263E-03     138.096E-03
            5197            5313     131.262E-03     135.666E-03
            5197            5314     123.738E-03     128.184E-03
            5197            5330     134.263E-03     138.096E-03
            5197            5331     125.979E-03     129.628E-03
            5198            5314     123.738E-03     128.184E-03
            5198            5315     116.355E-03     120.764E-03
            5198            5331     125.979E-03     129.628E-03
            5198            5332     117.936E-03     121.450E-03
            5199            5315     116.355E-03     120.764E-03
            5199            5316     108.851E-03     113.176E-03
            5199            5332     117.936E-03     121.450E-03
            5199            5333     109.909E-03     113.348E-03
            5200            5316     108.851E-03     113.176E-03
            5200            5317     101.281E-03     105.506E-03
            5200            5333     109.909E-03     113.348E-03
            5200            5334     101.899E-03     105.276E-03
            5201            5317     101.281E-03     105.506E-03
            5201            5318     93.6281E-03     97.7303E-03
            5201            5334     101.899E-03     105.276E-03
            5201            5335     93.9027E-03     97.2257E-03
            5202            5318     93.6281E-03     97.7303E-03
            5202            5319     85.9442E-03     89.9262E-03
            5202            5335     93.9027E-03     97.2257E-03
            5202            5336     85.9224E-03     89.1804E-03
            5203            5319     85.9442E-03     89.9262E-03
            5203            5320     78.2343E-03     82.0897E-03
            5203            5336     85.9224E-03     89.1804E-03
            5203            5337     77.9800E-03     81.1682E-03
            5204            5320     78.2343E-03     82.0897E-03
            5204            5321     70.5822E-03     74.3078E-03
            5204            5337     77.9800E-03     81.1682E-03
            5204            5338     70.0825E-03     73.1855E-03
            5205            5321     70.5822E-03     74.3078E-03
            5205            5322     62.9803E-03     66.5654E-03
            5205            5338     70.0825E-03     73.1855E-03
            5205            5339     62.2829E-03     65.2903E-03
            5206            5322     62.9803E-03     66.5654E-03
            5206            5323     55.6763E-03     59.1140E-03
            5206            5339     62.2829E-03     65.2903E-03
            5206            5340     54.6152E-03     57.5682E-03
            5207            5323     55.6763E-03     59.1140E-03
            5207            5324     48.6619E-03     51.8942E-03
            5207            5340     54.6152E-03     57.5682E-03
            5207            5341     47.1547E-03     50.2501E-03
            5208            5324     48.6619E-03     51.8942E-03
            5208            5325     43.0452E-03     46.0319E-03
            5208            5341     47.1547E-03     50.2501E-03
            5208            5342     40.2544E-03     43.8526E-03
            5209            5325     43.0452E-03     46.0319E-03
            5209            5326     38.2921E-03     41.7715E-03
            5209            5342     40.2544E-03     43.8526E-03
            5209            5343     31.6174E-03     36.5265E-03
            5210             607     26.2386E-03     32.0915E-03
            5210             608     35.6248E-03     39.7173E-03
            5210            5326     38.2921E-03     41.7715E-03
            5210            5343     31.6174E-03     36.5265E-03
            5211             627     166.051E-03     170.369E-03
            5211             628     171.009E-03     170.820E-03
            5211            5327     165.949E-03     167.350E-03
            5211            5344     162.777E-03     166.585E-03
            5212            5327     165.949E-03     167.350E-03
            5212            5328     154.017E-03     157.777E-03
            5212            5344     162.777E-03     166.585E-03
            5212            5345     155.200E-03     158.221E-03
            5213            5328     154.017E-03     157.777E-03
            5213            5329     142.839E-03     147.055E-03
            5213            5345     155.200E-03     158.221E-03
            5213            5346     145.447E-03     148.519E-03
            5214            5329     142.839E-03     147.055E-03
            5214            5330     134.263E-03     138.096E-03
            5214            5346     145.447E-03     148.519E-03
            5214            5347     135.853E-03     138.916E-03
            5215            5330     134.263E-03     138.096E-03
            5215            5331     125.979E-03     129.628E-03
            5215            5347     135.853E-03     138.916E-03
            5215            5348     127.343E-03     130.048E-03
            5216            5331     125.979E-03     129.628E-03
            5216            5332     117.936E-03     121.450E-03
            5216            5348     127.343E-03     130.048E-03
            5216            5349     118.839E-03     121.432E-03
            5217            5332     117.936E-03     121.450E-03
            5217            5333     109.909E-03     113.348E-03
            5217            5349     118.839E-03     121.432E-03
            5217            5350     110.526E-03     113.053E-03
            5218            5333     109.909E-03     113.348E-03
            5218            5334     101.899E-03     105.276E-03
            5218            5350     110.526E-03     113.053E-03
            5218            5351     102.252E-03     104.771E-03
            5219            5334     101.899E-03     105.276E-03
            5219            5335     93.9027E-03     97.2257E-03
            5219            5351     102.252E-03     104.771E-03
            5219            5352     94.0490E-03     96.5590E-03
            5220            5335     93.9027E-03     97.2257E-03
            5220            5336     85.9224E-03     89.1804E-03
            5220            5352     94.0490E-03     96.5590E-03
            5220            5353     85.8868E-03     88.3977E-03
            5221            5336     85.9224E-03     89.1804E-03
            5221            5337     77.9800E-03     81.1682E-03
            5221            5353     85.8868E-03     88.3977E-03
            5221            5354     77.7820E-03     80.2729E-03
            5222            5337     77.9800E-03     81.1682E-03
            5222            5338     70.0825E-03     73.1855E-03
            5222            5354     77.7820E-03     80.2729E-03
            5222            5355     69.7175E-03     72.1814E-03
            5223            5338     70.0825E-03     73.1855E-03
            5223            5339     62.2829E-03     65.2903E-03
            5223            5355     69.7175E-03     72.1814E-03
            5223            5356     61.7422E-03     64.1757E-03
            5224            5339     62.2829E-03     65.2903E-03
            5224            5340     54.6152E-03     57.5682E-03
            5224            5356     61.7422E-03     64.1757E-03
            5224            5357     53.7780E-03     56.2010E-03
            5225            5340     54.6152E-03     57.5682E-03
            5225            5341     47.1547E-03     50.2501E-03
            5225            5357     53.7780E-03     56.2010E-03
            5225            5358     45.9174E-03     48.6450E-03
            5226            5341     47.1547E-03     50.2501E-03
            5226            5342     40.2544E-03     43.8526E-03
            5226            5358     45.9174E-03     48.6450E-03
            5226            5359     37.2325E-03     40.9971E-03
            5227            5342     40.2544E-03     43.8526E-03
            5227            5343     31.6174E-03     36.5265E-03
            5227            5359     37.2325E-03     40.9971E-03
            5227            5360     27.3370E-03     31.4496E-03
            5228             606     22.2722E-03     26.0093E-03
            5228             607     26.2386E-03     32.0915E-03
            5228            5343     31.6174E-03     36.5265E-03
            5228            5360     27.3370E-03     31.4496E-03
            5229             626     162.306E-03     162.171E-03
            5229             627     166.051E-03     170.369E-03
            5229            5344     162.777E-03     166.585E-03
            5229            5361     159.580E-03     160.676E-03
            5230            5344     162.777E-03     166.585E-03
            5230            5345     155.200E-03     158.221E-03
            5230            5361     159.580E-03     160.676E-03
            5230            5362     152.768E-03     155.002E-03
            5231            5345     155.200E-03     158.221E-03
            5231            5346     145.447E-03     148.519E-03
            5231            5362     152.768E-03     155.002E-03
            5231            5363     144.547E-03     146.421E-03
            5232            5346     145.447E-03     148.519E-03
            5232            5347     135.853E-03     138.916E-03
            5232            5363     144.547E-03     146.421E-03
            5232            5364     135.907E-03     137.582E-03
            5233            5347     135.853E-03     138.916E-03
            5233            5348     127.343E-03     130.048E-03
            5233            5364     135.907E-03     137.582E-03
            5233            5365     127.260E-03     128.875E-03
            5234            5348     127.343E-03     130.048E-03
            5234            5349     118.839E-03     121.432E-03
            5234            5365     127.260E-03     128.875E-03
            5234            5366     118.860E-03     120.421E-03
            5235            5349     118.839E-03     121.432E-03
            5235            5350     110.526E-03     113.053E-03
            5235            5366     118.860E-03     120.421E-03
            5235            5367     110.485E-03     112.087E-03
            5236            5350     110.526E-03     113.053E-03
            5236            5351     102.252E-03     104.771E-03
            5236            5367     110.485E-03     112.087E-03
            5236            5368     102.211E-03     103.847E-03
            5237            5351     102.252E-03     104.771E-03
            5237            5352     94.0490E-03     96.5590E-03
            5237            5368     102.211E-03     103.847E-03
            5237            5369     93.9593E-03     95.6600E-03
            5238            5352     94.0490E-03     96.5590E-03
            5238            5353     85.8868E-03     88.3977E-03
            5238            5369     93.9593E-03     95.6600E-03
            5238            5370     85.7586E-03     87.5040E-03
            5239            5353     85.8868E-03     88.3977E-03
            5239            5354     77.7820E-03     80.2729E-03
            5239            5370     85.7586E-03     87.5040E-03
            5239            5371     77.5690E-03     79.3688E-03
            5240            5354     77.7820E-03     80.2729E-03
            5240            5355     69.7175E-03     72.1814E-03
            5240            5371     77.5690E-03     79.3688E-03
            5240            5372     69.4311E-03     71.2616E-03
            5241            5355     69.7175E-03     72.1814E-03
            5241            5356     61.7422E-03     64.1757E-03
            5241            5372     69.4311E-03     71.2616E-03
            5241            5373     61.2816E-03     63.1427E-03
            5242            5356     61.7422E-03     64.1757E-03
            5242            5357     53.7780E-03     56.2010E-03
            5242            5373     61.2816E-03     63.1427E-03
            5242            5374     53.1790E-03     55.0839E-03
            5243            5357     53.7780E-03     56.2010E-03
            5243            5358     45.9174E-03     48.6450E-03
            5243            5374     53.1790E-03     55.0839E-03
            5243            5375     44.8388E-03     46.8694E-03
            5244            5358     45.9174E-03     48.6450E-03
            5244            5359     37.2325E-03     40.9971E-03
            5244            5375     44.8388E-03     46.8694E-03
            5244            5376     35.6773E-03     38.3074E-03
            5245            5359     37.2325E-03     40.9971E-03
            5245            5360     27.3370E-03     31.4496E-03
            5245            5376     35.6773E-03     38.3074E-03
            5245            5377     24.9185E-03     29.3512E-03
            5246             605     18.9873E-03     24.7134E-03
            5246             606     22.2722E-03     26.0093E-03
            5246            5360     27.3370E-03     31.4496E-03
            5246            5377     24.9185E-03     29.3512E-03
            5247             625     155.663E-03     154.232E-03
            5247             626     162.306E-03     162.171E-03
            5247            5361     159.580E-03     160.676E-03
            5247            5378     153.549E-03     152.593E-03
            5248            5361     159.580E-03     160.676E-03
            5248            5362     152.768E-03     155.002E-03
            5248            5378     153.549E-03     152.593E-03
            5248            5379     147.984E-03     147.716E-03
            5249            5362     152.768E-03     155.002E-03
            5249            5363     144.547E-03     146.421E-03
            5249            5379     147.984E-03     147.716E-03
            5249            5380     141.100E-03     141.109E-03
            5250            5363     144.547E-03     146.421E-03
            5250            5364     135.907E-03     137.582E-03
            5250            5380     141.100E-03     141.109E-03
            5250            5381     133.777E-03     133.873E-03
            5251            5364     135.907E-03     137.582E-03
            5251            5365     127.260E-03     128.875E-03
            5251            5381     133.777E-03     133.873E-03
            5251            5382     125.850E-03     126.184E-03
            5252            5365     127.260E-03     128.875E-03
            5252            5366     118.860E-03     120.421E-03
            5252            5382     125.850E-03     126.184E-03
            5252            5383     117.868E-03     118.395E-03
            5253            5366     118.860E-03     120.421E-03
            5253            5367     110.485E-03     112.087E-03
            5253            5383     117.868E-03     118.395E-03
            5253            5384     109.851E-03     110.488E-03
            5254            5367     110.485E-03     112.087E-03
            5254            5368     102.211E-03     103.847E-03
            5254            5384     109.851E-03     110.488E-03
            5254            5385     101.771E-03     102.548E-03
            5255            5368     102.211E-03     103.847E-03
            5255            5369     93.9593E-03     95.6600E-03
            5255            5385     101.771E-03     102.548E-03
            5255            5386     93.6850E-03     94.5573E-03
            5256            5369     93.9593E-03     95.6600E-03
            5256            5370     85.7586E-03     87.5040E-03
            5256            5386     93.6850E-03     94.5573E-03
            5256            5387     85.5394E-03     86.5351E-03
            5257            5370     85.7586E-03     87.5040E-03
            5257            5371     77.5690E-03     79.3688E-03
            5257            5387     85.5394E-03     86.5351E-03
            5257            5388     77.3844E-03     78.4876E-03
            5258            5371     77.5690E-03     79.3688E-03
            5258            5372     69.4311E-03     71.2616E-03
            5258            5388     77.3844E-03     78.4876E-03
            5258            5389     69.1828E-03     70.4139E-03
            5259            5372     69.4311E-03     71.2616E-03
            5259            5373     61.2816E-03     63.1427E-03
            5259            5389     69.1828E-03     70.4139E-03
            5259            5390     60.9598E-03     62.2979E-03
            5260            5373     61.2816E-03     63.1427E-03
            5260            5374     53.1790E-03     55.0839E-03
            5260            5390     60.9598E-03     62.2979E-03
            5260            5391     52.6659E-03     54.1023E-03
            5261            5374     53.1790E-03     55.0839E-03
            5261            5375     44.8388E-03     46.8694E-03
            5261            5391     52.6659E-03     54.1023E-03
            5261            5392     44.1608E-03     45.5628E-03
            5262            5375     44.8388E-03     46.8694E-03
            5262            5376     35.6773E-03     38.3074E-03
            5262            5392     44.1608E-03     45.5628E-03
            5262            5393     35.3929E-03     36.6065E-03
            5263            5376     35.6773E-03     38.3074E-03
            5263            5377     24.9185E-03     29.3512E-03
            5263            5393     35.3929E-03     36.6065E-03
            5263            5394     25.5265E-03     27.9196E-03
            5264             604     20.1082E-03     23.7888E-03
            5264             605     18.9873E-03     24.7134E-03
            5264            5377     24.9185E-03     29.3512E-03
            5264            5394     25.5265E-03     27.9196E-03
            5265              25     147.590E-03     148.620E-03
            5265             625     155.663E-03     154.232E-03
            5265             675     144.558E-03     145.242E-03
            5265            5378     153.549E-03     152.593E-03
            5266             675     144.558E-03     145.242E-03
            5266             676     138.648E-03     138.838E-03
            5266            5378     153.549E-03     152.593E-03
            5266            5379     147.984E-03     147.716E-03
            5267             676     138.648E-03     138.838E-03
            5267             677     132.114E-03     132.546E-03
            5267            5379     147.984E-03     147.716E-03
            5267            5380     141.100E-03     141.109E-03
            5268             677     132.114E-03     132.546E-03
            5268             678     124.962E-03     125.733E-03
            5268            5380     141.100E-03     141.109E-03
            5268            5381     133.777E-03     133.873E-03
            5269             678     124.962E-03     125.733E-03
            5269             679     117.678E-03     118.615E-03
            5269            5381     133.777E-03     133.873E-03
            5269            5382     125.850E-03     126.184E-03
            5270             679     117.678E-03     118.615E-03
            5270             680     110.179E-03     111.280E-03
            5270            5382     125.850E-03     126.184E-03
            5270            5383     117.868E-03     118.395E-03
            5271             680     110.179E-03     111.280E-03
            5271             681     102.646E-03     103.825E-03
            5271            5383     117.868E-03     118.395E-03
            5271            5384     109.851E-03     110.488E-03
            5272             681     102.646E-03     103.825E-03
            5272             682     95.0376E-03     96.3127E-03
            5272            5384     109.851E-03     110.488E-03
            5272            5385     101.771E-03     102.548E-03
            5273             682     95.0376E-03     96.3127E-03
            5273             683     87.3956E-03     88.7226E-03
            5273            5385     101.771E-03     102.548E-03
            5273            5386     93.6850E-03     94.5573E-03
            5274             683     87.3956E-03     88.7226E-03
            5274             684     79.7057E-03     81.1169E-03
            5274            5386     93.6850E-03     94.5573E-03
            5274            5387     85.5394E-03     86.5351E-03
            5275             684     79.7057E-03     81.1169E-03
            5275             685     71.9868E-03     73.4636E-03
            5275            5387     85.5394E-03     86.5351E-03
            5275            5388     77.3844E-03     78.4876E-03
            5276             685     71.9868E-03     73.4636E-03
            5276             686     64.2301E-03     65.7973E-03
            5276            5388     77.3844E-03     78.4876E-03
            5276            5389     69.1828E-03     70.4139E-03
            5277             686     64.2301E-03     65.7973E-03
            5277             687     56.4496E-03     58.1002E-03
            5277            5389     69.1828E-03     70.4139E-03
            5277            5390     60.9598E-03     62.2979E-03
            5278             687     56.4496E-03     58.1002E-03
            5278             688     48.6033E-03     50.3103E-03
            5278            5390     60.9598E-03     62.2979E-03
            5278            5391     52.6659E-03     54.1023E-03
            5279             688     48.6033E-03     50.3103E-03
            5279             689     40.7197E-03     42.3977E-03
            5279            5391     52.6659E-03     54.1023E-03
            5279            5392     44.1608E-03     45.5628E-03
            5280             689     40.7197E-03     42.3977E-03
            5280             690     32.7814E-03     34.2475E-03
            5280            5392     44.1608E-03     45.5628E-03
            5280            5393     35.3929E-03     36.6065E-03
            5281             690     32.7814E-03     34.2475E-03
            5281             691     24.9768E-03     25.9995E-03
            5281            5393     35.3929E-03     36.6065E-03
            5281            5394     25.5265E-03     27.9196E-03
            5282              24     21.1647E-03     21.9298E-03
            5282             604     20.1082E-03     23.7888E-03
            5282             691     24.9768E-03     25.9995E-03
            5282            5394     25.5265E-03     27.9196E-03
            5739              13     4.99474E-03     7.46426E-03
            5739             194     858.854E-06     903.700E-06
            5739             747     4.49805E-03     4.85029E-03
            5739            5777     732.785E-06     786.443E-06
            5740             746     4.54090E-03     2.80542E-03
            5740             747     4.49805E-03     4.85029E-03
            5740            5777     732.785E-06     786.443E-06
            5740            5778     553.762E-06     615.667E-06
            5741             745     5.52236E-03     3.83779E-03
            5741             746     4.54090E-03     2.80542E-03
            5741            5778     553.762E-06     615.667E-06
            5741            5779     493.118E-06     553.844E-06
            5742             744     5.98614E-03     4.41223E-03
            5742             745     5.52236E-03     3.83779E-03
            5742            5779     493.118E-06     553.844E-06
            5742            5780     477.633E-06     535.462E-06
            5743             743     5.97225E-03     4.46686E-03
            5743             744     5.98614E-03     4.41223E-03
            5743            5780     477.633E-06     535.462E-06
            5743            5781     465.902E-06     520.540E-06
            5744             742     5.84058E-03     4.40310E-03
            5744             743     5.97225E-03     4.46686E-03
            5744            5781     465.902E-06     520.540E-06
            5744            5782     454.892E-06     507.606E-06
            5745             741     5.66660E-03     4.30687E-03
            5745             742     5.84058E-03     4.40310E-03
            5745            5782     454.892E-06     507.606E-06
            5745            5783     442.669E-06     493.513E-06
            5746             740     5.48599E-03     4.18012E-03
            5746             741     5.66660E-03     4.30687E-03
            5746            5783     442.669E-06     493.513E-06
            5746            5784     431.341E-06     480.134E-06
            5747             739     5.30026E-03     4.07169E-03
            5747             740     5.48599E-03     4.18012E-03
            5747            5784     431.341E-06     480.134E-06
            5747            5785     420.495E-06     466.834E-06
            5748             738     5.12346E-03     3.96239E-03
            5748             739     5.30026E-03     4.07169E-03
            5748            5785     420.495E-06     466.834E-06
            5748            5786     411.244E-06     454.623E-06
            5749             737     4.94767E-03     3.87250E-03
            5749             738     5.12346E-03     3.96239E-03
            5749            5786     411.244E-06     454.623E-06
            5749            5787     403.207E-06     443.226E-06
            5750             736     4.78789E-03     3.80114E-03
            5750             737     4.94767E-03     3.87250E-03
            5750            5787     403.207E-06     443.226E-06
            5750            5788     396.990E-06     432.831E-06
            5751             735     4.63776E-03     3.75250E-03
            5751             736     4.78789E-03     3.80114E-03
            5751            5788     396.990E-06     432.831E-06
            5751            5789     392.106E-06     423.583E-06
            5752             734     4.52808E-03     3.76362E-03
            5752             735     4.63776E-03     3.75250E-03
            5752            5789     392.106E-06     423.583E-06
            5752            5790     389.235E-06     414.953E-06
            5753             733     4.43380E-03     3.81660E-03
            5753             734     4.52808E-03     3.76362E-03
            5753            5790     389.235E-06     414.953E-06
            5753            5791     386.835E-06     407.068E-06
            5754             732     4.34792E-03     4.08644E-03
            5754             733     4.43380E-03     3.81660E-03
            5754            5791     386.835E-06     407.068E-06
            5754            5792     382.117E-06     406.036E-06
            5755             731     4.16456E-03     4.90457E-03
            5755             732     4.34792E-03     4.08644E-03
            5755            5792     382.117E-06     406.036E-06
            5755            5793     380.773E-06     406.420E-06
            5756              26     4.00991E-03     5.46616E-03
            5756             731     4.16456E-03     4.90457E-03
            5756             791     382.495E-06     404.617E-06
            5756            5793     380.773E-06     406.420E-06
            5757             194     858.854E-06     903.700E-06
            5757             195     639.943E-06     631.737E-06
            5757            5777     732.785E-06     786.443E-06
            5757            5794     602.476E-06     608.714E-06
            5758            5777     732.785E-06     786.443E-06
            5758            5778     553.762E-06     615.667E-06
            5758            5794     602.476E-06     608.714E-06
            5758            5795     547.951E-06     573.507E-06
            5759            5778     553.762E-06     615.667E-06
            5759            5779     493.118E-06     553.844E-06
            5759            5795     547.951E-06     573.507E-06
            5759            5796     521.868E-06     556.249E-06
            5760            5779     493.118E-06     553.844E-06
            5760            5780     477.633E-06     535.462E-06
            5760            5796     521.868E-06     556.249E-06
            5760            5797     510.620E-06     544.498E-06
            5761            5780     477.633E-06     535.462E-06
            5761            5781     465.902E-06     520.540E-06
            5761            5797     510.620E-06     544.498E-06
            5761            5798     497.258E-06     527.988E-06
            5762            5781     465.902E-06     520.540E-06
            5762            5782     454.892E-06     507.606E-06
            5762            5798     497.258E-06     527.988E-06
            5762            5799     480.072E-06     510.812E-06
            5763            5782     454.892E-06     507.606E-06
            5763            5783     442.669E-06     493.513E-06
            5763            5799     480.072E-06     510.812E-06
            5763            5800     465.800E-06     495.071E-06
            5764            5783     442.669E-06     493.513E-06
            5764            5784     431.341E-06     480.134E-06
            5764            5800     465.800E-06     495.071E-06
            5764            5801     452.087E-06     480.504E-06
            5765            5784     431.341E-06     480.134E-06
            5765            5785     420.495E-06     466.834E-06
            5765            5801     452.087E-06     480.504E-06
            5765            5802     440.713E-06     467.754E-06
            5766            5785     420.495E-06     466.834E-06
            5766            5786     411.244E-06     454.623E-06
            5766            5802     440.713E-06     467.754E-06
            5766            5803     430.583E-06     456.083E-06
            5767            5786     411.244E-06     454.623E-06
            5767            5787     403.207E-06     443.226E-06
            5767            5803     430.583E-06     456.083E-06
            5767            5804     422.167E-06     445.925E-06
            5768            5787     403.207E-06     443.226E-06
            5768            5788     396.990E-06     432.831E-06
            5768            5804     422.167E-06     445.925E-06
            5768            5805     415.219E-06     436.746E-06
            5769            5788     396.990E-06     432.831E-06
            5769            5789     392.106E-06     423.583E-06
            5769            5805     415.219E-06     436.746E-06
            5769            5806     409.557E-06     429.186E-06
            5770            5789     392.106E-06     423.583E-06
            5770            5790     389.235E-06     414.953E-06
            5770            5806     409.557E-06     429.186E-06
            5770            5807     405.979E-06     422.518E-06
            5771            5790     389.235E-06     414.953E-06
            5771            5791     386.835E-06     407.068E-06
            5771            5807     405.979E-06     422.518E-06
            5771            5808     404.368E-06     416.815E-06
            5772            5791     386.835E-06     407.068E-06
            5772            5792     382.117E-06     406.036E-06
            5772            5808     404.368E-06     416.815E-06
            5772            5809     406.296E-06     410.057E-06
            5773            5792     382.117E-06     406.036E-06
            5773            5793     380.773E-06     406.420E-06
            5773            5809     406.296E-06     410.057E-06
            5773            5810     419.333E-06     396.855E-06
            5774             790     429.528E-06     387.928E-06
            5774             791     382.495E-06     404.617E-06
            5774            5793     380.773E-06     406.420E-06
            5774            5810     419.333E-06     396.855E-06
            5775             195     639.943E-06     631.737E-06
            5775             196     415.806E-06     419.467E-06
            5775            5794     602.476E-06     608.714E-06
            5775            5811     417.907E-06     432.588E-06
            5776            5794     602.476E-06     608.714E-06
            5776            5795     547.951E-06     573.507E-06
            5776            5811     417.907E-06     432.588E-06
            5776            5812     467.916E-06     492.372E-06
            5777            5795     547.951E-06     573.507E-06
            5777            5796     521.868E-06     556.249E-06
            5777            5812     467.916E-06     492.372E-06
            5777            5813     529.949E-06     542.752E-06
            5778            5796     521.868E-06     556.249E-06
            5778            5797     510.620E-06     544.498E-06
            5778            5813     529.949E-06     542.752E-06
            5778            5814     534.192E-06     540.864E-06
            5779            5797     510.620E-06     544.498E-06
            5779            5798     497.258E-06     527.988E-06
            5779            5814     534.192E-06     540.864E-06
            5779            5815     518.503E-06     526.904E-06
            5780            5798     497.258E-06     527.988E-06
            5780            5799     480.072E-06     510.812E-06
            5780            5815     518.503E-06     526.904E-06
            5780            5816     502.334E-06     509.361E-06
            5781            5799     480.072E-06     510.812E-06
            5781            5800     465.800E-06     495.071E-06
            5781            5816     502.334E-06     509.361E-06
            5781            5817     485.642E-06     493.326E-06
            5782            5800     465.800E-06     495.071E-06
            5782            5801     452.087E-06     480.504E-06
            5782            5817     485.642E-06     493.326E-06
            5782            5818     472.281E-06     479.588E-06
            5783            5801     452.087E-06     480.504E-06
            5783            5802     440.713E-06     467.754E-06
            5783            5818     472.281E-06     479.588E-06
            5783            5819     460.349E-06     467.658E-06
            5784            5802     440.713E-06     467.754E-06
            5784            5803     430.583E-06     456.083E-06
            5784            5819     460.349E-06     467.658E-06
            5784            5820     450.414E-06     457.606E-06
            5785            5803     430.583E-06     456.083E-06
            5785            5804     422.167E-06     445.925E-06
            5785            5820     450.414E-06     457.606E-06
            5785            5821     441.777E-06     448.661E-06
            5786            5804     422.167E-06     445.925E-06
            5786            5805     415.219E-06     436.746E-06
            5786            5821     441.777E-06     448.661E-06
            5786            5822     434.306E-06     441.408E-06
            5787            5805     415.219E-06     436.746E-06
            5787            5806     409.557E-06     429.186E-06
            5787            5822     434.306E-06     441.408E-06
            5787            5823     428.457E-06     435.010E-06
            5788            5806     409.557E-06     429.186E-06
            5788            5807     405.979E-06     422.518E-06
            5788            5823     428.457E-06     435.010E-06
            5788            5824     423.275E-06     430.809E-06
            5789            5807     405.979E-06     422.518E-06
            5789            5808     404.368E-06     416.815E-06
            5789            5824     423.275E-06     430.809E-06
            5789            5825     421.835E-06     427.475E-06
            5790            5808     404.368E-06     416.815E-06
            5790            5809     406.296E-06     410.057E-06
            5790            5825     421.835E-06     427.475E-06
            5790            5826     431.378E-06     414.556E-06
            5791            5809     406.296E-06     410.057E-06
            5791            5810     419.333E-06     396.855E-06
            5791            5826     431.378E-06     414.556E-06
            5791            5827     439.862E-06     395.764E-06
            5792             789     440.561E-06     387.678E-06
            5792             790     429.528E-06     387.928E-06
            5792            5810     419.333E-06     396.855E-06
            5792            5827     439.862E-06     395.764E-06
            5793             196     415.806E-06     419.467E-06
            5793             197     231.083E-06     206.395E-06
            5793            5811     417.907E-06     432.588E-06
            5793            5828     278.635E-06     274.808E-06
            5794            5811     417.907E-06     432.588E-06
            5794            5812     467.916E-06     492.372E-06
            5794            5828     278.635E-06     274.808E-06
            5794            5829     409.248E-06     410.428E-06
            5795            5812     467.916E-06     492.372E-06
            5795            5813     529.949E-06     542.752E-06
            5795            5829     409.248E-06     410.428E-06
            5795            5830     511.618E-06     495.393E-06
            5796            5813     529.949E-06     542.752E-06
            5796            5814     534.192E-06     540.864E-06
            5796            5830     511.618E-06     495.393E-06
            5796            5831     532.332E-06     513.944E-06
            5797            5814     534.192E-06     540.864E-06
            5797            5815     518.503E-06     526.904E-06
            5797            5831     532.332E-06     513.944E-06
            5797            5832     527.202E-06     509.346E-06
            5798            5815     518.503E-06     526.904E-06
            5798            5816     502.334E-06     509.361E-06
            5798            5832     527.202E-06     509.346E-06
            5798            5833     514.905E-06     498.533E-06
            5799            5816     502.334E-06     509.361E-06
            5799            5817     485.642E-06     493.326E-06
            5799            5833     514.905E-06     498.533E-06
            5799            5834     502.386E-06     487.040E-06
            5800            5817     485.642E-06     493.326E-06
            5800            5818     472.281E-06     479.588E-06
            5800            5834     502.386E-06     487.040E-06
            5800            5835     490.543E-06     476.428E-06
            5801            5818     472.281E-06     479.588E-06
            5801            5819     460.349E-06     467.658E-06
            5801            5835     490.543E-06     476.428E-06
            5801            5836     480.163E-06     467.309E-06
            5802            5819     460.349E-06     467.658E-06
            5802            5820     450.414E-06     457.606E-06
            5802            5836     480.163E-06     467.309E-06
            5802            5837     470.726E-06     459.215E-06
            5803            5820     450.414E-06     457.606E-06
            5803            5821     441.777E-06     448.661E-06
            5803            5837     470.726E-06     459.215E-06
            5803            5838     462.326E-06     452.412E-06
            5804            5821     441.777E-06     448.661E-06
            5804            5822     434.306E-06     441.408E-06
            5804            5838     462.326E-06     452.412E-06
            5804            5839     454.905E-06     446.445E-06
            5805            5822     434.306E-06     441.408E-06
            5805            5823     428.457E-06     435.010E-06
            5805            5839     454.905E-06     446.445E-06
            5805            5840     448.164E-06     442.065E-06
            5806            5823     428.457E-06     435.010E-06
            5806            5824     423.275E-06     430.809E-06
            5806            5840     448.164E-06     442.065E-06
            5806            5841     442.819E-06     438.590E-06
            5807            5824     423.275E-06     430.809E-06
            5807            5825     421.835E-06     427.475E-06
            5807            5841     442.819E-06     438.590E-06
            5807            5842     438.266E-06     436.810E-06
            5808            5825     421.835E-06     427.475E-06
            5808            5826     431.378E-06     414.556E-06
            5808            5842     438.266E-06     436.810E-06
            5808            5843     436.333E-06     436.524E-06
            5809            5826     431.378E-06     414.556E-06
            5809            5827     439.862E-06     395.764E-06
            5809            5843     436.333E-06     436.524E-06
            5809            5844     447.573E-06     427.544E-06
            5810             788     457.962E-06     418.842E-06
            5810             789     440.561E-06     387.678E-06
            5810            5827     439.862E-06     395.764E-06
            5810            5844     447.573E-06     427.544E-06
            5811             197     231.083E-06     206.395E-06
            5811             198     144.394E-06     225.818E-06
            5811            5828     278.635E-06     274.808E-06
            5811            5845     228.289E-06     244.394E-06
            5812            5828     278.635E-06     274.808E-06
            5812            5829     409.248E-06     410.428E-06
            5812            5845     228.289E-06     244.394E-06
            5812            5846     377.142E-06     324.731E-06
            5813            5829     409.248E-06     410.428E-06
            5813            5830     511.618E-06     495.393E-06
            5813            5846     377.142E-06     324.731E-06
            5813            5847     470.192E-06     420.545E-06
            5814            5830     511.618E-06     495.393E-06
            5814            5831     532.332E-06     513.944E-06
            5814            5847     470.192E-06     420.545E-06
            5814            5848     510.617E-06     465.296E-06
            5815            5831     532.332E-06     513.944E-06
            5815            5832     527.202E-06     509.346E-06
            5815            5848     510.617E-06     465.296E-06
            5815            5849     523.578E-06     479.506E-06
            5816            5832     527.202E-06     509.346E-06
            5816            5833     514.905E-06     498.533E-06
            5816            5849     523.578E-06     479.506E-06
            5816            5850     522.246E-06     481.703E-06
            5817            5833     514.905E-06     498.533E-06
            5817            5834     502.386E-06     487.040E-06
            5817            5850     522.246E-06     481.703E-06
            5817            5851     516.661E-06     478.196E-06
            5818            5834     502.386E-06     487.040E-06
            5818            5835     490.543E-06     476.428E-06
            5818            5851     516.661E-06     478.196E-06
            5818            5852     508.747E-06     473.062E-06
            5819            5835     490.543E-06     476.428E-06
            5819            5836     480.163E-06     467.309E-06
            5819            5852     508.747E-06     473.062E-06
            5819            5853     500.398E-06     467.360E-06
            5820            5836     480.163E-06     467.309E-06
            5820            5837     470.726E-06     459.215E-06
            5820            5853     500.398E-06     467.360E-06
            5820            5854     492.096E-06     461.922E-06
            5821            5837     470.726E-06     459.215E-06
            5821            5838     462.326E-06     452.412E-06
            5821            5854     492.096E-06     461.922E-06
            5821            5855     484.042E-06     457.078E-06
            5822            5838     462.326E-06     452.412E-06
            5822            5839     454.905E-06     446.445E-06
            5822            5855     484.042E-06     457.078E-06
            5822            5856     476.596E-06     452.875E-06
            5823            5839     454.905E-06     446.445E-06
            5823            5840     448.164E-06     442.065E-06
            5823            5856     476.596E-06     452.875E-06
            5823            5857     469.454E-06     449.731E-06
            5824            5840     448.164E-06     442.065E-06
            5824            5841     442.819E-06     438.590E-06
            5824            5857     469.454E-06     449.731E-06
            5824            5858     463.271E-06     447.282E-06
            5825            5841     442.819E-06     438.590E-06
            5825            5842     438.266E-06     436.810E-06
            5825            5858     463.271E-06     447.282E-06
            5825            5859     456.154E-06     446.259E-06
            5826            5842     438.266E-06     436.810E-06
            5826            5843     436.333E-06     436.524E-06
            5826            5859     456.154E-06     446.259E-06
            5826            5860     445.597E-06     453.118E-06
            5827            5843     436.333E-06     436.524E-06
            5827            5844     447.573E-06     427.544E-06
            5827            5860     445.597E-06     453.118E-06
            5827            5861     437.348E-06     464.318E-06
            5828             787     435.214E-06     468.982E-06
            5828             788     457.962E-06     418.842E-06
            5828            5844     447.573E-06     427.544E-06
            5828            5861     437.348E-06     464.318E-06
            5829              14     168.150E-06     321.065E-06
            5829             198     144.394E-06     225.818E-06
            5829             824     241.863E-06     272.674E-06
            5829            5845     228.289E-06     244.394E-06
            5830             823     352.824E-06     277.960E-06
            5830             824     241.863E-06     272.674E-06
            5830            5845     228.289E-06     244.394E-06
            5830            5846     377.142E-06     324.731E-06
            5831             822     442.254E-06     377.919E-06
            5831             823     352.824E-06     277.960E-06
            5831            5846     377.142E-06     324.731E-06
            5831            5847     470.192E-06     420.545E-06
            5832             821     498.795E-06     436.970E-06
            5832             822     442.254E-06     377.919E-06
            5832            5847     470.192E-06     420.545E-06
            5832            5848     510.617E-06     465.296E-06
            5833             820     517.696E-06     462.730E-06
            5833             821     498.795E-06     436.970E-06
            5833            5848     510.617E-06     465.296E-06
            5833            5849     523.578E-06     479.506E-06
            5834             819     526.689E-06     472.999E-06
            5834             820     517.696E-06     462.730E-06
            5834            5849     523.578E-06     479.506E-06
            5834            5850     522.246E-06     481.703E-06
            5835             818     522.895E-06     473.425E-06
            5835             819     526.689E-06     472.999E-06
            5835            5850     522.246E-06     481.703E-06
            5835            5851     516.661E-06     478.196E-06
            5836             817     518.516E-06     471.979E-06
            5836             818     522.895E-06     473.425E-06
            5836            5851     516.661E-06     478.196E-06
            5836            5852     508.747E-06     473.062E-06
            5837             816     510.494E-06     467.410E-06
            5837             817     518.516E-06     471.979E-06
            5837            5852     508.747E-06     473.062E-06
            5837            5853     500.398E-06     467.360E-06
            5838             815     503.236E-06     463.841E-06
            5838             816     510.494E-06     467.410E-06
            5838            5853     500.398E-06     467.360E-06
            5838            5854     492.096E-06     461.922E-06
            5839             814     495.146E-06     459.498E-06
            5839             815     503.236E-06     463.841E-06
            5839            5854     492.096E-06     461.922E-06
            5839            5855     484.042E-06     457.078E-06
            5840             813     487.650E-06     456.670E-06
            5840             814     495.146E-06     459.498E-06
            5840            5855     484.042E-06     457.078E-06
            5840            5856     476.596E-06     452.875E-06
            5841             812     480.639E-06     453.508E-06
            5841             813     487.650E-06     456.670E-06
            5841            5856     476.596E-06     452.875E-06
            5841            5857     469.454E-06     449.731E-06
            5842             811     473.349E-06     452.291E-06
            5842             812     480.639E-06     453.508E-06
            5842            5857     469.454E-06     449.731E-06
            5842            5858     463.271E-06     447.282E-06
            5843             810     465.963E-06     451.206E-06
            5843             811     473.349E-06     452.291E-06
            5843            5858     463.271E-06     447.282E-06
            5843            5859     456.154E-06     446.259E-06
            5844             809     457.106E-06     455.547E-06
            5844             810     465.963E-06     451.206E-06
            5844            5859     456.154E-06     446.259E-06
            5844            5860     445.597E-06     453.118E-06
            5845             808     426.643E-06     475.791E-06
            5845             809     457.106E-06     455.547E-06
            5845            5860     445.597E-06     453.118E-06
            5845            5861     437.348E-06     464.318E-06
            5846              28     402.706E-06     490.746E-06
            5846             787     435.214E-06     468.982E-06
            5846             808     426.643E-06     475.791E-06
            5846            5861     437.348E-06     464.318E-06


  Minimum                            89.9879E-06     206.395E-06
      At Element                             856            5811
            Node                             308             197

  Maximum                            252.102E-03     250.066E-03
      At Element                            2421            2421
            Node                             521             521

           Total                         420.581         429.357


